<UPF version="2.0.1">
  <PP_INFO>
    Generated using "atomic" code by A. Dal Corso  v.7.5
    Author: ADC
    Generation date: 25Jun2026
    Pseudopotential type: PAW
    Element:  O
    Functional:  SLA  PW   PSX  PSC
    Suggested minimum cutoff for wavefunctions:  47. Ry
    Suggested minimum cutoff for charge density: 323. Ry
    The Pseudo was generated with a Scalar-Relativistic Calculation
    Local Potential by smoothing AE potential with Bessel fncs, cutoff radius:   1.1000
    Valence configuration: 
    nl pn  l   occ       Rcut    Rcut US       E pseu
    2S  1  0  2.00      1.000      1.300    -1.749896
    2P  2  1  4.00      0.900      1.350    -0.659587
    Generation configuration:
    2S  1  0  2.00      1.000      1.300    -1.749890
    2S  1  0  0.00      1.000      1.300     1.000000
    2P  2  1  4.00      0.900      1.350    -0.659581
    2P  2  1  0.00      0.900      1.350     0.050000
    Pseudization used: troullier-martins
    <PP_INPUTFILE>
@input
title='O',
zed=8.,
rel=1,
config='[He] 2s2 2p4',
iswitch=3,
dft='PBESOL'
/
@inputp
lpaw=.true.,
pseudotype=3,
file_pseudopw='O.pbesol-n-kjpaw_psl.1.0.0.UPF',
author='ADC',
lloc=-1,
rcloc=1.1
which_augfun='PSQ',
rmatch_augfun_nc=.true.,
nlcc=.true.,
new_core_ps=.true.,
rcore=0.7,
tm=.true.
/
4
2S  1  0  2.00  0.00  1.00  1.30  0.0
2S  1  0  0.00  1.00  1.00  1.30  0.0
2P  2  1  4.00  0.00  0.90  1.35  0.0
2P  2  1  0.00  0.05  0.90  1.35  0.0
    </PP_INPUTFILE>
  </PP_INFO>
    <!-- END OF HUMAN READABLE SECTION -->
  <PP_HEADER generated="Generated using 'atomic' code by A. Dal Corso  v.7.5" author="ADC" date="25Jun2026" comment="" element=" O" pseudo_type="PAW" relativistic="scalar" is_ultrasoft="true" is_paw="true" is_coulomb="false" has_so="false" has_wfc="true" has_gipaw="false" paw_as_gipaw="false" core_correction="true" with_metagga_info="false" functional=" SLA  PW   PSX  PSC" z_valence="6.0000000000000000" total_psenergy="-40.635657694070368" wfc_cutoff="46.596443334748223" rho_cutoff="322.94717369763453" l_max="1" l_max_rho="2" l_local="-1" mesh_size="1095" number_of_wfc="2" number_of_proj="4"/>
  <PP_MESH mesh="1095" dx="1.2500000000000001E-002" xmin="-7.0000000000000000" rmax="100.00000000000000" zmesh="8.0000000000000000">
    <PP_R>
   1.139852456943145E-04   1.154190035836278E-04   1.168707959270728E-04
   1.183408495701567E-04   1.198293942117525E-04   1.213366624399886E-04
   1.228628897685923E-04   1.244083146736889E-04   1.259731786310638E-04
   1.275577261538943E-04   1.291622048309546E-04   1.307868653653023E-04
   1.324319616134513E-04   1.340977506250371E-04   1.357844926829822E-04
   1.374924513441648E-04   1.392218934806004E-04   1.409730893211415E-04
   1.427463124937009E-04   1.445418400680072E-04   1.463599525988968E-04
   1.482009341701516E-04   1.500650724388876E-04   1.519526586805018E-04
   1.538639878341851E-04   1.557993585490062E-04   1.577590732305768E-04
   1.597434380883031E-04   1.617527631832310E-04   1.637873624764950E-04
   1.658475538783739E-04   1.679336592979659E-04   1.700460046934867E-04
   1.721849201232021E-04   1.743507397969998E-04   1.765438021286102E-04
   1.787644497884843E-04   1.810130297573369E-04   1.832898933803629E-04
   1.855953964221359E-04   1.879298991221965E-04   1.902937662513414E-04
   1.926873671686188E-04   1.951110758790415E-04   1.975652710920271E-04
   2.000503362805705E-04   2.025666597411633E-04   2.051146346544658E-04
   2.076946591467417E-04   2.103071363520676E-04   2.129524744753217E-04
   2.156310868559678E-04   2.183433920326400E-04   2.210898138085401E-04
   2.238707813176587E-04   2.266867290918269E-04   2.295380971286134E-04
   2.324253309600751E-04   2.353488817223722E-04   2.383092062262596E-04
   2.413067670284637E-04   2.443420325039584E-04   2.474154769191496E-04
   2.505275805059799E-04   2.536788295369668E-04   2.568697164011824E-04
   2.601007396811912E-04   2.633724042309543E-04   2.666852212547135E-04
   2.700397083868693E-04   2.734363897728606E-04   2.768757961510646E-04
   2.803584649357254E-04   2.838849403009259E-04   2.874557732656170E-04
   2.910715217797142E-04   2.947327508112791E-04   2.984400324347967E-04
   3.021939459205629E-04   3.059950778251979E-04   3.098440220832948E-04
   3.137413801002248E-04   3.176877608461073E-04   3.216837809509625E-04
   3.257300648010623E-04   3.298272446364902E-04   3.339759606499313E-04
   3.381768610867033E-04   3.424306023460460E-04   3.467378490836861E-04
   3.510992743156891E-04   3.555155595236209E-04   3.599873947610304E-04
   3.645154787612710E-04   3.691005190466808E-04   3.737432320391325E-04
   3.784443431719769E-04   3.832045870033929E-04   3.880247073311636E-04
   3.929054573088975E-04   3.978475995637084E-04   4.028519063153783E-04
   4.079191594970185E-04   4.130501508772477E-04   4.182456821839090E-04
   4.235065652293390E-04   4.288336220372168E-04   4.342276849710067E-04
   4.396895968640161E-04   4.452202111510912E-04   4.508203920019663E-04
   4.564910144562929E-04   4.622329645603665E-04   4.680471395055725E-04
   4.739344477685760E-04   4.798958092532704E-04   4.859321554345163E-04
   4.920444295036854E-04   4.982335865160363E-04   5.045005935399448E-04
   5.108464298080083E-04   5.172720868700546E-04   5.237785687480724E-04
   5.303668920930925E-04   5.370380863440425E-04   5.437931938885961E-04
   5.506332702260508E-04   5.575593841322502E-04   5.645726178265832E-04
   5.716740671410841E-04   5.788648416916557E-04   5.861460650514514E-04
   5.935188749264347E-04   6.009844233331482E-04   6.085438767787204E-04
   6.161984164431315E-04   6.239492383637771E-04   6.317975536223518E-04
   6.397445885340814E-04   6.477915848393406E-04   6.559397998976731E-04
   6.641905068842594E-04   6.725449949888526E-04   6.810045696172156E-04
   6.895705525950964E-04   6.982442823747625E-04   7.070271142441385E-04
   7.159204205385731E-04   7.249255908552677E-04   7.340440322704065E-04
   7.432771695590118E-04   7.526264454175699E-04   7.620933206894547E-04
   7.716792745931876E-04   7.813858049535702E-04   7.912144284357184E-04
   8.011666807820479E-04   8.112441170522359E-04   8.214483118662016E-04
   8.317808596501467E-04   8.422433748856834E-04   8.528374923621034E-04
   8.635648674318165E-04   8.744271762690013E-04   8.854261161315157E-04
   8.965634056260874E-04   9.078407849768614E-04   9.192600162973045E-04
   9.308228838655423E-04   9.425311944031595E-04   9.543867773574952E-04
   9.663914851875088E-04   9.785471936532217E-04   9.908558021088118E-04
   1.003319233799395E-03   1.015939436161526E-03   1.028718381127504E-03
   1.041658065433476E-03   1.054760510931441E-03   1.068027764905168E-03
   1.081461900390079E-03   1.095065016497179E-03   1.108839238741032E-03
   1.122786719371889E-03   1.136909637711978E-03   1.151210200496018E-03
   1.165690642216041E-03   1.180353225470526E-03   1.195200241317938E-03
   1.210234009634712E-03   1.225456879477728E-03   1.240871229451376E-03
   1.256479468079198E-03   1.272284034180234E-03   1.288287397250094E-03
   1.304492057846813E-03   1.320900547981582E-03   1.337515431514366E-03
   1.354339304554519E-03   1.371374795866436E-03   1.388624567280288E-03
   1.406091314107958E-03   1.423777765564172E-03   1.441686685192953E-03
   1.459820871299432E-03   1.478183157387077E-03   1.496776412600453E-03
   1.515603542173512E-03   1.534667487883554E-03   1.553971228510887E-03
   1.573517780304250E-03   1.593310197452134E-03   1.613351572559984E-03
   1.633645037133435E-03   1.654193762067618E-03   1.675000958142604E-03
   1.696069876525117E-03   1.717403809276518E-03   1.739006089867202E-03
   1.760880093697467E-03   1.783029238624907E-03   1.805456985498485E-03
   1.828166838699278E-03   1.851162346688050E-03   1.874447102559715E-03
   1.898024744604743E-03   1.921898956877679E-03   1.946073469772761E-03
   1.970552060606811E-03   1.995338554209453E-03   2.020436823520734E-03
   2.045850790196303E-03   2.071584425220157E-03   2.097641749525120E-03
   2.124026834621135E-03   2.150743803231423E-03   2.177796829936689E-03
   2.205190141827395E-03   2.232928019164254E-03   2.261014796047039E-03
   2.289454861091772E-03   2.318252658116486E-03   2.347412686835551E-03
   2.376939503562782E-03   2.406837721923366E-03   2.437112013574749E-03
   2.467767108936598E-03   2.498807797929929E-03   2.530238930725549E-03
   2.562065418501907E-03   2.594292234212468E-03   2.626924413362754E-03
   2.659967054797147E-03   2.693425321495596E-03   2.727304441380347E-03
   2.761609708132805E-03   2.796346482020700E-03   2.831520190735621E-03
   2.867136330241116E-03   2.903200465631447E-03   2.939718232001138E-03
   2.976695335325485E-03   3.014137553352109E-03   3.052050736503754E-03
   3.090440808792425E-03   3.129313768745018E-03   3.168675690340618E-03
   3.208532723959554E-03   3.248891097344418E-03   3.289757116573164E-03
   3.331137167044436E-03   3.373037714475311E-03   3.415465305911571E-03
   3.458426570750697E-03   3.501928221777728E-03   3.545977056214138E-03
   3.590579956779929E-03   3.635743892769060E-03   3.681475921138411E-03
   3.727783187610464E-03   3.774672927789813E-03   3.822152468293762E-03
   3.870229227897112E-03   3.918910718691361E-03   3.968204547258494E-03
   4.018118415859508E-03   4.068660123637929E-03   4.119837567838421E-03
   4.171658745040760E-03   4.224131752409320E-03   4.277264788958254E-03
   4.331066156832628E-03   4.385544262605630E-03   4.440707618592121E-03
   4.496564844178708E-03   4.553124667170529E-03   4.610395925155002E-03
   4.668387566882703E-03   4.727108653665635E-03   4.786568360793083E-03
   4.846775978965251E-03   4.907740915744977E-03   4.969472697027665E-03
   5.031980968529731E-03   5.095275497295778E-03   5.159366173224694E-03
   5.224263010614990E-03   5.289976149729540E-03   5.356515858380023E-03
   5.423892533531297E-03   5.492116702925928E-03   5.561199026729190E-03
   5.631150299194728E-03   5.701981450351176E-03   5.773703547710015E-03
   5.846327797994873E-03   5.919865548892616E-03   5.994328290826434E-03
   6.069727658751247E-03   6.146075433971698E-03   6.223383545982993E-03
   6.301664074334922E-03   6.380929250519302E-03   6.461191459881176E-03
   6.542463243554048E-03   6.624757300419475E-03   6.708086489091267E-03
   6.792463829924687E-03   6.877902507050907E-03   6.964415870437050E-03
   7.052017437972169E-03   7.140720897579412E-03   7.230540109354811E-03
   7.321489107732945E-03   7.413582103679840E-03   7.506833486913493E-03
   7.601257828152247E-03   7.696869881391529E-03   7.793684586209182E-03
   7.891717070099797E-03   7.990982650838446E-03   8.091496838874069E-03
   8.193275339753045E-03   8.296334056573205E-03   8.400689092468720E-03
   8.506356753126275E-03   8.613353549332823E-03   8.721696199555458E-03
   8.831401632553703E-03   8.942486990024652E-03   9.054969629281432E-03
   9.168867125965267E-03   9.284197276791738E-03   9.400978102331554E-03
   9.519227849826291E-03   9.638964996039589E-03   9.760208250144146E-03
   9.882976556645086E-03   1.000728909834007E-02   1.013316529931665E-02
   1.026062482798735E-02   1.038968760016282E-02   1.052037378216380E-02
   1.065270379397211E-02   1.078669831242131E-02   1.092237827442755E-02
   1.105976488026091E-02   1.119887959685809E-02   1.133974416117657E-02
   1.148238058359111E-02   1.162681115133294E-02   1.177305843197209E-02
   1.192114527694371E-02   1.207109482511861E-02   1.222293050641876E-02
   1.237667604547829E-02   1.253235546535047E-02   1.268999309126139E-02
   1.284961355441080E-02   1.301124179582083E-02   1.317490307023304E-02
   1.334062295005453E-02   1.350842732935366E-02   1.367834242790612E-02
   1.385039479529175E-02   1.402461131504297E-02   1.420101920884547E-02
   1.437964604079155E-02   1.456051972168713E-02   1.474366851341282E-02
   1.492912103333995E-02   1.511690625880209E-02   1.530705353162274E-02
   1.549959256270016E-02   1.569455343664966E-02   1.589196661650445E-02
   1.609186294847553E-02   1.629427366677146E-02   1.649923039847878E-02
   1.670676516850381E-02   1.691691040457659E-02   1.712969894231781E-02
   1.734516403036941E-02   1.756333933558977E-02   1.778425894831421E-02
   1.800795738768166E-02   1.823446960702843E-02   1.846383099934961E-02
   1.869607740282939E-02   1.893124510644083E-02   1.916937085561606E-02
   1.941049185798788E-02   1.965464578920346E-02   1.990187079881129E-02
   2.015220551622211E-02   2.040568905674480E-02   2.066236102769832E-02
   2.092226153460032E-02   2.118543118743377E-02   2.145191110699236E-02
   2.172174293130564E-02   2.199496882214519E-02   2.227163147161231E-02
   2.255177410880886E-02   2.283544050659185E-02   2.312267498841303E-02
   2.341352243524463E-02   2.370802829259192E-02   2.400623857759428E-02
   2.430819988621546E-02   2.461395940052426E-02   2.492356489606690E-02
   2.523706474933193E-02   2.555450794530926E-02   2.587594408514410E-02
   2.620142339388723E-02   2.653099672834289E-02   2.686471558501508E-02
   2.720263210815413E-02   2.754479909790425E-02   2.789127001855373E-02
   2.824209900688886E-02   2.859734088065281E-02   2.895705114711111E-02
   2.932128601172473E-02   2.969010238693227E-02   3.006355790104277E-02
   3.044171090724010E-02   3.082462049270083E-02   3.121234648782671E-02
   3.160494947559331E-02   3.200249080101626E-02   3.240503258073645E-02
   3.281263771272593E-02   3.322536988611585E-02   3.364329359114798E-02
   3.406647412925158E-02   3.449497762324665E-02   3.492887102767593E-02
   3.536822213926663E-02   3.581309960752376E-02   3.626357294545692E-02
   3.671971254044162E-02   3.718158966521759E-02   3.764927648902529E-02
   3.812284608888241E-02   3.860237246100249E-02   3.908793053235673E-02
   3.957959617238167E-02   4.007744620483386E-02   4.058155841979372E-02
   4.109201158582052E-02   4.160888546225996E-02   4.213226081170681E-02
   4.266221941262424E-02   4.319884407212182E-02   4.374221863889443E-02
   4.429242801632360E-02   4.484955817574397E-02   4.541369616987644E-02
   4.598493014643029E-02   4.656334936187663E-02   4.714904419539463E-02
   4.774210616299364E-02   4.834262793181269E-02   4.895070333459987E-02
   4.956642738437412E-02   5.018989628927085E-02   5.082120746757492E-02
   5.146045956294235E-02   5.210775245981355E-02   5.276318729902069E-02
   5.342686649359085E-02   5.409889374474844E-02   5.477937405811870E-02
   5.546841376013498E-02   5.616612051465271E-02   5.687260333977171E-02
   5.758797262487076E-02   5.831234014785609E-02   5.904581909262684E-02
   5.978852406676052E-02   6.054057111942033E-02   6.130207775948830E-02
   6.207316297392623E-02   6.285394724636761E-02   6.364455257594366E-02
   6.444510249634554E-02   6.525572209512705E-02   6.607653803324971E-02
   6.690767856487378E-02   6.774927355739840E-02   6.860145451175333E-02
   6.946435458294646E-02   7.033810860086952E-02   7.122285309136538E-02
   7.211872629756085E-02   7.302586820146700E-02   7.394442054585193E-02
   7.487452685638822E-02   7.581633246407918E-02   7.676998452796724E-02
   7.773563205812754E-02   7.871342593895130E-02   7.970351895272172E-02
   8.070606580348651E-02   8.172122314123093E-02   8.274914958635428E-02
   8.379000575445496E-02   8.484395428142685E-02   8.591115984887153E-02
   8.699178920983026E-02   8.808601121483921E-02   8.919399683831286E-02
   9.031591920525908E-02   9.145195361833022E-02   9.260227758521475E-02
   9.376707084637276E-02   9.494651540312112E-02   9.614079554607138E-02
   9.735009788392561E-02   9.857461137263460E-02   9.981452734492216E-02
   1.010700395401816E-01   1.023413441347478E-01   1.036286397725500E-01
   1.049321275961509E-01   1.062520112781748E-01   1.075884970531323E-01
   1.089417937496448E-01   1.103121128230744E-01   1.116996683885645E-01
   1.131046772544950E-01   1.145273589563598E-01   1.159679357910692E-01
   1.174266328516845E-01   1.189036780625893E-01   1.203993022151028E-01
   1.219137390035416E-01   1.234472250617353E-01   1.250000000000000E-01
   1.265723064425793E-01   1.281643900655537E-01   1.297764996352282E-01
   1.314088870470031E-01   1.330618073647324E-01   1.347355188605790E-01
   1.364302830553690E-01   1.381463647594560E-01   1.398840321140977E-01
   1.416435566333533E-01   1.434252132465091E-01   1.452292803410354E-01
   1.470560398060864E-01   1.489057770765449E-01   1.507787811776226E-01
   1.526753447700213E-01   1.545957641956607E-01   1.565403395239831E-01
   1.585093745988400E-01   1.605031770859677E-01   1.625220585210614E-01
   1.645663343584527E-01   1.666363240204004E-01   1.687323509470005E-01
   1.708547426467245E-01   1.730038307475940E-01   1.751799510489967E-01
   1.773834435741573E-01   1.796146526232657E-01   1.818739268272752E-01
   1.841616192023770E-01   1.864780872051588E-01   1.888236927884592E-01
   1.911988024579225E-01   1.936037873292666E-01   1.960390231862711E-01
   1.985048905394930E-01   2.010017746857230E-01   2.035300657681889E-01
   2.060901588375160E-01   2.086824539134554E-01   2.113073560473865E-01
   2.139652753856082E-01   2.166566272334245E-01   2.193818321200373E-01
   2.221413158642548E-01   2.249355096410262E-01   2.277648500488137E-01
   2.306297791778126E-01   2.335307446790278E-01   2.364681998342213E-01
   2.394426036267371E-01   2.424544208132194E-01   2.455041219962311E-01
   2.485921836977865E-01   2.517190884338096E-01   2.548853247895270E-01
   2.580913874958110E-01   2.613377775064821E-01   2.646250020765843E-01
   2.679535748416449E-01   2.713240158979304E-01   2.747368518837129E-01
   2.781926160615587E-01   2.816918484016511E-01   2.852350956661630E-01
   2.888229114946881E-01   2.924558564907490E-01   2.961344983093927E-01
   2.998594117458873E-01   3.036311788255361E-01   3.074503888946188E-01
   3.113176387124790E-01   3.152335325447687E-01   3.191986822578659E-01
   3.232137074144809E-01   3.272792353704627E-01   3.313959013728260E-01
   3.355643486590090E-01   3.397852285573806E-01   3.440592005890134E-01
   3.483869325707314E-01   3.527691007194624E-01   3.572063897578957E-01
   3.616994930214701E-01   3.662491125667131E-01   3.708559592809336E-01
   3.755207529933040E-01   3.802442225873332E-01   3.850271061147539E-01
   3.898701509108494E-01   3.947741137112211E-01   3.997397607700343E-01
   4.047678679797454E-01   4.098592209923342E-01   4.150146153420689E-01
   4.202348565698038E-01   4.255207603488522E-01   4.308731526124346E-01
   4.362928696827302E-01   4.417807584015592E-01   4.473376762626975E-01
   4.529644915458676E-01   4.586620834524058E-01   4.644313422426380E-01
   4.702731693749893E-01   4.761884776468328E-01   4.821781913371216E-01
   4.882432463508068E-01   4.943845903650722E-01   5.006031829774161E-01
   5.068999958555845E-01   5.132760128894014E-01   5.197322303445013E-01
   5.262696570179950E-01   5.328893143961028E-01   5.395922368137556E-01
   5.463794716162196E-01   5.532520793227422E-01   5.602111337922581E-01
   5.672577223911884E-01   5.743929461633362E-01   5.816179200019336E-01
   5.889337728238431E-01   5.963416477459503E-01   6.038427022637854E-01
   6.114381084323758E-01   6.191290530493891E-01   6.269167378405703E-01
   6.348023796475102E-01   6.427872106177864E-01   6.508724783974813E-01
   6.590594463261362E-01   6.673493936341475E-01   6.757436156426458E-01
   6.842434239659007E-01   6.928501467162530E-01   7.015651287116443E-01
   7.103897316857435E-01   7.193253345007163E-01   7.283733333626849E-01
   7.375351420398772E-01   7.468121920835402E-01   7.562059330516188E-01
   7.657178327352483E-01   7.753493773881089E-01   7.851020719586458E-01
   7.949774403252287E-01   8.049770255342580E-01   8.151023900412641E-01
   8.253551159550543E-01   8.357368052849090E-01   8.462490801909092E-01
   8.568935832373978E-01   8.676719776496294E-01   8.785859475736626E-01
   8.896371983394996E-01   9.008274567275582E-01   9.121584712384796E-01
   9.236320123663313E-01   9.352498728752607E-01   9.470138680796061E-01
   9.589258361275534E-01   9.709876382883472E-01   9.832011592431115E-01
   9.955683073793475E-01   1.008091015089109E+00   1.020771239070956E+00
   1.033610960635684E+00   1.046612186015908E+00   1.059776946679548E+00
   1.073107299647237E+00   1.086605327813750E+00   1.100273140273452E+00
   1.114112872649842E+00   1.128126687429266E+00   1.142316774298791E+00
   1.156685350488361E+00   1.171234661117242E+00   1.185966979544816E+00
   1.200884607725814E+00   1.215989876569986E+00   1.231285146306323E+00
   1.246772806851841E+00   1.262455278185007E+00   1.278335010723876E+00
   1.294414485708962E+00   1.310696215590946E+00   1.327182744423251E+00
   1.343876648259544E+00   1.360780535556269E+00   1.377897047580201E+00
   1.395228858821171E+00   1.412778677409949E+00   1.430549245541390E+00
   1.448543339902925E+00   1.466763772108402E+00   1.485213389137424E+00
   1.503895073780192E+00   1.522811745087934E+00   1.541966358829033E+00
   1.561361907950852E+00   1.581001423047403E+00   1.600887972832880E+00
   1.621024664621142E+00   1.641414644811254E+00   1.662061099379099E+00
   1.682967254375214E+00   1.704136376428846E+00   1.725571773258387E+00
   1.747276794188206E+00   1.769254830671976E+00   1.791509316822619E+00
   1.814043729948866E+00   1.836861591098618E+00   1.859966465609106E+00
   1.883361963663974E+00   1.907051740857397E+00   1.931039498765253E+00
   1.955328985523521E+00   1.979923996413929E+00   2.004828374456959E+00
   2.030046011012357E+00   2.055580846387133E+00   2.081436870451268E+00
   2.107618123261131E+00   2.134128695690733E+00   2.160972730070958E+00
   2.188154420836786E+00   2.215678015182705E+00   2.243547813726332E+00
   2.271768171180383E+00   2.300343497033134E+00   2.329278256237377E+00
   2.358576969908110E+00   2.388244216028959E+00   2.418284630167477E+00
   2.448702906199502E+00   2.479503797042542E+00   2.510692115398458E+00
   2.542272734505453E+00   2.574250588899504E+00   2.606630675185429E+00
   2.639418052817578E+00   2.672617844890418E+00   2.706235238939009E+00
   2.740275487749559E+00   2.774743910180208E+00   2.809645891992078E+00
   2.844986886690841E+00   2.880772416378825E+00   2.917008072617840E+00
   2.953699517302906E+00   2.990852483546894E+00   3.028472776576372E+00
   3.066566274638672E+00   3.105138929920356E+00   3.144196769477300E+00
   3.183745896176387E+00   3.223792489649133E+00   3.264342807257249E+00
   3.305403185070350E+00   3.346980038856020E+00   3.389079865082238E+00
   3.431709241932512E+00   3.474874830333711E+00   3.518583374996832E+00
   3.562841705470915E+00   3.607656737210129E+00   3.653035472654368E+00
   3.698985002323373E+00   3.745512505924628E+00   3.792625253475245E+00
   3.840330606437867E+00   3.888636018870958E+00   3.937549038593496E+00
   3.987077308364313E+00   4.037228567076340E+00   4.088010650965772E+00
   4.139431494836539E+00   4.191499133300121E+00   4.244221702030944E+00
   4.297607439037654E+00   4.351664685950256E+00   4.406401889323567E+00
   4.461827601956989E+00   4.517950484230867E+00   4.574779305459755E+00
   4.632322945262574E+00   4.690590394950125E+00   4.749590758929975E+00
   4.809333256129017E+00   4.869827221434003E+00   4.931082107150069E+00
   4.993107484477742E+00   5.055913045008429E+00   5.119508602238725E+00
   5.183904093103852E+00   5.249109579530251E+00   5.315135250007848E+00
   5.381991421181995E+00   5.449688539465439E+00   5.518237182670661E+00
   5.587648061662607E+00   5.657932022032345E+00   5.729100045791689E+00
   5.801163253089122E+00   5.874132903947419E+00   5.948020400022963E+00
   6.022837286387352E+00   6.098595253331307E+00   6.175306138191273E+00
   6.252981927199102E+00   6.331634757354833E+00   6.411276918323213E+00
   6.491920854353936E+00   6.573579166226057E+00   6.656264613216962E+00
   6.739990115095946E+00   6.824768754143030E+00   6.910613777193061E+00
   6.997538597705519E+00   7.085556797860484E+00   7.174682130680780E+00
   7.264928522180998E+00   7.356310073543432E+00   7.448841063321374E+00
   7.542535949670257E+00   7.637409372606672E+00   7.733476156295986E+00
   7.830751311368615E+00   7.929250037265418E+00   8.028987724612744E+00
   8.129979957627127E+00   8.232242516550462E+00   8.335791380115651E+00
   8.440642728043269E+00   8.546812943569778E+00   8.654318616007330E+00
   8.763176543335982E+00   8.873403734828367E+00   8.985017413707384E+00
   9.098035019837468E+00   9.212474212449481E+00   9.328352872900114E+00
   9.445689107465835E+00   9.564501250171986E+00   9.684807865657621E+00
   9.806627752076144E+00   9.929979944032667E+00   1.005488371555816E+01
   1.018135858312102E+01   1.030942430867664E+01   1.043910090275516E+01
   1.057040862758825E+01   1.070336800027508E+01   1.083799979598811E+01
   1.097432505121937E+01   1.111236506706729E+01   1.125214141256523E+01
   1.139367592805156E+01   1.153699072858224E+01   1.168210820738647E+01
   1.182905103936552E+01   1.197784218463586E+01   1.212850489211668E+01
   1.228106270316251E+01   1.243553945524174E+01   1.259195928566114E+01
   1.275034663533746E+01   1.291072625261636E+01   1.307312319713928E+01
   1.323756284375925E+01   1.340407088650557E+01   1.357267334259870E+01
   1.374339655651545E+01   1.391626720410529E+01   1.409131229675867E+01
   1.426855918562738E+01   1.444803556589846E+01   1.462976948112149E+01
   1.481378932759042E+01   1.500012385878069E+01   1.518880218984187E+01
   1.537985380214707E+01   1.557330854789943E+01   1.576919665479652E+01
   1.596754873075363E+01   1.616839576868612E+01   1.637176915135232E+01
   1.657770065625708E+01   1.678622246061694E+01   1.699736714638814E+01
   1.721116770535734E+01   1.742765754429690E+01   1.764687049018463E+01
   1.786884079548925E+01   1.809360314352264E+01   1.832119265385890E+01
   1.855164488782207E+01   1.878499585404262E+01   1.902128201408370E+01
   1.926054028813861E+01   1.950280806079939E+01   1.974812318689843E+01
   1.999652399742333E+01   2.024804930550604E+01   2.050273841248775E+01
   2.076063111405951E+01   2.102176770648068E+01   2.128618899287514E+01
   2.155393628960679E+01   2.182505143273556E+01   2.209957678455406E+01
   2.237755524020708E+01   2.265903023439392E+01   2.294404574815500E+01
   2.323264631574429E+01   2.352487703158756E+01   2.382078355732875E+01
   2.412041212896457E+01   2.442380956406887E+01   2.473102326910822E+01
   2.504210124684898E+01   2.535709210385811E+01   2.567604505809792E+01
   2.599900994661633E+01   2.632603723333434E+01   2.665717801693076E+01
   2.699248403882676E+01   2.733200769127052E+01   2.767580202552340E+01
   2.802392076014966E+01   2.837641828940976E+01   2.873334969175986E+01
   2.909477073845779E+01   2.946073790227733E+01   2.983130836633248E+01
   3.020654003301210E+01   3.058649153302755E+01   3.097122223457379E+01
   3.136079225260557E+01   3.175526245823091E+01   3.215469448822187E+01
   3.255915075464585E+01   3.296869445461741E+01   3.338338958017277E+01
   3.380330092826912E+01   3.422849411090882E+01   3.465903556539175E+01
   3.509499256469619E+01   3.553643322799012E+01   3.598342653127542E+01
   3.643604231816502E+01   3.689435131079654E+01   3.735842512088257E+01
   3.782833626089998E+01   3.830415815542057E+01   3.878596515258330E+01
   3.927383253571178E+01   3.976783653507726E+01   4.026805433980957E+01
   4.077456410995854E+01   4.128744498870611E+01   4.180677711473313E+01
   4.233264163474094E+01   4.286512071613055E+01   4.340429755984189E+01
   4.395025641335360E+01   4.450308258384739E+01   4.506286245153721E+01
   4.562968348316611E+01   4.620363424567365E+01   4.678480442003402E+01
   4.737328481526944E+01   4.796916738263903E+01   4.857254523000610E+01
   4.918351263638706E+01   4.980216506668199E+01   5.042859918659189E+01
   5.106291287772257E+01   5.170520525287860E+01   5.235557667155054E+01
   5.301412875559557E+01   5.368096440511674E+01   5.435618781454108E+01
   5.503990448889986E+01   5.573222126031470E+01   5.643324630468944E+01
   5.714308915861362E+01   5.786186073647745E+01   5.858967334780213E+01
   5.932664071478911E+01   6.007287799008867E+01   6.082850177479340E+01
   6.159363013665710E+01   6.236838262854275E+01   6.315288030710369E+01
   6.394724575169803E+01   6.475160308354275E+01   6.556607798510755E+01
   6.639079771975264E+01   6.722589115161468E+01   6.807148876574118E+01
   6.892772268847985E+01   6.979472670812325E+01   7.067263629581315E+01
   7.156158862670898E+01   7.246172260142080E+01   7.337317886771361E+01
   7.429609984248353E+01   7.523062973401028E+01   7.617691456449101E+01
   7.713510219285546E+01   7.810534233787011E+01   7.908778660153176E+01
   8.008258849275511E+01   8.108990345135987E+01   8.210988887235747E+01
   8.314270413054523E+01   8.418851060540868E+01   8.524747170633694E+01
   8.631975289815679E+01   8.740552172698573E+01   8.850494784641242E+01
   8.961820304400499E+01   9.074546126815267E+01   9.188689865524674E+01
   9.304269355720088E+01   9.421302656932016E+01   9.539808055851896E+01
   9.659804069189374E+01   9.781309446565707E+01   9.904343173443276E+01
    </PP_R>
    <PP_RAB>
   1.424815571178932E-06   1.442737544795347E-06   1.460884949088410E-06
   1.479260619626959E-06   1.497867427646906E-06   1.516708280499858E-06
   1.535786122107404E-06   1.555103933421111E-06   1.574664732888298E-06
   1.594471576923679E-06   1.614527560386933E-06   1.634835817066279E-06
   1.655399520168141E-06   1.676221882812964E-06   1.697306158537278E-06
   1.718655641802060E-06   1.740273668507505E-06   1.762163616514269E-06
   1.784328906171262E-06   1.806773000850090E-06   1.829499407486210E-06
   1.852511677126895E-06   1.875813405486095E-06   1.899408233506273E-06
   1.923299847927314E-06   1.947491981862577E-06   1.971988415382210E-06
   1.996792976103788E-06   2.021909539790388E-06   2.047342030956188E-06
   2.073094423479674E-06   2.099170741224573E-06   2.125575058668584E-06
   2.152311501540027E-06   2.179384247462498E-06   2.206797526607627E-06
   2.234555622356054E-06   2.262662871966712E-06   2.291123667254536E-06
   2.319942455276699E-06   2.349123739027457E-06   2.378672078141768E-06
   2.408592089607735E-06   2.438888448488019E-06   2.469565888650339E-06
   2.500629203507132E-06   2.532083246764542E-06   2.563932933180822E-06
   2.596183239334272E-06   2.628839204400846E-06   2.661905930941522E-06
   2.695388585699598E-06   2.729292400407999E-06   2.763622672606751E-06
   2.798384766470734E-06   2.833584113647836E-06   2.869226214107668E-06
   2.905316637000939E-06   2.941861021529652E-06   2.978865077828245E-06
   3.016334587855796E-06   3.054275406299480E-06   3.092693461489370E-06
   3.131594756324749E-06   3.170985369212085E-06   3.210871455014780E-06
   3.251259246014890E-06   3.292155052886929E-06   3.333565265683919E-06
   3.375496354835867E-06   3.417954872160758E-06   3.460947451888308E-06
   3.504480811696568E-06   3.548561753761574E-06   3.593197165820213E-06
   3.638394022246428E-06   3.684159385140989E-06   3.730500405434959E-06
   3.777424324007037E-06   3.824938472814974E-06   3.873050276041185E-06
   3.921767251252811E-06   3.971097010576341E-06   4.021047261887031E-06
   4.071625810013278E-06   4.122840557956128E-06   4.174699508124142E-06
   4.227210763583792E-06   4.280382529325576E-06   4.334223113546076E-06
   4.388740928946114E-06   4.443944494045262E-06   4.499842434512880E-06
   4.556443484515887E-06   4.613756488083511E-06   4.671790400489157E-06
   4.730554289649712E-06   4.790057337542412E-06   4.850308841639545E-06
   4.911318216361220E-06   4.973094994546355E-06   5.035648828942229E-06
   5.098989493712732E-06   5.163126885965597E-06   5.228071027298863E-06
   5.293832065366737E-06   5.360420275465210E-06   5.427846062137584E-06
   5.496119960800201E-06   5.565252639388640E-06   5.635254900024580E-06
   5.706137680703662E-06   5.777912057004582E-06   5.850589243819657E-06
   5.924180597107200E-06   5.998697615665881E-06   6.074151942931454E-06
   6.150555368796068E-06   6.227919831450454E-06   6.306257419249310E-06
   6.385580372600104E-06   6.465901085875683E-06   6.547232109350906E-06
   6.629586151163657E-06   6.712976079300532E-06   6.797414923607452E-06
   6.882915877825635E-06   6.969492301653128E-06   7.057157722832291E-06
   7.145925839263552E-06   7.235810521145697E-06   7.326825813143143E-06
   7.418985936580434E-06   7.512305291664353E-06   7.606798459734005E-06
   7.702480205539145E-06   7.799365479547215E-06   7.897469420279397E-06
   7.996807356676018E-06   8.097394810491758E-06   8.199247498720913E-06
   8.302381336053244E-06   8.406812437360658E-06   8.512557120215196E-06
   8.619631907438707E-06   8.728053529684530E-06   8.837838928051731E-06
   8.949005256732165E-06   9.061569885690847E-06   9.175550403380082E-06
   9.290964619487647E-06   9.407830567719623E-06   9.526166508618185E-06
   9.645990932414846E-06   9.767322561919628E-06   9.890180355446481E-06
   1.001458350977560E-05   1.014055146315295E-05   1.026810389832752E-05
   1.039726074562683E-05   1.052804218607104E-05   1.066046865452629E-05
   1.079456084289771E-05   1.093033970336252E-05   1.106782645164395E-05
   1.120704257032609E-05   1.134800981221077E-05   1.149075020371631E-05
   1.163528604831928E-05   1.178163993003950E-05   1.192983471696869E-05
   1.207989356484386E-05   1.223183992066527E-05   1.238569752636015E-05
   1.254149042249244E-05   1.269924295201908E-05   1.285897976409380E-05
   1.302072581791845E-05   1.318450638664302E-05   1.335034706131460E-05
   1.351827375487599E-05   1.368831270621473E-05   1.386049048426290E-05
   1.403483399214862E-05   1.421137047139973E-05   1.439012750620022E-05
   1.457113302770051E-05   1.475441531838158E-05   1.494000301647423E-05
   1.512792512043390E-05   1.531821099347161E-05   1.551089036814221E-05
   1.570599335098998E-05   1.590355042725292E-05   1.610359246562617E-05
   1.630615072308516E-05   1.651125684976977E-05   1.671894289392958E-05
   1.692924130693149E-05   1.714218494833045E-05   1.735780709100360E-05
   1.757614142634948E-05   1.779722206955215E-05   1.802108356491191E-05
   1.824776089124290E-05   1.847728946733847E-05   1.870970515750566E-05
   1.894504427716891E-05   1.918334359854443E-05   1.942464035638608E-05
   1.966897225380312E-05   1.991637746815167E-05   2.016689465699980E-05
   2.042056296416794E-05   2.067742202584522E-05   2.093751197678255E-05
   2.120087345656396E-05   2.146754761595648E-05   2.173757612334003E-05
   2.201100117121834E-05   2.228786548281134E-05   2.256821231873106E-05
   2.285208548374097E-05   2.313952933360063E-05   2.343058878199644E-05
   2.372530930755929E-05   2.402373696097099E-05   2.432591837215952E-05
   2.463190075758514E-05   2.494173192761816E-05   2.525546029400918E-05
   2.557313487745379E-05   2.589480531525196E-05   2.622052186906400E-05
   2.655033543276419E-05   2.688429754039279E-05   2.722246037420862E-05
   2.756487677284244E-05   2.791160023955318E-05   2.826268495058799E-05
   2.861818576364716E-05   2.897815822645607E-05   2.934265858544439E-05
   2.971174379453478E-05   3.008547152404208E-05   3.046390016968437E-05
   3.084708886170747E-05   3.123509747412411E-05   3.162798663406936E-05
   3.202581773127384E-05   3.242865292765585E-05   3.283655516703442E-05
   3.324958818496434E-05   3.366781651869496E-05   3.409130551725433E-05
   3.452012135166007E-05   3.495433102525876E-05   3.539400238419527E-05
   3.583920412801396E-05   3.629000582039309E-05   3.674647790001423E-05
   3.720869169156856E-05   3.767671941690137E-05   3.815063420629693E-05
   3.863051010990531E-05   3.911642210931274E-05   3.960844612925773E-05
   4.010665904949443E-05   4.061113871680524E-05   4.112196395716455E-05
   4.163921458805545E-05   4.216297143094138E-05   4.269331632389464E-05
   4.323033213438372E-05   4.377410277222160E-05   4.432471320267672E-05
   4.488224945974912E-05   4.544679865961325E-05   4.601844901423014E-05
   4.659728984513080E-05   4.718341159737266E-05   4.777690585367203E-05
   4.837786534871390E-05   4.898638398364202E-05   4.960255684073118E-05
   5.022648019824386E-05   5.085825154547411E-05   5.149796959798026E-05
   5.214573431300950E-05   5.280164690511650E-05   5.346580986197818E-05
   5.413832696040785E-05   5.481930328257037E-05   5.550884523240151E-05
   5.620706055223386E-05   5.691405833963162E-05   5.762994906443753E-05
   5.835484458603378E-05   5.908885817082044E-05   5.983210450991353E-05
   6.058469973706564E-05   6.134676144681221E-05   6.211840871284581E-05
   6.289976210662165E-05   6.369094371619722E-05   6.449207716530867E-05
   6.530328763268737E-05   6.612470187161925E-05   6.695644822975030E-05
   6.779865666914121E-05   6.865145878657410E-05   6.951498783411488E-05
   7.038937873993410E-05   7.127476812938969E-05   7.217129434637519E-05
   7.307909747493592E-05   7.399831936115771E-05   7.492910363533043E-05
   7.587159573439059E-05   7.682594292464622E-05   7.779229432478742E-05
   7.877080092918653E-05   7.976161563149129E-05   8.076489324851471E-05
   8.178079054442560E-05   8.280946625524344E-05   8.385108111364084E-05
   8.490579787405859E-05   8.597378133813635E-05   8.705519838046312E-05
   8.815021797465211E-05   8.925901121974264E-05   9.038175136693514E-05
   9.151861384666182E-05   9.266977629599800E-05   9.383541858641867E-05
   9.501572285190309E-05   9.621087351739412E-05   9.742105732761478E-05
   9.864646337624746E-05   9.988728313548058E-05   1.011437104859259E-04
   1.024159417469131E-04   1.037041757071651E-04   1.050086136558590E-04
   1.063294594140784E-04   1.076669193666603E-04   1.090212024944432E-04
   1.103925204069213E-04   1.117810873753082E-04   1.131871203660179E-04
   1.146108390745658E-04   1.160524659598967E-04   1.175122262791444E-04
   1.189903481228286E-04   1.204870624504949E-04   1.220026031268018E-04
   1.235372069580636E-04   1.250911137292509E-04   1.266645662414582E-04
   1.282578103498419E-04   1.298710950020353E-04   1.315046722770475E-04
   1.331587974246514E-04   1.348337289052664E-04   1.365297284303444E-04
   1.382470610032614E-04   1.399859949607261E-04   1.417468020147071E-04
   1.435297572948889E-04   1.453351393916617E-04   1.471632303996511E-04
   1.490143159617964E-04   1.508886853139826E-04   1.527866313302345E-04
   1.547084505684786E-04   1.566544433168809E-04   1.586249136407673E-04
   1.606201694301351E-04   1.626405224477604E-04   1.646862883779130E-04
   1.667577868756816E-04   1.688553416169208E-04   1.709792803488265E-04
   1.731299349411468E-04   1.753076414380371E-04   1.775127401105684E-04
   1.797455755098944E-04   1.820064965210891E-04   1.842958564176603E-04
   1.866140129167494E-04   1.889613282350261E-04   1.913381691452843E-04
   1.937449070337520E-04   1.961819179581208E-04   1.986495827063056E-04
   2.011482868559441E-04   2.036784208346433E-04   2.062403799809848E-04
   2.088345646062977E-04   2.114613800572074E-04   2.141212367789726E-04
   2.168145503796177E-04   2.195417416948721E-04   2.223032368539276E-04
   2.250994673460207E-04   2.279308700878554E-04   2.307978874918701E-04
   2.337009675353674E-04   2.366405638305104E-04   2.396171356952008E-04
   2.426311482248485E-04   2.456830723650432E-04   2.487733849851412E-04
   2.519025689527764E-04   2.550711132093100E-04   2.582795128462290E-04
   2.615282691825040E-04   2.648178898429222E-04   2.681488888374045E-04
   2.715217866413205E-04   2.749371102768149E-04   2.783953933951539E-04
   2.818971763601107E-04   2.854430063323981E-04   2.890334373551629E-04
   2.926690304405579E-04   2.963503536573990E-04   3.000779822199285E-04
   3.038524985776933E-04   3.076744925065532E-04   3.115445612008362E-04
   3.154633093666492E-04   3.194313493163658E-04   3.234493010643013E-04
   3.275177924235903E-04   3.316374591042861E-04   3.358089448126885E-04
   3.400329013519266E-04   3.443099887238031E-04   3.486408752319216E-04
   3.530262375861108E-04   3.574667610081602E-04   3.619631393388889E-04
   3.665160751465591E-04   3.711262798366534E-04   3.757944737630347E-04
   3.805213863405012E-04   3.853077561587603E-04   3.901543310978340E-04
   3.950618684449164E-04   4.000311350127033E-04   4.050629072592057E-04
   4.101579714090741E-04   4.153171235764481E-04   4.205411698893498E-04
   4.258309266156448E-04   4.311872202905832E-04   4.366108878459491E-04
   4.421027767408329E-04   4.476637450940471E-04   4.532946618182115E-04
   4.589964067555203E-04   4.647698708152199E-04   4.706159561128161E-04
   4.765355761110301E-04   4.825296557625311E-04   4.885991316544592E-04
   4.947449521547709E-04   5.009680775604233E-04   5.072694802474214E-04
   5.136501448227566E-04   5.201110682782494E-04   5.266532601463351E-04
   5.332777426578031E-04   5.399855509015227E-04   5.467777329861804E-04
   5.536553502040450E-04   5.606194771967997E-04   5.676712021234555E-04
   5.748116268303787E-04   5.820418670234579E-04   5.893630524424330E-04
   5.967763270374205E-04   6.042828491476587E-04   6.118837916824984E-04
   6.195803423046766E-04   6.273737036158857E-04   6.352650933446865E-04
   6.432557445367794E-04   6.513469057476694E-04   6.595398412377587E-04
   6.678358311698857E-04   6.762361718093556E-04   6.847421757264837E-04
   6.933551720016873E-04   7.020765064331589E-04   7.109075417471465E-04
   7.198496578108846E-04   7.289042518482011E-04   7.380727386578355E-04
   7.473565508345065E-04   7.567571389927542E-04   7.662759719936037E-04
   7.759145371740779E-04   7.856743405795952E-04   7.955569071992958E-04
   8.055637812043192E-04   8.156965261890882E-04   8.259567254156214E-04
   8.363459820609223E-04   8.468659194674800E-04   8.575181813969166E-04
   8.683044322868308E-04   8.792263575108690E-04   8.902856636420673E-04
   9.014840787195107E-04   9.128233525183375E-04   9.243052568231492E-04
   9.359315857048528E-04   9.477041558009898E-04   9.596248065995906E-04
   9.716954007265943E-04   9.839178242368911E-04   9.962939869090216E-04
   1.008825822543581E-03   1.021515289265387E-03   1.034364369829428E-03
   1.047375071930687E-03   1.060549428517836E-03   1.073889498110894E-03
   1.087397365122878E-03   1.101075140185490E-03   1.114924960478911E-03
   1.128948990065739E-03   1.143149420229128E-03   1.157528469815184E-03
   1.172088385579660E-03   1.186831442539014E-03   1.201759944325892E-03
   1.216876223549070E-03   1.232182642157933E-03   1.247681591811527E-03
   1.263375494252270E-03   1.279266801684348E-03   1.295357997156876E-03
   1.311651594951887E-03   1.328150140977185E-03   1.344856213164154E-03
   1.361772421870560E-03   1.378901410288430E-03   1.396245854857056E-03
   1.413808465681187E-03   1.431591986954497E-03   1.449599197388365E-03
   1.467832910646056E-03   1.486295975782366E-03   1.504991277688785E-03
   1.523921737544271E-03   1.543090313271691E-03   1.562500000000000E-03
   1.582153830532242E-03   1.602054875819421E-03   1.622206245440352E-03
   1.642611088087539E-03   1.663272592059155E-03   1.684193985757237E-03
   1.705378538192113E-03   1.726829559493200E-03   1.748550401426221E-03
   1.770544457916916E-03   1.792815165581363E-03   1.815366004262943E-03
   1.838200497576080E-03   1.861322213456811E-03   1.884734764720282E-03
   1.908441809625266E-03   1.932447052445758E-03   1.956754244049789E-03
   1.981367182485501E-03   2.006289713574596E-03   2.031525731513268E-03
   2.057079179480659E-03   2.082954050255006E-03   2.109154386837506E-03
   2.135684283084057E-03   2.162547884344924E-03   2.189749388112459E-03
   2.217293044676966E-03   2.245183157790821E-03   2.273424085340940E-03
   2.302020240029712E-03   2.330976090064486E-03   2.360296159855740E-03
   2.389985030724031E-03   2.420047341615833E-03   2.450487789828390E-03
   2.481311131743663E-03   2.512522183571537E-03   2.544125822102361E-03
   2.576126985468951E-03   2.608530673918192E-03   2.641341950592331E-03
   2.674565942320102E-03   2.708207840417807E-03   2.742272901500467E-03
   2.776766448303186E-03   2.811693870512827E-03   2.847060625610172E-03
   2.882872239722658E-03   2.919134308487848E-03   2.955852497927766E-03
   2.993032545334214E-03   3.030680260165243E-03   3.068801524952888E-03
   3.107402296222331E-03   3.146488605422621E-03   3.186066559869087E-03
   3.226142343697637E-03   3.266722218831027E-03   3.307812525957304E-03
   3.349419685520562E-03   3.391550198724130E-03   3.434210648546411E-03
   3.477407700769483E-03   3.521148105020638E-03   3.565438695827038E-03
   3.610286393683601E-03   3.655698206134363E-03   3.701681228867409E-03
   3.748242646823591E-03   3.795389735319201E-03   3.843129861182736E-03
   3.891470483905988E-03   3.940419156809609E-03   3.989983528223323E-03
   4.040171342681011E-03   4.090990442130784E-03   4.142448767160325E-03
   4.194554358237613E-03   4.247315356967258E-03   4.300740007362668E-03
   4.354836657134143E-03   4.409613758993280E-03   4.465079871973697E-03
   4.521243662768377E-03   4.578113907083914E-03   4.635699491011670E-03
   4.694009412416301E-03   4.753052782341665E-03   4.812838826434424E-03
   4.873376886385618E-03   4.934676421390265E-03   4.996747009625429E-03
   5.059598349746818E-03   5.123240262404178E-03   5.187682691775861E-03
   5.252935707122548E-03   5.319009504360653E-03   5.385914407655433E-03
   5.453660871034128E-03   5.522259480019490E-03   5.591720953283720E-03
   5.662056144323345E-03   5.733276043155073E-03   5.805391778032975E-03
   5.878414617187367E-03   5.952355970585410E-03   6.027227391714021E-03
   6.103040579385086E-03   6.179807379563402E-03   6.257539787217702E-03
   6.336249948194807E-03   6.415950161117518E-03   6.496652879306267E-03
   6.578370712724938E-03   6.661116429951285E-03   6.744902960171945E-03
   6.829743395202745E-03   6.915650991534278E-03   7.002639172403226E-03
   7.090721529889855E-03   7.179911827041703E-03   7.270224000024170E-03
   7.361672160298038E-03   7.454270596824380E-03   7.548033778297318E-03
   7.642976355404698E-03   7.739113163117365E-03   7.836459223007129E-03
   7.935029745593878E-03   8.034840132722331E-03   8.135905979968517E-03
   8.238243079076703E-03   8.341867420426844E-03   8.446795195533074E-03
   8.553042799573758E-03   8.660626833953163E-03   8.769564108895555E-03
   8.879871646071794E-03   8.991566681258955E-03   9.104666667033563E-03
   9.219189275498465E-03   9.335152401044253E-03   9.452574163145235E-03
   9.571472909190604E-03   9.691867217351362E-03   9.813775899483073E-03
   9.937218004065359E-03   1.006221281917823E-02   1.018877987551580E-02
   1.031693894943818E-02   1.044671006606136E-02   1.057811350238637E-02
   1.071116979046747E-02   1.084589972062037E-02   1.098232434467078E-02
   1.112046497924375E-02   1.126034320909448E-02   1.140198089048100E-02
   1.154540015457914E-02   1.169062341094076E-02   1.183767335099508E-02
   1.198657295159442E-02   1.213734547860434E-02   1.229001449053889E-02
   1.244460384224184E-02   1.260113768861387E-02   1.275964048838695E-02
   1.292013700794605E-02   1.308265232519885E-02   1.324721183349435E-02
   1.341384124559046E-02   1.358256659767188E-02   1.375341425341815E-02
   1.392641090812303E-02   1.410158359286583E-02   1.427895967873489E-02
   1.445856688110451E-02   1.464043326396552E-02   1.482458724431020E-02
   1.501105759657267E-02   1.519987345712483E-02   1.539106432882903E-02
   1.558466008564801E-02   1.578069097731259E-02   1.597918763404845E-02
   1.618018107136203E-02   1.638370269488683E-02   1.658978430529064E-02
   1.679845810324430E-02   1.700975669445336E-02   1.722371309475251E-02
   1.744036073526463E-02   1.765973346762436E-02   1.788186556926738E-02
   1.810679174878657E-02   1.833454715135502E-02   1.856516736421781E-02
   1.879868842225241E-02   1.903514681359918E-02   1.927457948536292E-02
   1.951702384938565E-02   1.976251778809254E-02   2.001109966041100E-02
   2.026280830776427E-02   2.051768306014067E-02   2.077576374223873E-02
   2.103709067969017E-02   2.130170470536057E-02   2.156964716572984E-02
   2.184095992735258E-02   2.211568538339970E-02   2.239386646028273E-02
   2.267554662436082E-02   2.296076988873272E-02   2.324958082011383E-02
   2.354202454579968E-02   2.383814676071747E-02   2.413799373456567E-02
   2.444161231904402E-02   2.474904995517412E-02   2.506035468071199E-02
   2.537557513765447E-02   2.569476057983916E-02   2.601796088064085E-02
   2.634522654076414E-02   2.667660869613416E-02   2.701215912588698E-02
   2.735193026045983E-02   2.769597518978382E-02   2.804434767157915E-02
   2.839710213975479E-02   2.875429371291418E-02   2.911597820296721E-02
   2.948221212385138E-02   2.985305270036198E-02   3.022855787709347E-02
   3.060878632749378E-02   3.099379746303177E-02   3.138365144248073E-02
   3.177840918131817E-02   3.217813236124380E-02   3.258288343981787E-02
   3.299272566021973E-02   3.340772306113023E-02   3.382794048673762E-02
   3.425344359686949E-02   3.468429887725260E-02   3.512057364990098E-02
   3.556233608363552E-02   3.600965520473531E-02   3.646260090772301E-02
   3.692124396628633E-02   3.738565604433618E-02   3.785590970720466E-02
   3.833207843298340E-02   3.881423662400445E-02   3.930245961846625E-02
   3.979682370220484E-02   4.029740612061417E-02   4.080428509071562E-02
   4.131753981337938E-02   4.183725048570025E-02   4.236349831352798E-02
   4.289636552415640E-02   4.343593537917140E-02   4.398229218746040E-02
   4.453552131838644E-02   4.509570921512662E-02   4.566294340817960E-02
   4.623731252904216E-02   4.681890632405786E-02   4.740781566844057E-02
   4.800413258047334E-02   4.860795023588697E-02   4.921936298241870E-02
   4.983846635455391E-02   5.046535708845426E-02   5.110013313707215E-02
   5.174289368545674E-02   5.239373916625151E-02   5.305277127538680E-02
   5.372009298797067E-02   5.439580857437820E-02   5.508002361654460E-02
   5.577284502446236E-02   5.647438105288584E-02   5.718474131824694E-02
   5.790403681578218E-02   5.863237993687657E-02   5.936988448662470E-02
   6.011666570161272E-02   6.087284026792503E-02   6.163852633937587E-02
   6.241384355597177E-02   6.319891306260537E-02   6.399385752798407E-02
   6.479880116379814E-02   6.561386974412814E-02   6.643919062509811E-02
   6.727489276477494E-02   6.812110674331799E-02   6.897796478338326E-02
   6.984560077078260E-02   7.072415027540432E-02   7.161375057239612E-02
   7.251454066361403E-02   7.342666129934274E-02   7.435025500028704E-02
   7.528546607984191E-02   7.623244066664135E-02   7.719132672739093E-02
   7.816227408998877E-02   7.914543446693542E-02   8.014096147904017E-02
   8.114901067942420E-02   8.216973957782571E-02   8.320330766521203E-02
   8.424987643869933E-02   8.530960942678788E-02   8.638267221491326E-02
   8.746923247131899E-02   8.856945997325605E-02   8.968352663350976E-02
   9.081160652726249E-02   9.195387591929291E-02   9.311051329151718E-02
   9.428169937087821E-02   9.546761715758340E-02   9.666845195369983E-02
   9.788439139210769E-02   9.911562546581773E-02   1.003623465576593E-01
   1.016247494703391E-01   1.029030314568808E-01   1.041973922514456E-01
   1.055080341005409E-01   1.068351617946222E-01   1.081789827000916E-01
   1.095397067916998E-01   1.109175466853546E-01   1.123127176713423E-01
   1.137254377479684E-01   1.151559276556185E-01   1.166044109112514E-01
   1.180711138433229E-01   1.195562656271498E-01   1.210600983207203E-01
   1.225828469009518E-01   1.241247493004083E-01   1.256860464444771E-01
   1.272669822890127E-01   1.288678038584580E-01   1.304887612844395E-01
   1.321301078448531E-01   1.337921000034385E-01   1.354749974498514E-01
   1.371790631402421E-01   1.389045633383411E-01   1.406517676570653E-01
   1.424209491006445E-01   1.442123841072780E-01   1.460263525923308E-01
   1.478631379920690E-01   1.497230273079483E-01   1.516063111514585E-01
   1.535132837895314E-01   1.554442431905218E-01   1.573994910707643E-01
   1.593793329417183E-01   1.613840781577045E-01   1.634140399642410E-01
   1.654695355469907E-01   1.675508860813196E-01   1.696584167824838E-01
   1.717924569564432E-01   1.739533400513162E-01   1.761414037094833E-01
   1.783569898203423E-01   1.806004445737307E-01   1.828721185140186E-01
   1.851723665948802E-01   1.875015482347587E-01   1.898600273730234E-01
   1.922481725268383E-01   1.946663568487429E-01   1.971149581849565E-01
   1.995943591344204E-01   2.021049471085765E-01   2.046471143919041E-01
   2.072212582032135E-01   2.098277807577118E-01   2.124670893298518E-01
   2.151395963169668E-01   2.178457193037112E-01   2.205858811273078E-01
   2.233605099436157E-01   2.261700392940330E-01   2.290149081732362E-01
   2.318955610977760E-01   2.348124481755328E-01   2.377660251760463E-01
   2.407567536017327E-01   2.437851007599924E-01   2.468515398362304E-01
   2.499565499677917E-01   2.531006163188256E-01   2.562842301560969E-01
   2.595078889257439E-01   2.627720963310085E-01   2.660773624109393E-01
   2.694242036200849E-01   2.728131429091945E-01   2.762447098069257E-01
   2.797194405025886E-01   2.832378779299240E-01   2.868005718519375E-01
   2.904080789468036E-01   2.940609628948445E-01   2.977597944666094E-01
   3.015051516120572E-01   3.052976195508609E-01   3.091377908638527E-01
   3.130262655856123E-01   3.169636512982264E-01   3.209505632262240E-01
   3.249876243327041E-01   3.290754654166793E-01   3.332147252116345E-01
   3.374060504853346E-01   3.416500961408815E-01   3.459475253190425E-01
   3.502990095018708E-01   3.547052286176220E-01   3.591668711469982E-01
   3.636846342307223E-01   3.682592237784666E-01   3.728913545791561E-01
   3.775817504126512E-01   3.823311441628444E-01   3.871402779321724E-01
   3.920099031575697E-01   3.969407807278864E-01   4.019336811027734E-01
   4.069893844330731E-01   4.121086806827176E-01   4.172923697521596E-01
   4.225412616033641E-01   4.278561763863603E-01   4.332379445673968E-01
   4.386874070587024E-01   4.442054153498765E-01   4.497928316409427E-01
   4.554505289770628E-01   4.611793913849567E-01   4.669803140110322E-01
   4.728542032612498E-01   4.788019769427572E-01   4.848245644072913E-01
   4.909229066963972E-01   4.970979566884657E-01   5.033506792476196E-01
   5.096820513744817E-01   5.160930623588265E-01   5.225847139341642E-01
   5.291580204342619E-01   5.358140089516319E-01   5.425537194980236E-01
   5.493782051669200E-01   5.562885322980924E-01   5.632857806442152E-01
   5.703710435395765E-01   5.775454280709207E-01   5.848100552504253E-01
   5.921660601908680E-01   5.996145922829879E-01   6.071568153750763E-01
   6.147939079548382E-01   6.225270633335249E-01   6.303574898323987E-01
   6.382864109715322E-01   6.463150656609825E-01   6.544447083943817E-01
   6.626766094449447E-01   6.710120550639593E-01   6.794523476817635E-01
   6.879988061112483E-01   6.966527657539338E-01   7.054155788086180E-01
   7.142886144826703E-01   7.232732592059681E-01   7.323709168475266E-01
   7.415830089348640E-01   7.509109748761085E-01   7.603562721849175E-01
   7.699203767082138E-01   7.796047828567845E-01   7.894110038387961E-01
   7.993405718962254E-01   8.093950385442844E-01   8.195759748138445E-01
   8.298849714969081E-01   8.403236393951835E-01   8.508936095717647E-01
   8.615965336059981E-01   8.724340838515406E-01   8.834079536976644E-01
   8.945198578338623E-01   9.057715325177601E-01   9.171647358464201E-01
   9.287012480310441E-01   9.403828716751286E-01   9.522114320561377E-01
   9.641887774106932E-01   9.763167792233765E-01   9.885973325191471E-01
   1.001032356159439E+00   1.013623793141998E+00   1.026373610904469E+00
   1.039283801631815E+00   1.052356382567609E+00   1.065593396329212E+00
   1.078996911226960E+00   1.092569021587322E+00   1.106311848080155E+00
   1.120227538050062E+00   1.134318265851908E+00   1.148586233190584E+00
   1.163033669465011E+00   1.177662832116502E+00   1.192476006981487E+00
   1.207475508648672E+00   1.222663680820713E+00   1.238042896680410E+00
    </PP_RAB>
  </PP_MESH>
  <PP_NLCC size="1095">
   8.518156116352070E-01   8.518156096206392E-01   8.518156075550726E-01
   8.518156054372158E-01   8.518156032657451E-01   8.518156010393034E-01
   8.518155987564990E-01   8.518155964159053E-01   8.518155940160592E-01
   8.518155915554608E-01   8.518155890325717E-01   8.518155864458158E-01
   8.518155837935757E-01   8.518155810741935E-01   8.518155782859705E-01
   8.518155754271626E-01   8.518155724959838E-01   8.518155694906022E-01
   8.518155664091390E-01   8.518155632496681E-01   8.518155600102145E-01
   8.518155566887542E-01   8.518155532832106E-01   8.518155497914551E-01
   8.518155462113055E-01   8.518155425405238E-01   8.518155387768165E-01
   8.518155349178297E-01   8.518155309611527E-01   8.518155269043118E-01
   8.518155227447715E-01   8.518155184799320E-01   8.518155141071275E-01
   8.518155096236254E-01   8.518155050266224E-01   8.518155003132458E-01
   8.518154954805496E-01   8.518154905255131E-01   8.518154854450392E-01
   8.518154802359527E-01   8.518154748949975E-01   8.518154694188355E-01
   8.518154638040436E-01   8.518154580471128E-01   8.518154521444444E-01
   8.518154460923497E-01   8.518154398870453E-01   8.518154335246528E-01
   8.518154270011959E-01   8.518154203125966E-01   8.518154134546748E-01
   8.518154064231440E-01   8.518153992136090E-01   8.518153918215641E-01
   8.518153842423887E-01   8.518153764713454E-01   8.518153685035774E-01
   8.518153603341047E-01   8.518153519578204E-01   8.518153433694899E-01
   8.518153345637446E-01   8.518153255350809E-01   8.518153162778559E-01
   8.518153067862828E-01   8.518152970544298E-01   8.518152870762136E-01
   8.518152768453980E-01   8.518152663555880E-01   8.518152556002275E-01
   8.518152445725937E-01   8.518152332657943E-01   8.518152216727618E-01
   8.518152097862506E-01   8.518151975988312E-01   8.518151851028859E-01
   8.518151722906041E-01   8.518151591539784E-01   8.518151456847975E-01
   8.518151318746428E-01   8.518151177148827E-01   8.518151031966668E-01
   8.518150883109203E-01   8.518150730483399E-01   8.518150573993857E-01
   8.518150413542763E-01   8.518150249029839E-01   8.518150080352248E-01
   8.518149907404569E-01   8.518149730078702E-01   8.518149548263811E-01
   8.518149361846257E-01   8.518149170709526E-01   8.518148974734150E-01
   8.518148773797634E-01   8.518148567774395E-01   8.518148356535653E-01
   8.518148139949383E-01   8.518147917880211E-01   8.518147690189336E-01
   8.518147456734445E-01   8.518147217369622E-01   8.518146971945253E-01
   8.518146720307943E-01   8.518146462300412E-01   8.518146197761397E-01
   8.518145926525552E-01   8.518145648423346E-01   8.518145363280957E-01
   8.518145070920161E-01   8.518144771158229E-01   8.518144463807793E-01
   8.518144148676757E-01   8.518143825568151E-01   8.518143494280023E-01
   8.518143154605304E-01   8.518142806331697E-01   8.518142449241508E-01
   8.518142083111553E-01   8.518141707712988E-01   8.518141322811179E-01
   8.518140928165552E-01   8.518140523529436E-01   8.518140108649926E-01
   8.518139683267710E-01   8.518139247116913E-01   8.518138799924921E-01
   8.518138341412236E-01   8.518137871292266E-01   8.518137389271176E-01
   8.518136895047689E-01   8.518136388312902E-01   8.518135868750089E-01
   8.518135336034506E-01   8.518134789833197E-01   8.518134229804768E-01
   8.518133655599183E-01   8.518133066857546E-01   8.518132463211885E-01
   8.518131844284899E-01   8.518131209689741E-01   8.518130559029773E-01
   8.518129891898311E-01   8.518129207878387E-01   8.518128506542465E-01
   8.518127787452189E-01   8.518127050158109E-01   8.518126294199400E-01
   8.518125519103567E-01   8.518124724386150E-01   8.518123909550434E-01
   8.518123074087123E-01   8.518122217474029E-01   8.518121339175749E-01
   8.518120438643327E-01   8.518119515313897E-01   8.518118568610366E-01
   8.518117597941014E-01   8.518116602699146E-01   8.518115582262723E-01
   8.518114535993930E-01   8.518113463238833E-01   8.518112363326935E-01
   8.518111235570762E-01   8.518110079265439E-01   8.518108893688248E-01
   8.518107678098172E-01   8.518106431735448E-01   8.518105153821058E-01
   8.518103843556289E-01   8.518102500122187E-01   8.518101122679077E-01
   8.518099710366032E-01   8.518098262300319E-01   8.518096777576872E-01
   8.518095255267699E-01   8.518093694421330E-01   8.518092094062207E-01
   8.518090453190068E-01   8.518088770779336E-01   8.518087045778472E-01
   8.518085277109315E-01   8.518083463666413E-01   8.518081604316334E-01
   8.518079697896945E-01   8.518077743216699E-01   8.518075739053893E-01
   8.518073684155888E-01   8.518071577238333E-01   8.518069416984373E-01
   8.518067202043814E-01   8.518064931032286E-01   8.518062602530367E-01
   8.518060215082714E-01   8.518057767197132E-01   8.518055257343666E-01
   8.518052683953619E-01   8.518050045418585E-01   8.518047340089456E-01
   8.518044566275360E-01   8.518041722242634E-01   8.518038806213732E-01
   8.518035816366101E-01   8.518032750831053E-01   8.518029607692605E-01
   8.518026384986269E-01   8.518023080697824E-01   8.518019692762068E-01
   8.518016219061517E-01   8.518012657425088E-01   8.518009005626737E-01
   8.518005261384071E-01   8.518001422356926E-01   8.517997486145897E-01
   8.517993450290842E-01   8.517989312269343E-01   8.517985069495129E-01
   8.517980719316467E-01   8.517976259014500E-01   8.517971685801542E-01
   8.517966996819348E-01   8.517962189137318E-01   8.517957259750665E-01
   8.517952205578552E-01   8.517947023462148E-01   8.517941710162668E-01
   8.517936262359342E-01   8.517930676647337E-01   8.517924949535639E-01
   8.517919077444870E-01   8.517913056705042E-01   8.517906883553272E-01
   8.517900554131427E-01   8.517894064483718E-01   8.517887410554227E-01
   8.517880588184363E-01   8.517873593110279E-01   8.517866420960197E-01
   8.517859067251682E-01   8.517851527388836E-01   8.517843796659430E-01
   8.517835870231967E-01   8.517827743152641E-01   8.517819410342270E-01
   8.517810866593103E-01   8.517802106565573E-01   8.517793124784959E-01
   8.517783915637973E-01   8.517774473369238E-01   8.517764792077709E-01
   8.517754865712975E-01   8.517744688071485E-01   8.517734252792665E-01
   8.517723553354959E-01   8.517712583071737E-01   8.517701335087129E-01
   8.517689802371741E-01   8.517677977718258E-01   8.517665853736955E-01
   8.517653422851060E-01   8.517640677292048E-01   8.517627609094751E-01
   8.517614210092430E-01   8.517600471911630E-01   8.517586385966976E-01
   8.517571943455803E-01   8.517557135352657E-01   8.517541952403657E-01
   8.517526385120714E-01   8.517510423775619E-01   8.517494058393942E-01
   8.517477278748818E-01   8.517460074354573E-01   8.517442434460140E-01
   8.517424348042378E-01   8.517405803799178E-01   8.517386790142395E-01
   8.517367295190617E-01   8.517347306761758E-01   8.517326812365431E-01
   8.517305799195171E-01   8.517284254120410E-01   8.517262163678302E-01
   8.517239514065318E-01   8.517216291128603E-01   8.517192480357171E-01
   8.517168066872816E-01   8.517143035420851E-01   8.517117370360558E-01
   8.517091055655454E-01   8.517064074863245E-01   8.517036411125596E-01
   8.517008047157585E-01   8.516978965236920E-01   8.516949147192884E-01
   8.516918574394982E-01   8.516887227741325E-01   8.516855087646706E-01
   8.516822134030365E-01   8.516788346303472E-01   8.516753703356276E-01
   8.516718183544925E-01   8.516681764677972E-01   8.516644424002514E-01
   8.516606138189249E-01   8.516566883320567E-01   8.516526634873008E-01
   8.516485367701282E-01   8.516443056025730E-01   8.516399673412937E-01
   8.516355192761030E-01   8.516309586285679E-01   8.516262825494207E-01
   8.516214881179446E-01   8.516165723389036E-01   8.516115321418204E-01
   8.516063643781010E-01   8.516010658200682E-01   8.515956331578384E-01
   8.515900629982082E-01   8.515843518619596E-01   8.515784961819312E-01
   8.515724923007713E-01   8.515663364684758E-01   8.515600248403603E-01
   8.515535534746115E-01   8.515469183294848E-01   8.515401152611370E-01
   8.515331400210210E-01   8.515259882530307E-01   8.515186554910024E-01
   8.515111371557770E-01   8.515034285523884E-01   8.514955248673629E-01
   8.514874211652975E-01   8.514791123861039E-01   8.514705933418448E-01
   8.514618587132252E-01   8.514529030467234E-01   8.514437207508190E-01
   8.514343060927727E-01   8.514246531947062E-01   8.514147560304000E-01
   8.514046084211984E-01   8.513942040324681E-01   8.513835363692256E-01
   8.513725987726203E-01   8.513613844152179E-01   8.513498862973468E-01
   8.513380972423259E-01   8.513260098922191E-01   8.513136167031172E-01
   8.513009099405849E-01   8.512878816746854E-01   8.512745237752528E-01
   8.512608279068278E-01   8.512467855232312E-01   8.512323878623551E-01
   8.512176259412855E-01   8.512024905496408E-01   8.511869722448256E-01
   8.511710613456721E-01   8.511547479266349E-01   8.511380218114926E-01
   8.511208725670677E-01   8.511032894971073E-01   8.510852616349457E-01
   8.510667777374054E-01   8.510478262772947E-01   8.510283954368046E-01
   8.510084730996399E-01   8.509880468438558E-01   8.509671039340878E-01
   8.509456313137926E-01   8.509236155968980E-01   8.509010430596432E-01
   8.508778996323439E-01   8.508541708902561E-01   8.508298420449568E-01
   8.508048979351936E-01   8.507793230173293E-01   8.507531013560073E-01
   8.507262166141220E-01   8.506986520428331E-01   8.506703904712010E-01
   8.506414142954627E-01   8.506117054684643E-01   8.505812454884631E-01
   8.505500153874523E-01   8.505179957198349E-01   8.504851665502583E-01
   8.504515074414697E-01   8.504169974415162E-01   8.503816150711913E-01
   8.503453383106463E-01   8.503081445857990E-01   8.502700107546096E-01
   8.502309130928707E-01   8.501908272795645E-01   8.501497283820627E-01
   8.501075908407525E-01   8.500643884533574E-01   8.500200943590795E-01
   8.499746810219626E-01   8.499281202141659E-01   8.498803829986911E-01
   8.498314397116430E-01   8.497812599442123E-01   8.497298125241480E-01
   8.496770654965565E-01   8.496229861046528E-01   8.495675407697469E-01
   8.495106950707263E-01   8.494524137232130E-01   8.493926605581247E-01
   8.493313984996685E-01   8.492685895428657E-01   8.492041947304854E-01
   8.491381741295111E-01   8.490704868068687E-01   8.490010908047835E-01
   8.489299431153193E-01   8.488569996544714E-01   8.487822152355572E-01
   8.487055435419618E-01   8.486269370992979E-01   8.485463472468199E-01
   8.484637241081470E-01   8.483790165613904E-01   8.482921722084564E-01
   8.482031373436467E-01   8.481118569215109E-01   8.480182745240223E-01
   8.479223323268085E-01   8.478239710647002E-01   8.477231299964442E-01
   8.476197468685392E-01   8.475137578783200E-01   8.474050976360302E-01
   8.472936991261329E-01   8.471794936676187E-01   8.470624108734534E-01
   8.469423786090865E-01   8.468193229499053E-01   8.466931681377899E-01
   8.465638365366237E-01   8.464312485868069E-01   8.462953227586447E-01
   8.461559755047898E-01   8.460131212114569E-01   8.458666721486243E-01
   8.457165384190859E-01   8.455626279062506E-01   8.454048462209186E-01
   8.452430966467049E-01   8.450772800843489E-01   8.449072949947145E-01
   8.447330373405043E-01   8.445544005267202E-01   8.443712753398043E-01
   8.441835498853903E-01   8.439911095247102E-01   8.437938368096296E-01
   8.435916114162247E-01   8.433843100769581E-01   8.431718065113409E-01
   8.429539713551563E-01   8.427306720881186E-01   8.425017729600475E-01
   8.422671349154004E-01   8.420266155163084E-01   8.417800688639235E-01
   8.415273455181732E-01   8.412682924158371E-01   8.410027527869328E-01
   8.407305660694249E-01   8.404515678221737E-01   8.401655896361447E-01
   8.398724590438460E-01   8.395719994269683E-01   8.392640299222047E-01
   8.389483653252567E-01   8.386248159929518E-01   8.382931877435195E-01
   8.379532817549544E-01   8.376048944615008E-01   8.372478174481737E-01
   8.368818373433986E-01   8.365067357096557E-01   8.361222889321939E-01
   8.357282681057705E-01   8.353244389194013E-01   8.349105615391486E-01
   8.344863904889194E-01   8.340516745292630E-01   8.336061565341840E-01
   8.331495733659949E-01   8.326816557481566E-01   8.322021281361637E-01
   8.317107085864749E-01   8.312071086234896E-01   8.306910331046099E-01
   8.301621800833733E-01   8.296202406707421E-01   8.290648988945054E-01
   8.284958315568923E-01   8.279127080904036E-01   8.273151904118868E-01
   8.267029327749686E-01   8.260755816208202E-01   8.254327754273710E-01
   8.247741445570239E-01   8.240993111029268E-01   8.234078887339141E-01
   8.226994825381662E-01   8.219736888657317E-01   8.212300951699647E-01
   8.204682798480271E-01   8.196878120805640E-01   8.188882516706810E-01
   8.180691488823789E-01   8.172300442785778E-01   8.163704685589162E-01
   8.154899423974814E-01   8.145879762806892E-01   8.136640703454677E-01
   8.127177142180161E-01   8.117483868533252E-01   8.107555563757276E-01
   8.097386799207350E-01   8.086972034784345E-01   8.076305617387544E-01
   8.065381779388969E-01   8.054194637132874E-01   8.042738189463815E-01
   8.031006316287200E-01   8.018992777166103E-01   8.006691209958798E-01
   7.994095129501184E-01   7.981197926339056E-01   7.967992865515070E-01
   7.954473085415565E-01   7.940631596682991E-01   7.926461281199539E-01
   7.911954891148265E-01   7.897105048158070E-01   7.881904242539417E-01
   7.866344832617858E-01   7.850419044172900E-01   7.834118969990114E-01
   7.817436569534736E-01   7.800363668755426E-01   7.782891960027307E-01
   7.765013002243776E-01   7.746718221067096E-01   7.727998909348169E-01
   7.708846227726409E-01   7.689251205421114E-01   7.669204741226258E-01
   7.648697604721095E-01   7.627720437709569E-01   7.606263755901991E-01
   7.584317950853084E-01   7.561873292171059E-01   7.538919930012838E-01
   7.515447897881435E-01   7.491447115741724E-01   7.466907393471848E-01
   7.441818434667810E-01   7.416169840819651E-01   7.389951115878176E-01
   7.363151671231835E-01   7.335760831114055E-01   7.307767838461949E-01
   7.279161861248015E-01   7.249931999307028E-01   7.220067291681090E-01
   7.189556724506276E-01   7.158389239465159E-01   7.126553742829891E-01
   7.094039115121276E-01   7.060834221409752E-01   7.026927922284814E-01
   6.992309085519854E-01   6.956966598459914E-01   6.920889381160272E-01
   6.884066400304180E-01   6.846486683928329E-01   6.808139336985009E-01
   6.769013557769977E-01   6.729098655245247E-01   6.688384067286012E-01
   6.646859379880818E-01   6.604514347313957E-01   6.561338913358652E-01
   6.517323233509267E-01   6.472457698280101E-01   6.426732957597602E-01
   6.380139946311958E-01   6.332669910852792E-01   6.284314437052508E-01
   6.235065479159178E-01   6.184915390059113E-01   6.133856952727307E-01
   6.081883412921441E-01   6.028988513132663E-01   5.975166527803393E-01
   5.920412299819040E-01   5.864721278277000E-01   5.808089557532087E-01
   5.750513917513302E-01   5.691991865301751E-01   5.632521677954289E-01
   5.572102446551598E-01   5.510734121442969E-01   5.448417558653172E-01
   5.385154567409344E-01   5.320947958737646E-01   5.255801595070833E-01
   5.189720440798328E-01   5.122710613680526E-01   5.054779437038163E-01
   4.985935492616109E-01   4.916188674008826E-01   4.845550240521515E-01
   4.774032871327409E-01   4.701650719766940E-01   4.628419467619198E-01
   4.554356379159920E-01   4.479480354803133E-01   4.403811984105976E-01
   4.327373597897440E-01   4.250189319272563E-01   4.172285113173515E-01
   4.093688834258151E-01   4.014430272735315E-01   3.934541197824143E-01
   3.854055398472062E-01   3.773008720943452E-01   3.691439102867496E-01
   3.609386603310604E-01   3.526893428415211E-01   3.444003952123527E-01
   3.360764731481979E-01   3.277224515999262E-01   3.193434250509814E-01
   3.109447070973406E-01   3.025318292622325E-01   2.941105389850245E-01
   2.856867967220629E-01   2.772667720959812E-01   2.688568390288967E-01
   2.604635697941980E-01   2.520937279213110E-01   2.437542598878497E-01
   2.354522855341826E-01   2.271950871365142E-01   2.189900970762957E-01
   2.108448840462123E-01   2.027671377360622E-01   1.947646519458669E-01
   1.868453060783506E-01   1.790170449687497E-01   1.712878570168148E-01
   1.636657505938009E-01   1.561587287064972E-01   1.487747619107940E-01
   1.415217594791216E-01   1.344075388393963E-01   1.274397933178112E-01
   1.206260582341733E-01   1.139736754163507E-01   1.074897562199376E-01
   1.011811431604605E-01   9.505437028824887E-02   8.911562246063570E-02
   8.337069369221013E-02   7.782494479148212E-02   7.248326052142008E-02
   6.735000655165616E-02   6.242898650173167E-02   5.772339940717148E-02
   5.323579797331006E-02   4.896804801529728E-02   4.492128951615244E-02
   4.109589976782474E-02   3.749145909232010E-02   3.410671967061538E-02
   3.093957803565540E-02   2.798705181146295E-02   2.524526130262390E-02
   2.270941655618973E-02   2.037381053053183E-02   1.823181901189040E-02
   1.627590791820817E-02   1.449764862029949E-02   1.288774189126775E-02
   1.143605106523049E-02   1.013164494463710E-02   8.962850940575993E-03
   7.917469635503962E-03   6.983813334269830E-03   6.151164789184907E-03
   5.409698719663141E-03   4.750421483646794E-03   4.165113533109814E-03
   3.646274637067539E-03   3.187071845131347E-03   2.781290155022421E-03
   2.423285838619494E-03   2.107942373077050E-03   1.830628916315289E-03
   1.587161259750777E-03   1.373765185498600E-03   1.187042150418065E-03
   1.023937215277090E-03   8.817091339501787E-04   7.579025149147141E-04
   6.503219653385690E-04   5.570081267241288E-04   4.762155103532884E-04
   4.063920406250313E-04   3.461602147512879E-04   2.942997881355525E-04
   2.497318960589591E-04   2.115045239970039E-04   1.787792409429855E-04
   1.508191124786007E-04   1.269777129655098E-04   1.066891590926732E-04
   8.945909006308802E-05   7.485652290180746E-05   6.250651467856359E-05
   5.208356682867229E-05   4.330571019320798E-05   3.592921285422019E-05
   2.974385628594975E-05   2.456872875417404E-05   2.024848825109974E-05
   1.665005053334618E-05   1.365966101882113E-05   1.118031238042616E-05
   9.129472638716513E-06   7.437091392329169E-06   6.043854526794544E-06
   4.899660303911885E-06   3.962292151702600E-06   3.196265747292612E-06
   2.571830111691515E-06   2.064104417491975E-06   1.652334050387962E-06
   1.319251166532001E-06   1.050526554445048E-06   8.343010475206493E-07
   6.607860467866982E-07   5.219239096230155E-07   4.111000450332203E-07
   3.228995365074963E-07   2.529019962757622E-07   1.975091466485064E-07
   1.538003319278580E-07   1.194117946683890E-07   9.243610931364846E-08
   7.133866063321157E-08   5.488848986468143E-08   4.210121365040711E-08
   3.219205504901626E-08   2.453731705729977E-08   1.864288181175391E-08
   1.411853721602536E-08   1.065712108062248E-08   8.017634547261471E-09
   6.011614858791182E-09   4.492175371293682E-09   3.345220736141034E-09
   2.482429776478386E-09   1.835669854937308E-09   1.352566346858155E-09
   9.930008441000051E-10   7.263533646928702E-10   5.293383957511749E-10
   3.843131484146165E-10   2.779599030449225E-10   2.002635873174768E-10
   1.437214590252474E-10   1.027345561148834E-10   7.314093518901243E-11
   5.185907429592955E-11   3.661652603516443E-11   2.574427389327240E-11
   1.802151904847648E-11   1.255901452647741E-11   8.711740072567894E-12
   6.013815274325841E-12   4.130195433512306E-12   2.820978069245105E-12
   1.915143519172916E-12   1.291321941198489E-12   8.637700067491496E-13
   5.721929881051328E-13   3.743911495698807E-13   2.409779785960145E-13
   1.515788330678326E-13   9.240353966784819E-14   5.286291648312854E-14
   0.000000000000000E+00   0.000000000000000E+00   0.000000000000000E+00
   0.000000000000000E+00   0.000000000000000E+00   0.000000000000000E+00
   0.000000000000000E+00   0.000000000000000E+00   0.000000000000000E+00
   0.000000000000000E+00   0.000000000000000E+00   0.000000000000000E+00
   0.000000000000000E+00   0.000000000000000E+00   0.000000000000000E+00
   0.000000000000000E+00   0.000000000000000E+00   0.000000000000000E+00
   0.000000000000000E+00   0.000000000000000E+00   0.000000000000000E+00
   0.000000000000000E+00   0.000000000000000E+00   0.000000000000000E+00
   0.000000000000000E+00   0.000000000000000E+00   0.000000000000000E+00
   0.000000000000000E+00   0.000000000000000E+00   0.000000000000000E+00
   0.000000000000000E+00   0.000000000000000E+00   0.000000000000000E+00
   0.000000000000000E+00   0.000000000000000E+00   0.000000000000000E+00
   0.000000000000000E+00   0.000000000000000E+00   0.000000000000000E+00
   0.000000000000000E+00   0.000000000000000E+00   0.000000000000000E+00
   0.000000000000000E+00   0.000000000000000E+00   0.000000000000000E+00
   0.000000000000000E+00   0.000000000000000E+00   0.000000000000000E+00
   0.000000000000000E+00   0.000000000000000E+00   0.000000000000000E+00
   0.000000000000000E+00   0.000000000000000E+00   0.000000000000000E+00
   0.000000000000000E+00   0.000000000000000E+00   0.000000000000000E+00
   0.000000000000000E+00   0.000000000000000E+00   0.000000000000000E+00
   0.000000000000000E+00   0.000000000000000E+00   0.000000000000000E+00
   0.000000000000000E+00   0.000000000000000E+00   0.000000000000000E+00
   0.000000000000000E+00   0.000000000000000E+00   0.000000000000000E+00
   0.000000000000000E+00   0.000000000000000E+00   0.000000000000000E+00
   0.000000000000000E+00   0.000000000000000E+00   0.000000000000000E+00
   0.000000000000000E+00   0.000000000000000E+00   0.000000000000000E+00
   0.000000000000000E+00   0.000000000000000E+00   0.000000000000000E+00
   0.000000000000000E+00   0.000000000000000E+00   0.000000000000000E+00
   0.000000000000000E+00   0.000000000000000E+00   0.000000000000000E+00
   0.000000000000000E+00   0.000000000000000E+00   0.000000000000000E+00
   0.000000000000000E+00   0.000000000000000E+00   0.000000000000000E+00
   0.000000000000000E+00   0.000000000000000E+00   0.000000000000000E+00
   0.000000000000000E+00   0.000000000000000E+00   0.000000000000000E+00
   0.000000000000000E+00   0.000000000000000E+00   0.000000000000000E+00
   0.000000000000000E+00   0.000000000000000E+00   0.000000000000000E+00
   0.000000000000000E+00   0.000000000000000E+00   0.000000000000000E+00
   0.000000000000000E+00   0.000000000000000E+00   0.000000000000000E+00
   0.000000000000000E+00   0.000000000000000E+00   0.000000000000000E+00
   0.000000000000000E+00   0.000000000000000E+00   0.000000000000000E+00
   0.000000000000000E+00   0.000000000000000E+00   0.000000000000000E+00
   0.000000000000000E+00   0.000000000000000E+00   0.000000000000000E+00
   0.000000000000000E+00   0.000000000000000E+00   0.000000000000000E+00
   0.000000000000000E+00   0.000000000000000E+00   0.000000000000000E+00
   0.000000000000000E+00   0.000000000000000E+00   0.000000000000000E+00
   0.000000000000000E+00   0.000000000000000E+00   0.000000000000000E+00
   0.000000000000000E+00   0.000000000000000E+00   0.000000000000000E+00
   0.000000000000000E+00   0.000000000000000E+00   0.000000000000000E+00
   0.000000000000000E+00   0.000000000000000E+00   0.000000000000000E+00
   0.000000000000000E+00   0.000000000000000E+00   0.000000000000000E+00
   0.000000000000000E+00   0.000000000000000E+00   0.000000000000000E+00
   0.000000000000000E+00   0.000000000000000E+00   0.000000000000000E+00
   0.000000000000000E+00   0.000000000000000E+00   0.000000000000000E+00
   0.000000000000000E+00   0.000000000000000E+00   0.000000000000000E+00
   0.000000000000000E+00   0.000000000000000E+00   0.000000000000000E+00
   0.000000000000000E+00   0.000000000000000E+00   0.000000000000000E+00
   0.000000000000000E+00   0.000000000000000E+00   0.000000000000000E+00
   0.000000000000000E+00   0.000000000000000E+00   0.000000000000000E+00
   0.000000000000000E+00   0.000000000000000E+00   0.000000000000000E+00
   0.000000000000000E+00   0.000000000000000E+00   0.000000000000000E+00
   0.000000000000000E+00   0.000000000000000E+00   0.000000000000000E+00
   0.000000000000000E+00   0.000000000000000E+00   0.000000000000000E+00
   0.000000000000000E+00   0.000000000000000E+00   0.000000000000000E+00
   0.000000000000000E+00   0.000000000000000E+00   0.000000000000000E+00
   0.000000000000000E+00   0.000000000000000E+00   0.000000000000000E+00
   0.000000000000000E+00   0.000000000000000E+00   0.000000000000000E+00
   0.000000000000000E+00   0.000000000000000E+00   0.000000000000000E+00
   0.000000000000000E+00   0.000000000000000E+00   0.000000000000000E+00
   0.000000000000000E+00   0.000000000000000E+00   0.000000000000000E+00
   0.000000000000000E+00   0.000000000000000E+00   0.000000000000000E+00
   0.000000000000000E+00   0.000000000000000E+00   0.000000000000000E+00
   0.000000000000000E+00   0.000000000000000E+00   0.000000000000000E+00
   0.000000000000000E+00   0.000000000000000E+00   0.000000000000000E+00
   0.000000000000000E+00   0.000000000000000E+00   0.000000000000000E+00
   0.000000000000000E+00   0.000000000000000E+00   0.000000000000000E+00
   0.000000000000000E+00   0.000000000000000E+00   0.000000000000000E+00
   0.000000000000000E+00   0.000000000000000E+00   0.000000000000000E+00
   0.000000000000000E+00   0.000000000000000E+00   0.000000000000000E+00
   0.000000000000000E+00   0.000000000000000E+00   0.000000000000000E+00
   0.000000000000000E+00   0.000000000000000E+00   0.000000000000000E+00
   0.000000000000000E+00   0.000000000000000E+00   0.000000000000000E+00
   0.000000000000000E+00   0.000000000000000E+00   0.000000000000000E+00
   0.000000000000000E+00   0.000000000000000E+00   0.000000000000000E+00
   0.000000000000000E+00   0.000000000000000E+00   0.000000000000000E+00
   0.000000000000000E+00   0.000000000000000E+00   0.000000000000000E+00
   0.000000000000000E+00   0.000000000000000E+00   0.000000000000000E+00
   0.000000000000000E+00   0.000000000000000E+00   0.000000000000000E+00
   0.000000000000000E+00   0.000000000000000E+00   0.000000000000000E+00
   0.000000000000000E+00   0.000000000000000E+00   0.000000000000000E+00
   0.000000000000000E+00   0.000000000000000E+00   0.000000000000000E+00
   0.000000000000000E+00   0.000000000000000E+00   0.000000000000000E+00
   0.000000000000000E+00   0.000000000000000E+00   0.000000000000000E+00
   0.000000000000000E+00   0.000000000000000E+00   0.000000000000000E+00
   0.000000000000000E+00   0.000000000000000E+00   0.000000000000000E+00
   0.000000000000000E+00   0.000000000000000E+00   0.000000000000000E+00
   0.000000000000000E+00   0.000000000000000E+00   0.000000000000000E+00
   0.000000000000000E+00   0.000000000000000E+00   0.000000000000000E+00
   0.000000000000000E+00   0.000000000000000E+00   0.000000000000000E+00
  </PP_NLCC>
  <PP_LOCAL size="1095">
  -2.551847877407656E+01  -2.551847821206238E+01  -2.551847760893250E+01
  -2.551847696791643E+01  -2.551847629215546E+01  -2.551847558470524E+01
  -2.551847484853820E+01  -2.551847406878508E+01  -2.551847405833138E+01
  -2.551847405169358E+01  -2.551846836969255E+01  -2.551846836297049E+01
  -2.551846835136156E+01  -2.551846834172973E+01  -2.551846833057501E+01
  -2.551846831918208E+01  -2.551846382308881E+01  -2.551846380934003E+01
  -2.551846379789661E+01  -2.551846378754142E+01  -2.551846377650773E+01
  -2.551846376696693E+01  -2.551846374830693E+01  -2.551846373214839E+01
  -2.551846371827421E+01  -2.551845887207129E+01  -2.551845885766750E+01
  -2.551845884183666E+01  -2.551845882863027E+01  -2.551845881184219E+01
  -2.551845503639160E+01  -2.551845502040904E+01  -2.551845499721657E+01
  -2.551845498513105E+01  -2.551845496574636E+01  -2.551845494621828E+01
  -2.551845492755028E+01  -2.551845490592629E+01  -2.551845488453506E+01
  -2.551845486580708E+01  -2.551845484318213E+01  -2.551845482015022E+01
  -2.551845479743828E+01  -2.551845077090192E+01  -2.551845075121545E+01
  -2.551845072754048E+01  -2.551845070140469E+01  -2.551844765276598E+01
  -2.551844762412617E+01  -2.551844759996939E+01  -2.551844757039867E+01
  -2.551844754908419E+01  -2.551844751348486E+01  -2.551844748482491E+01
  -2.551844745325124E+01  -2.551844742285002E+01  -2.551844739228072E+01
  -2.551844735729623E+01  -2.551844732410412E+01  -2.551844728789841E+01
  -2.551844725371133E+01  -2.551844721799292E+01  -2.551844718238377E+01
  -2.551844714164186E+01  -2.551844710180821E+01  -2.551844706314959E+01
  -2.551844702030783E+01  -2.551844379561324E+01  -2.551844375677160E+01
  -2.551844371104037E+01  -2.551844138348195E+01  -2.551844133848191E+01
  -2.551844128906072E+01  -2.551844124457194E+01  -2.551844119145906E+01
  -2.551844113981338E+01  -2.551844108676644E+01  -2.551844103178838E+01
  -2.551844097767912E+01  -2.551844091851068E+01  -2.551844086066357E+01
  -2.551844080138707E+01  -2.551844074109953E+01  -2.551844067789803E+01
  -2.551844061197645E+01  -2.551844054692334E+01  -2.551844047987264E+01
  -2.551844041058298E+01  -2.551844033834038E+01  -2.551844026519797E+01
  -2.551844019130672E+01  -2.551844011412619E+01  -2.551844003538048E+01
  -2.551843995391738E+01  -2.551843987155537E+01  -2.551843978709120E+01
  -2.551843969981524E+01  -2.551843961164246E+01  -2.551843951819212E+01
  -2.551843942560077E+01  -2.551843695843444E+01  -2.551843686006571E+01
  -2.551843522644910E+01  -2.551843512480851E+01  -2.551843502002931E+01
  -2.551843491068274E+01  -2.551843479944245E+01  -2.551843468516446E+01
  -2.551843456347288E+01  -2.551843444468846E+01  -2.551843431995084E+01
  -2.551843419281289E+01  -2.551843406505449E+01  -2.551843393185882E+01
  -2.551843379641907E+01  -2.551843365725889E+01  -2.551843351304182E+01
  -2.551843336725505E+01  -2.551843321466897E+01  -2.551843305982405E+01
  -2.551843290242406E+01  -2.551843273723209E+01  -2.551843257209465E+01
  -2.551843240121543E+01  -2.551843222707860E+01  -2.551843204650027E+01
  -2.551843186285377E+01  -2.551843167408075E+01  -2.551843147790900E+01
  -2.551843128335773E+01  -2.551843107848359E+01  -2.551843087046080E+01
  -2.551843065807509E+01  -2.551843043576245E+01  -2.551843021172625E+01
  -2.551842998008939E+01  -2.551842974316594E+01  -2.551842950242202E+01
  -2.551842925325833E+01  -2.551842899816209E+01  -2.551842873640863E+01
  -2.551842846875232E+01  -2.551842819463494E+01  -2.551842791423002E+01
  -2.551842762554732E+01  -2.551842732751071E+01  -2.551842702371043E+01
  -2.551842671167751E+01  -2.551842639327546E+01  -2.551842606676520E+01
  -2.551842573182416E+01  -2.551842538709734E+01  -2.551842503410762E+01
  -2.551842467314853E+01  -2.551842430157913E+01  -2.551842392147567E+01
  -2.551842196016779E+01  -2.551842078888926E+01  -2.551842038259494E+01
  -2.551841996343863E+01  -2.551841952654893E+01  -2.551841908675720E+01
  -2.551841863915777E+01  -2.551841817186419E+01  -2.551841769338088E+01
  -2.551841720576862E+01  -2.551841670637205E+01  -2.551841619378210E+01
  -2.551841566785328E+01  -2.551841512732598E+01  -2.551841457233667E+01
  -2.551841400599506E+01  -2.551841342506017E+01  -2.551841282889626E+01
  -2.551841221808357E+01  -2.551841158848339E+01  -2.551841094636275E+01
  -2.551841029217993E+01  -2.551840961276078E+01  -2.551840891768259E+01
  -2.551840821122576E+01  -2.551840748198094E+01  -2.551840673460189E+01
  -2.551840596955755E+01  -2.551840518249137E+01  -2.551840437791889E+01
  -2.551840355539003E+01  -2.551840270804452E+01  -2.551840183883205E+01
  -2.551840095116124E+01  -2.551840003869039E+01  -2.551839910215897E+01
  -2.551839814452526E+01  -2.551839716110554E+01  -2.551839615210015E+01
  -2.551839511949120E+01  -2.551839406020834E+01  -2.551839297368961E+01
  -2.551839185882789E+01  -2.551839071577417E+01  -2.551838954621415E+01
  -2.551838834479331E+01  -2.551838711289099E+01  -2.551838585253525E+01
  -2.551838455704380E+01  -2.551838322897196E+01  -2.551838186929954E+01
  -2.551838047408171E+01  -2.551837904376546E+01  -2.551837757694902E+01
  -2.551837607321101E+01  -2.551837453119870E+01  -2.551837294957400E+01
  -2.551837132909971E+01  -2.551836966774698E+01  -2.551836796335344E+01
  -2.551836621602378E+01  -2.551836442487847E+01  -2.551836258795095E+01
  -2.551836070453457E+01  -2.551835877371310E+01  -2.551835679439349E+01
  -2.551835476422809E+01  -2.551835268247447E+01  -2.551835054867314E+01
  -2.551834836075794E+01  -2.551834611760439E+01  -2.551834381707634E+01
  -2.551834145835259E+01  -2.551833904081214E+01  -2.551833656146886E+01
  -2.551833401866030E+01  -2.551833141240203E+01  -2.551832874042283E+01
  -2.551832600015158E+01  -2.551832319036803E+01  -2.551832030952959E+01
  -2.551831735660845E+01  -2.551831432871013E+01  -2.551831122318218E+01
  -2.551830803954936E+01  -2.551830477556464E+01  -2.551830142858794E+01
  -2.551829799721301E+01  -2.551829447900924E+01  -2.551829087134877E+01
  -2.551828717261102E+01  -2.551828338028724E+01  -2.551827949195525E+01
  -2.551827550516862E+01  -2.551827141735917E+01  -2.551826722606301E+01
  -2.551826292875567E+01  -2.551825852263084E+01  -2.551825400487819E+01
  -2.551824937315867E+01  -2.551824462386495E+01  -2.551823975396881E+01
  -2.551823476124883E+01  -2.551822964230290E+01  -2.551822439351412E+01
  -2.551821901168920E+01  -2.551821349370968E+01  -2.551820783642360E+01
  -2.551820203577604E+01  -2.551819608787563E+01  -2.551818998962315E+01
  -2.551818373718984E+01  -2.551817732642602E+01  -2.551817075317670E+01
  -2.551816401358927E+01  -2.551815710370196E+01  -2.551815001849884E+01
  -2.551814275372259E+01  -2.551813530563959E+01  -2.551812766903718E+01
  -2.551811983863464E+01  -2.551811181014720E+01  -2.551810357843832E+01
  -2.551809513844585E+01  -2.551808648493421E+01  -2.551807761193552E+01
  -2.551806851439457E+01  -2.551805918688945E+01  -2.551804962328081E+01
  -2.551803981723267E+01  -2.551802976295156E+01  -2.551801945444047E+01
  -2.551800888483432E+01  -2.551799804752121E+01  -2.551798693594040E+01
  -2.551797554319846E+01  -2.551796386210292E+01  -2.551795188519041E+01
  -2.551793960496049E+01  -2.551792701389763E+01  -2.551791410418792E+01
  -2.551790086775012E+01  -2.551788729620855E+01  -2.551787338099030E+01
  -2.551785911352905E+01  -2.551784449116995E+01  -2.551782949558977E+01
  -2.551781410223069E+01  -2.551779832713517E+01  -2.551778216692209E+01
  -2.551776559366487E+01  -2.551774860892051E+01  -2.551773118041879E+01
  -2.551771330342940E+01  -2.551769498522397E+01  -2.551767619906142E+01
  -2.551765694532118E+01  -2.551763720689724E+01  -2.551761695793748E+01
  -2.551759619082292E+01  -2.551757490834072E+01  -2.551755308570936E+01
  -2.551753070698133E+01  -2.551750776527744E+01  -2.551748424516139E+01
  -2.551746013610370E+01  -2.551743540422576E+01  -2.551741004090633E+01
  -2.551738404914112E+01  -2.551735739728667E+01  -2.551733006408167E+01
  -2.551730204272359E+01  -2.551727331291411E+01  -2.551724385867999E+01
  -2.551721365580839E+01  -2.551718268298077E+01  -2.551715093294617E+01
  -2.551711837841574E+01  -2.551708499823667E+01  -2.551705077663339E+01
  -2.551701568414181E+01  -2.551697970070517E+01  -2.551694281108613E+01
  -2.551690499176904E+01  -2.551686621218538E+01  -2.551682644636893E+01
  -2.551678567491852E+01  -2.551674387353965E+01  -2.551670101490290E+01
  -2.551665707327531E+01  -2.551661201630759E+01  -2.551656581676267E+01
  -2.551651844944419E+01  -2.551646988316573E+01  -2.551642008873181E+01
  -2.551636903520181E+01  -2.551631668577555E+01  -2.551626300955868E+01
  -2.551620798234157E+01  -2.551615155891398E+01  -2.551609370088462E+01
  -2.551603438557680E+01  -2.551597356884861E+01  -2.551591120913646E+01
  -2.551584727238327E+01  -2.551578171952821E+01  -2.551571450484828E+01
  -2.551564558594827E+01  -2.551557492634192E+01  -2.551550247921809E+01
  -2.551542819663009E+01  -2.551535203250070E+01  -2.551527394271360E+01
  -2.551519387781848E+01  -2.551511178330351E+01  -2.551502760959531E+01
  -2.551494130843813E+01  -2.551485282288676E+01  -2.551476209510657E+01
  -2.551466907287222E+01  -2.551457369632753E+01  -2.551447590487421E+01
  -2.551437563910994E+01  -2.551427283468544E+01  -2.551416742780337E+01
  -2.551405935308198E+01  -2.551394854405800E+01  -2.551383493177140E+01
  -2.551371844156334E+01  -2.551359900217794E+01  -2.551347654189041E+01
  -2.551335098188185E+01  -2.551322224295105E+01  -2.551309024643120E+01
  -2.551295490997601E+01  -2.551281614699399E+01  -2.551267387181427E+01
  -2.551252799718780E+01  -2.551237843034501E+01  -2.551222507760955E+01
  -2.551206784387888E+01  -2.551190663068396E+01  -2.551174133806969E+01
  -2.551157186255026E+01  -2.551139809730053E+01  -2.551121993458023E+01
  -2.551103726314493E+01  -2.551084996885153E+01  -2.551065793514806E+01
  -2.551046104124280E+01  -2.551025916450740E+01  -2.551005217976597E+01
  -2.550983995674199E+01  -2.550962236291709E+01  -2.550939926326418E+01
  -2.550917051799863E+01  -2.550893598407012E+01  -2.550869551540006E+01
  -2.550844896200122E+01  -2.550819616976695E+01  -2.550793698084297E+01
  -2.550767123353673E+01  -2.550739876185110E+01  -2.550711939587614E+01
  -2.550683296126472E+01  -2.550653927918517E+01  -2.550623816640371E+01
  -2.550592943482858E+01  -2.550561289193817E+01  -2.550528834032013E+01
  -2.550495557721905E+01  -2.550461439506037E+01  -2.550426458121635E+01
  -2.550390591726270E+01  -2.550353817924239E+01  -2.550316113796531E+01
  -2.550277455826188E+01  -2.550237819893233E+01  -2.550197181272634E+01
  -2.550155514608201E+01  -2.550112793922097E+01  -2.550068992576145E+01
  -2.550024083256851E+01  -2.549978037950479E+01  -2.549930827938536E+01
  -2.549882423798587E+01  -2.549832795353354E+01  -2.549781911654279E+01
  -2.549729740983685E+01  -2.549676250823847E+01  -2.549621407829509E+01
  -2.549565177823985E+01  -2.549507525758910E+01  -2.549448415706748E+01
  -2.549387810842477E+01  -2.549325673398884E+01  -2.549261964663521E+01
  -2.549196644944444E+01  -2.549129673552664E+01  -2.549061008782108E+01
  -2.548990607862564E+01  -2.548918426945417E+01  -2.548844421088808E+01
  -2.548768544215648E+01  -2.548690749083176E+01  -2.548610987262100E+01
  -2.548529209104962E+01  -2.548445363715035E+01  -2.548359398913308E+01
  -2.548271261206172E+01  -2.548180895756659E+01  -2.548088246349102E+01
  -2.547993255349879E+01  -2.547895863678262E+01  -2.547796010768766E+01
  -2.547693634533186E+01  -2.547588671322623E+01  -2.547481055885912E+01
  -2.547370721335232E+01  -2.547257599103105E+01  -2.547141618897883E+01
  -2.547022708663852E+01  -2.546900794535718E+01  -2.546775800793550E+01
  -2.546647649819164E+01  -2.546516262046354E+01  -2.546381555911880E+01
  -2.546243447808164E+01  -2.546101852031581E+01  -2.545956680729305E+01
  -2.545807843847951E+01  -2.545655249077731E+01  -2.545498801796920E+01
  -2.545338405015538E+01  -2.545173959314185E+01  -2.545005362785607E+01
  -2.544832510975111E+01  -2.544655296814570E+01  -2.544473610557663E+01
  -2.544287339717035E+01  -2.544096368994978E+01  -2.543900580212777E+01
  -2.543699852241161E+01  -2.543494060928612E+01  -2.543283079025895E+01
  -2.543066776109347E+01  -2.542845018504713E+01  -2.542617669206000E+01
  -2.542384587794410E+01  -2.542145630355414E+01  -2.541900649391595E+01
  -2.541649493736660E+01  -2.541392008465440E+01  -2.541128034801582E+01
  -2.540857410024596E+01  -2.540579967373765E+01  -2.540295535949267E+01
  -2.540003940611831E+01  -2.539705001880612E+01  -2.539398535827265E+01
  -2.539084353968574E+01  -2.538762263156323E+01  -2.538432065464433E+01
  -2.538093558074328E+01  -2.537746533156805E+01  -2.537390777751367E+01
  -2.537026073643260E+01  -2.536652197237579E+01  -2.536268919430279E+01
  -2.535876005476509E+01  -2.535473214856194E+01  -2.535060301136302E+01
  -2.534637011830153E+01  -2.534203088253837E+01  -2.533758265379200E+01
  -2.533302271683839E+01  -2.532834828997914E+01  -2.532355652347256E+01
  -2.531864449793422E+01  -2.531360922270388E+01  -2.530844763417669E+01
  -2.530315659409763E+01  -2.529773288782102E+01  -2.529217322253632E+01
  -2.528647422545417E+01  -2.528063244195534E+01  -2.527464433370310E+01
  -2.526850627671594E+01  -2.526221455940207E+01  -2.525576538055564E+01
  -2.524915484731189E+01  -2.524237897306211E+01  -2.523543367532792E+01
  -2.522831477359598E+01  -2.522101798711132E+01  -2.521353893262616E+01
  -2.520587312210938E+01  -2.519801596041344E+01  -2.518996274289795E+01
  -2.518170865301125E+01  -2.517324875982755E+01  -2.516457801554269E+01
  -2.515569125292627E+01  -2.514658318272988E+01  -2.513724839105262E+01
  -2.512768133666344E+01  -2.511787634828058E+01  -2.510782762180766E+01
  -2.509752921752781E+01  -2.508697505725547E+01  -2.507615892144613E+01
  -2.506507444626498E+01  -2.505371512061506E+01  -2.504207428312544E+01
  -2.503014511909995E+01  -2.501792065742812E+01  -2.500539376745911E+01
  -2.499255715583904E+01  -2.497940336331469E+01  -2.496592476150383E+01
  -2.495211354963302E+01  -2.493796175124738E+01  -2.492346121089224E+01
  -2.490860359076862E+01  -2.489338036736630E+01  -2.487778282807620E+01
  -2.486180206778551E+01  -2.484542898545780E+01  -2.482865428070201E+01
  -2.481146845033407E+01  -2.479386178493456E+01  -2.477582436540700E+01
  -2.475734605954107E+01  -2.473841651858586E+01  -2.471902517383803E+01
  -2.469916123325055E+01  -2.467881367806867E+01  -2.465797125949885E+01
  -2.463662249541719E+01  -2.461475566712595E+01  -2.459235881616519E+01
  -2.456941974118769E+01  -2.454592599490652E+01  -2.452186488112511E+01
  -2.449722345185882E+01  -2.447198850455963E+01  -2.444614657945550E+01
  -2.441968395701563E+01  -2.439258665555529E+01  -2.436484042899350E+01
  -2.433643076477794E+01  -2.430734288199280E+01  -2.427756172966479E+01
  -2.424707198528532E+01  -2.421585805356660E+01  -2.418390406545007E+01
  -2.415119387738806E+01  -2.411771107091937E+01  -2.408343895256071E+01
  -2.404836055403785E+01  -2.401245863288092E+01  -2.397571567340937E+01
  -2.393811388813372E+01  -2.389963521960279E+01  -2.386026134272564E+01
  -2.381997366759925E+01  -2.377875334287465E+01  -2.373658125969534E+01
  -2.369343805624282E+01  -2.364930412292644E+01  -2.360415960825552E+01
  -2.355798442543362E+01  -2.351075825971588E+01  -2.346246057657213E+01
  -2.341307063070001E+01  -2.336256747593332E+01  -2.331092997609272E+01
  -2.325813681682698E+01  -2.320416651849415E+01  -2.314899745013359E+01
  -2.309260784458050E+01  -2.303497581477610E+01  -2.297607937132685E+01
  -2.291589644136751E+01  -2.285440488878292E+01  -2.279158253584407E+01
  -2.272740718631412E+01  -2.266185665007976E+01  -2.259490876936340E+01
  -2.252654144657077E+01  -2.245673267382747E+01  -2.238546056425725E+01
  -2.231270338505217E+01  -2.223843959238398E+01  -2.216264786820235E+01
  -2.208530715896311E+01  -2.200639671632626E+01  -2.192589613985878E+01
  -2.184378542177353E+01  -2.176004499372939E+01  -2.167465577571196E+01
  -2.158759922700847E+01  -2.149885739928174E+01  -2.140841299174113E+01
  -2.131624940839935E+01  -2.122235081739407E+01  -2.112670221234350E+01
  -2.102928947569347E+01  -2.093009944400225E+01  -2.082911997509618E+01
  -2.072634001701568E+01  -2.062174967865805E+01  -2.051534030200676E+01
  -2.040710453582315E+01  -2.029703641065965E+01  -2.018513141503578E+01
  -2.007138657260274E+01  -1.995580052010312E+01  -1.983837358591480E+01
  -1.971910786894963E+01  -1.959800731765830E+01  -1.947507780887510E+01
  -1.935032722621610E+01  -1.922376553772705E+01  -1.909540487245797E+01
  -1.896525959562268E+01  -1.883334638198553E+01  -1.869968428709800E+01
  -1.856429481599281E+01  -1.842720198892575E+01  -1.828843240374013E+01
  -1.814801529441480E+01  -1.800598258534119E+01  -1.786236894086290E+01
  -1.771721180959896E+01  -1.757055146306162E+01  -1.742243102807120E+01
  -1.727289651246502E+01  -1.712199682359588E+01  -1.696978377912048E+01
  -1.681631210959119E+01  -1.666164380019771E+01  -1.650587687921979E+01
  -1.634915175706267E+01  -1.619159181041434E+01  -1.603327663654415E+01
  -1.587427114372516E+01  -1.571463995480776E+01  -1.555444685431336E+01
  -1.539375472096172E+01  -1.523262550919876E+01  -1.507112027531444E+01
  -1.490929924342383E+01  -1.474722190591428E+01  -1.458494715192874E+01
  -1.442253341617115E+01  -1.426003883904780E+01  -1.409752142837930E+01
  -1.393503921337627E+01  -1.377265038430703E+01  -1.361041341764868E+01
  -1.344849636739555E+01  -1.328755585297547E+01  -1.312829094341744E+01
  -1.297057164831222E+01  -1.281403615275718E+01  -1.265867166970925E+01
  -1.250456174716293E+01  -1.235178618312486E+01  -1.220042064606695E+01
  -1.205051729907797E+01  -1.190204147271413E+01  -1.175495437318496E+01
  -1.160935904500820E+01  -1.146538359543498E+01  -1.132307981707677E+01
  -1.118247184123014E+01  -1.104357361587878E+01  -1.090638821048659E+01
  -1.077090599217555E+01  -1.063710690534433E+01  -1.050497001969935E+01
  -1.037447466809541E+01  -1.024560044285521E+01  -1.011832719218292E+01
  -9.992635016665275E+00  -9.868504265855599E+00  -9.745915534934719E+00
  -9.624849661444468E+00  -9.505287722089538E+00  -9.387211029603199E+00
  -9.270601129674038E+00  -9.155439797929668E+00  -9.041709036974810E+00
  -8.929391073481062E+00  -8.818468355325463E+00  -8.708923548776085E+00
  -8.600739535721033E+00  -8.493899410945259E+00  -8.388386479444032E+00
  -8.284184253770228E+00  -8.181276451434845E+00  -8.079646992333071E+00
  -7.979279996208642E+00  -7.880159780162415E+00  -7.782270856172013E+00
  -7.685597928685862E+00  -7.590125892273685E+00  -7.495839829145813E+00
  -7.402725006776105E+00  -7.310766875695534E+00  -7.219951067118134E+00
  -7.130263390811646E+00  -7.041689832857089E+00  -6.954216553437853E+00
  -6.867829884669805E+00  -6.782516328463318E+00  -6.698262554412572E+00
  -6.615055397711448E+00  -6.532881857095246E+00  -6.451729092808084E+00
  -6.371584424595575E+00  -6.292435329722283E+00  -6.214269441013879E+00
  -6.137074544923391E+00  -6.060838579621471E+00  -5.985549633110305E+00
  -5.911195941360755E+00  -5.837765886472775E+00  -5.765247994858510E+00
  -5.693630935448136E+00  -5.622903517918115E+00  -5.553054690941631E+00
  -5.484073540461170E+00  -5.415949287982832E+00  -5.348671288892457E+00
  -5.282229030793218E+00  -5.216612131864412E+00  -5.151810339241440E+00
  -5.087813527416376E+00  -5.024611696659126E+00  -4.962194971458628E+00
  -4.900553598983643E+00  -4.839677947562941E+00  -4.779558505184080E+00
  -4.720185878010606E+00  -4.661550788917045E+00  -4.603644076041193E+00
  -4.546456691353533E+00  -4.489979699243166E+00  -4.434204275120254E+00
  -4.379121704034699E+00  -4.324723379310881E+00  -4.271000801198690E+00
  -4.217945575540599E+00  -4.165549412455088E+00  -4.113804125036442E+00
  -4.062701628070845E+00  -4.012233936769115E+00  -3.962393165515758E+00
  -3.913171526634476E+00  -3.864561329169939E+00  -3.816554977685544E+00
  -3.769144971077103E+00  -3.722323901401927E+00  -3.676084452723225E+00
  -3.630419399969408E+00  -3.585321607807890E+00  -3.540784029533288E+00
  -3.496799705969512E+00  -3.453361764385611E+00  -3.410463417425104E+00
  -3.368097962048415E+00  -3.326258778488390E+00  -3.284939329218415E+00
  -3.244133157933106E+00  -3.203833888541257E+00  -3.164035224170770E+00
  -3.124730946185537E+00  -3.085914913213887E+00  -3.047581060188622E+00
  -3.009723397398433E+00  -2.972336009550542E+00  -2.935413054844652E+00
  -2.898948764057978E+00  -2.862937439641474E+00  -2.827373454827154E+00
  -2.792251252746445E+00  -2.757565345559673E+00  -2.723310313596464E+00
  -2.689480804507129E+00  -2.656071532424914E+00  -2.623077277138921E+00
  -2.590492883277733E+00  -2.558313259503427E+00  -2.526533377715969E+00
  -2.495148272267735E+00  -2.464153039187984E+00  -2.433542835417206E+00
  -2.403312878051032E+00  -2.373458443593676E+00  -2.343974867220699E+00
  -2.314857542050882E+00  -2.286101918427219E+00  -2.257703503206711E+00
  -2.229657859059001E+00  -2.201960603773641E+00  -2.174607409575863E+00
  -2.147594002450845E+00  -2.120916161476238E+00  -2.094569718162960E+00
  -2.068550555804134E+00  -2.042854608832000E+00  -2.017477862182843E+00
  -1.992416350669705E+00  -1.967666158362898E+00  -1.943223417978174E+00
  -1.919084310272440E+00  -1.895245063447019E+00  -1.871701952558247E+00
  -1.848451298935412E+00  -1.825489469605932E+00  -1.802812876727607E+00
  -1.780417977027994E+00  -1.758301271250678E+00  -1.736459303608456E+00
  -1.714888661243319E+00  -1.693585973693100E+00  -1.672547912364810E+00
  -1.651771190014454E+00  -1.631252560233357E+00  -1.610988816940863E+00
  -1.590976793883313E+00  -1.571213364139293E+00  -1.551695439630980E+00
  -1.532419970641601E+00  -1.513383945338879E+00  -1.494584389304375E+00
  -1.476018365068724E+00  -1.457682971652601E+00  -1.439575344113419E+00
  -1.421692653097659E+00  -1.404032104398742E+00  -1.386590938520424E+00
  -1.369366430245592E+00  -1.352355888210355E+00  -1.335556654483976E+00
  -1.318966104151888E+00  -1.302581644352871E+00  -1.286400716147496E+00
  -1.270420790623251E+00  -1.254639370885358E+00  -1.239053991055992E+00
  -1.223662215888927E+00  -1.208461640389592E+00  -1.193449889437075E+00
  -1.178624615848529E+00  -1.163983506425948E+00  -1.149524271749071E+00
  -1.135244652534783E+00  -1.121142417565246E+00  -1.107215363339293E+00
  -1.093461313728108E+00  -1.079878119635202E+00  -1.066463658660693E+00
  -1.053215834768978E+00  -1.040132577964201E+00  -1.027211850808459E+00
  -1.014451618713533E+00  -1.001849898328833E+00  -9.894047190280355E-01
  -9.771141362266439E-01  -9.649762294961368E-01  -9.529891022639454E-01
  -9.411508815170978E-01  -9.294597175920011E-01  -9.179137835482708E-01
  -9.065112754006637E-01  -8.952504114840870E-01  -8.841294322656438E-01
  -8.731466000697050E-01  -8.623001988064012E-01  -8.515885337034670E-01
  -8.410099310414421E-01  -8.305627378921387E-01  -8.202453218603728E-01
  -8.100560708289039E-01  -7.999933927065268E-01  -7.900557151793177E-01
  -7.802414854649444E-01  -7.705491700700481E-01  -7.609772545506334E-01
  -7.515242432754254E-01  -7.421886591921846E-01  -7.329690435969053E-01
  -7.238639559058928E-01  -7.148719734306762E-01  -7.059916911556975E-01
  -6.972217215187891E-01  -6.885606941943525E-01  -6.800072558792470E-01
  -6.715600700813382E-01  -6.632178169131935E-01  -6.549791928754863E-01
  -6.468429106692315E-01  -6.388076989837795E-01  -6.308723023009595E-01
  -6.230354806988920E-01  -6.152960096582609E-01  -6.076526798709684E-01
  -6.001042970511832E-01  -5.926496817487353E-01  -5.852876691648146E-01
  -5.780171089699788E-01  -5.708368651244047E-01  -5.637458157003816E-01
  -5.567428527070130E-01  -5.498268819170804E-01  -5.429968226960802E-01
  -5.362516078333617E-01  -5.295901833753784E-01  -5.230115084610084E-01
  -5.165145551589093E-01  -5.100983083069118E-01  -5.037617653533906E-01
  -4.975039362006161E-01  -4.913238430500533E-01  -4.852205202495724E-01
  -4.791930141425702E-01  -4.732403829189535E-01  -4.673616964679821E-01
  -4.615560362329395E-01  -4.558224950676004E-01  -4.501601770944945E-01
  -4.445681975649178E-01  -4.390456827206905E-01  -4.335917696576346E-01
  -4.282056061907363E-01  -4.228863507209971E-01  -4.176331721039269E-01
  -4.124452495196786E-01  -4.073217723447948E-01  -4.022619400255418E-01
  -3.972649619528267E-01  -3.923300573386587E-01  -3.874564550941507E-01
  -3.826433937090383E-01  -3.778901211326860E-01  -3.731958946565850E-01
  -3.685599807982971E-01  -3.639816551868491E-01  -3.594602024495513E-01
  -3.549949161002130E-01  -3.505850984287588E-01  -3.462300603922051E-01
  -3.419291215069972E-01  -3.376816097426860E-01  -3.334868614169148E-01
  -3.293442210917250E-01  -3.252530414711368E-01  -3.212126833000102E-01
  -3.172225152641623E-01  -3.132819138917178E-01  -3.093902634556967E-01
  -3.055469558777997E-01  -3.017513906333983E-01  -2.980029746577019E-01
  -2.943011222530869E-01  -2.906452549975848E-01  -2.870348016544985E-01
  -2.834691980831470E-01  -2.799478871507190E-01  -2.764703186452163E-01
  -2.730359491894855E-01  -2.696442421563117E-01  -2.662946675845695E-01
  -2.629867020964189E-01  -2.597198288155209E-01  -2.564935372862797E-01
  -2.533073233940798E-01  -2.501606892865175E-01  -2.470531432956125E-01
  -2.439841998609806E-01  -2.409533794539671E-01  -2.379602085027167E-01
  -2.350042193181781E-01  -2.320849500210284E-01  -2.292019444694995E-01
  -2.263547521881092E-01  -2.235429282972708E-01  -2.207660334437799E-01
  -2.180236337321671E-01  -2.153153006568970E-01  -2.126406110354174E-01
  -2.099991469420327E-01  -2.073904956426039E-01  -2.048142495300589E-01
  -2.022700060607003E-01  -1.997573676913107E-01  -1.972759418170324E-01
  -1.948253407100236E-01  -1.924051814588763E-01  -1.900150859087831E-01
  -1.876546806024522E-01  -1.853235967217518E-01  -1.830214700300825E-01
  -1.807479408154659E-01  -1.785026538343359E-01  -1.762852582560343E-01
  -1.740954076079905E-01  -1.719327597215848E-01  -1.697969766786859E-01
  -1.676877247588474E-01  -1.656046743871660E-01  -1.635475000827830E-01
  -1.615158804080276E-01  -1.595094979181929E-01  -1.575280391119321E-01
  -1.555711943822762E-01  -1.536386579682545E-01  -1.517301279071204E-01
  -1.498453059871694E-01  -1.479838977011412E-01  -1.461456122002047E-01
  -1.443301622485101E-01  -1.425372641783085E-01  -1.407666378456294E-01
  -1.390180065865052E-01  -1.372910971737449E-01  -1.355856397742388E-01
  -1.339013679067983E-01  -1.322380184005180E-01  -1.305953313536528E-01
  -1.289730500930102E-01  -1.273709211338423E-01  -1.257886941402395E-01
  -1.242261218860154E-01  -1.226829602160757E-01  -1.211589680082705E-01
  </PP_LOCAL>
  <PP_NONLOCAL>
    <PP_BETA.1 index="1" label="2S" angular_momentum="0" cutoff_radius_index="759" cutoff_radius="1.0000000000000000" ultrasoft_cutoff_radius="1.3000000000000000">
   1.130267512084643E-03   1.144484517356950E-03   1.158880350164385E-03
   1.173457259865979E-03   1.186283544813357E-03   1.200950106022142E-03
   1.218611066832853E-03   1.235687454706147E-03   1.241402690878052E-03
   1.260432845917203E-03   1.282833193545746E-03   1.299843666081074E-03
   1.309358009861664E-03   1.335791709847031E-03   1.346436538584850E-03
   1.354920990803268E-03   1.385739214350923E-03   1.389721890635826E-03
   1.413842818040509E-03   1.430087542527228E-03   1.447758776536162E-03
   1.466978814899517E-03   1.486487833826461E-03   1.504977536942301E-03
   1.522092344497447E-03   1.542853491165688E-03   1.568048108328987E-03
   1.587299195014852E-03   1.603623334139853E-03   1.630322301423945E-03
   1.641165070987063E-03   1.668484997918565E-03   1.687987330557889E-03
   1.714635587884636E-03   1.726777343655145E-03   1.748045280190236E-03
   1.769419361407315E-03   1.798100230832864E-03   1.819389228850540E-03
   1.838289081834407E-03   1.864861193537071E-03   1.885479532882650E-03
   1.910208314682499E-03   1.934238907723235E-03   1.955628381979185E-03
   1.983228867903641E-03   2.014486301250673E-03   2.031421718485110E-03
   2.060063047000765E-03   2.089147377505818E-03   2.116663830818599E-03
   2.137420520363892E-03   2.167146690841976E-03   2.191360648703067E-03
   2.223415954611091E-03   2.248650405935443E-03   2.273720320116940E-03
   2.306584909728099E-03   2.329088038957622E-03   2.367796448993681E-03
   2.394934543188842E-03   2.425989545592228E-03   2.458717129836502E-03
   2.483025129138283E-03   2.512811371851831E-03   2.546845721972724E-03
   2.582724311356671E-03   2.610641254824325E-03   2.640734656357502E-03
   2.679050258758475E-03   2.708422431010715E-03   2.743326316041433E-03
   2.779040904414054E-03   2.816333518133984E-03   2.852035987595064E-03
   2.887762601034877E-03   2.922979280083920E-03   2.959654685938534E-03
   2.993514305477618E-03   3.033689917301019E-03   3.070582541499473E-03
   3.114378501931192E-03   3.154226353176387E-03   3.187171206373796E-03
   3.228111909915954E-03   3.271499517790905E-03   3.311887290643245E-03
   3.350161788110262E-03   3.394609427601947E-03   3.439925043326714E-03
   3.477860595318211E-03   3.525267299576612E-03   3.570026669230064E-03
   3.615346863203167E-03   3.659440790851898E-03   3.704228510435226E-03
   3.753549225627317E-03   3.800904084318102E-03   3.848318818450214E-03
   3.896137816990664E-03   3.944416310506349E-03   3.997462625170978E-03
   4.044584619460834E-03   4.095092550629453E-03   4.145310049942730E-03
   4.199998893713086E-03   4.251766259093903E-03   4.304374299915203E-03
   4.360371646917438E-03   4.414818404975873E-03   4.469646656997561E-03
   4.529009544949780E-03   4.580360376070236E-03   4.640588537905388E-03
   4.698743411669037E-03   4.758069388207387E-03   4.817515419597573E-03
   4.878245649384105E-03   4.941448336121645E-03   5.003111773398350E-03
   5.066208598837663E-03   5.125976052126280E-03   5.194628918051336E-03
   5.257826189530745E-03   5.325164730947629E-03   5.393353405663104E-03
   5.459388153743472E-03   5.527497714906737E-03   5.596379030515075E-03
   5.668845025692593E-03   5.740965831220690E-03   5.812391644178572E-03
   5.885956301934836E-03   5.961002239506075E-03   6.033319395058578E-03
   6.108937918442137E-03   6.186656534909074E-03   6.264692277353490E-03
   6.343672448049009E-03   6.423997383890212E-03   6.504173019351578E-03
   6.585769125998231E-03   6.669622076599380E-03   6.752364966901458E-03
   6.838792628774737E-03   6.921844327991478E-03   7.010915146937691E-03
   7.099912250933760E-03   7.188147743632523E-03   7.278818827469724E-03
   7.372123576777190E-03   7.464407537166262E-03   7.556753315872577E-03
   7.653373097482485E-03   7.748179881037931E-03   7.845637033403352E-03
   7.942899215856225E-03   8.043287521531384E-03   8.145168620844134E-03
   8.247469397547613E-03   8.351503376602620E-03   8.455923006687627E-03
   8.562022472841546E-03   8.670417732386748E-03   8.781073068377165E-03
   8.889466642203137E-03   9.002004797925012E-03   9.114452746990409E-03
   9.230293060134898E-03   9.346448153151332E-03   9.463142516253575E-03
   9.582525142506904E-03   9.704615761580215E-03   9.823796886528235E-03
   9.948790649348505E-03   1.007389718069196E-02   1.020190983043567E-02
   1.032820767374398E-02   1.045854698917970E-02   1.058931506921446E-02
   1.072387947285347E-02   1.085782590880324E-02   1.099371213894629E-02
   1.113361239702171E-02   1.127366637631133E-02   1.141430135886123E-02
   1.155997728747316E-02   1.170462150412066E-02   1.185097447814432E-02
   1.200032526418893E-02   1.215186595821705E-02   1.230407266436873E-02
   1.245967783594881E-02   1.261562546198502E-02   1.277556273460356E-02
   1.293476515590530E-02   1.309754407953445E-02   1.326236411672987E-02
   1.342942544494763E-02   1.359857730585456E-02   1.376921858567193E-02
   1.394292070860148E-02   1.411775334181420E-02   1.429513869757382E-02
   1.447506272834675E-02   1.465709824729788E-02   1.484152618906531E-02
   1.502868930482149E-02   1.521722036654172E-02   1.540925694231676E-02
   1.560312114308160E-02   1.579857338736246E-02   1.599767299856669E-02
   1.619896896132089E-02   1.640296566137223E-02   1.660885907181564E-02
   1.681795477434456E-02   1.702927463920489E-02   1.724378698200946E-02
   1.746025976435317E-02   1.768041611092519E-02   1.790253855147639E-02
   1.812779929840591E-02   1.835553716971283E-02   1.858633360694051E-02
   1.882017002548775E-02   1.905703283037408E-02   1.929706087699001E-02
   1.953923205707753E-02   1.978512352703632E-02   2.003402510708741E-02
   2.028587888085287E-02   2.054069627093402E-02   2.079946030119317E-02
   2.106146370200368E-02   2.132613981589127E-02   2.159452528977668E-02
   2.186568619304907E-02   2.214104306268538E-02   2.241904246778659E-02
   2.270134913277078E-02   2.298669118415075E-02   2.327602667398154E-02
   2.356874424677824E-02   2.386552296301403E-02   2.416557259341090E-02
   2.446930878268261E-02   2.477748626137588E-02   2.508913399364299E-02
   2.540473109822039E-02   2.572386456768716E-02   2.604792995828387E-02
   2.637474129819228E-02   2.670697583964965E-02   2.704217487899574E-02
   2.738296984534427E-02   2.772712578343883E-02   2.807629823813196E-02
   2.842927934542039E-02   2.878644301391353E-02   2.914898481727901E-02
   2.951492288947666E-02   2.988659975360397E-02   3.026252242818650E-02
   3.064328673225747E-02   3.102837694570670E-02   3.141903138906921E-02
   3.181385846666362E-02   3.221404996956467E-02   3.261938297616451E-02
   3.302935009172137E-02   3.344510161443948E-02   3.386529029193097E-02
   3.429131051607692E-02   3.472258944440387E-02   3.515938700691601E-02
   3.560141488007185E-02   3.604913703951018E-02   3.650273167760831E-02
   3.696180011886829E-02   3.742664123349249E-02   3.789722774069970E-02
   3.837394766999935E-02   3.885629006455904E-02   3.934534972402082E-02
   3.984008273629280E-02   4.034099075836206E-02   4.084849169002203E-02
   4.136233976861714E-02   4.188236767888087E-02   4.240917169901737E-02
   4.294240224763524E-02   4.348267696289820E-02   4.402935998157798E-02
   4.458302507104150E-02   4.514361795854382E-02   4.571119146416613E-02
   4.628640868440126E-02   4.686816659249171E-02   4.745759991355269E-02
   4.805462848054809E-02   4.865889504240917E-02   4.927078730714740E-02
   4.989046426376564E-02   5.051766880975217E-02   5.115297740188129E-02
   5.179611290950881E-02   5.244770398983123E-02   5.310691519780875E-02
   5.377498551368554E-02   5.445085077247969E-02   5.513548584604289E-02
   5.582901447104582E-02   5.653101624180890E-02   5.724189945106195E-02
   5.796158251762940E-02   5.869044714823746E-02   5.942827260745887E-02
   6.017568808036255E-02   6.093211807528931E-02   6.169847245467253E-02
   6.247422218149001E-02   6.325949198311775E-02   6.405516797084143E-02
   6.486051604721066E-02   6.567591680032958E-02   6.650170232741637E-02
   6.733760384607113E-02   6.818447158711116E-02   6.904152621724258E-02
   6.990948957500542E-02   7.078843887513742E-02   7.167834546280005E-02
   7.257941783321442E-02   7.349208291720544E-02   7.441581079796755E-02
   7.535139622056519E-02   7.629858097690967E-02   7.725773999019658E-02
   7.822887002479817E-02   7.921234833366153E-02   8.020803480927707E-02
   8.121625527511078E-02   8.223710444254984E-02   8.327066201213107E-02
   8.431738195588245E-02   8.537715550232594E-02   8.645024740424034E-02
   8.753689865148129E-02   8.863697241442203E-02   8.975099410350040E-02
   9.087889542327332E-02   9.202124560812308E-02   9.317745261313526E-02
   9.434851778297570E-02   9.553415076273808E-02   9.673467845513706E-02
   9.795019971272101E-02   9.918111271600072E-02   1.004274174811082E-01
   1.016892032232342E-01   1.029669435219160E-01   1.042605853033516E-01
   1.055704877710468E-01   1.068969702470666E-01   1.082398753067899E-01
   1.095997559092341E-01   1.109764475286701E-01   1.123706580560482E-01
   1.137822256502723E-01   1.152115224099344E-01   1.166586093183328E-01
   1.181240441297629E-01   1.196074992617771E-01   1.211098851780559E-01
   1.226307384982821E-01   1.241709034534164E-01   1.257302726953284E-01
   1.273091142667138E-01   1.289076898939445E-01   1.305263898780709E-01
   1.321652354263279E-01   1.338246241397947E-01   1.355047224161048E-01
   1.372059099171921E-01   1.389283286970926E-01   1.406722193792476E-01
   1.424380203220679E-01   1.442258278547079E-01   1.460360052201999E-01
   1.478687654591493E-01   1.497244298123270E-01   1.516033001526402E-01
   1.535055964300422E-01   1.554317010062096E-01   1.573818760067081E-01
   1.593562456804349E-01   1.613553264034113E-01   1.633794144115956E-01
   1.654287157484511E-01   1.675035936124036E-01   1.696042146800476E-01
   1.717311284501424E-01   1.738845333446211E-01   1.760647509815989E-01
   1.782721740804334E-01   1.805070253718331E-01   1.827697545698417E-01
   1.850606034078996E-01   1.873799655686010E-01   1.897282015164397E-01
   1.921056737281877E-01   1.945126817195639E-01   1.969495514721125E-01
   1.994167633366448E-01   2.019146543611967E-01   2.044434543506579E-01
   2.070037211060551E-01   2.095957496125695E-01   2.122199888894816E-01
   2.148766606503294E-01   2.175663041585771E-01   2.202892800668526E-01
   2.230460045413434E-01   2.258368863006730E-01   2.286622220618852E-01
   2.315227117045779E-01   2.344183216252738E-01   2.373498381699797E-01
   2.403175913456650E-01   2.433220003550183E-01   2.463634887093953E-01
   2.494425245769953E-01   2.525595186750067E-01   2.557149359019135E-01
   2.589091715228911E-01   2.621427944471968E-01   2.654162570419025E-01
   2.687299063970663E-01   2.720842967281776E-01   2.754799730648116E-01
   2.789172532827280E-01   2.823968185716517E-01   2.859188820211855E-01
   2.894842269864384E-01   2.930932611938388E-01   2.967464129106361E-01
   3.004442493611741E-01   3.041872600859321E-01   3.079759874803543E-01
   3.118109706324148E-01   3.156926534468312E-01   3.196216799390221E-01
   3.235985618611146E-01   3.276237650122908E-01   3.316979062858039E-01
   3.358214880005193E-01   3.399951388785354E-01   3.442193068526400E-01
   3.484946359082564E-01   3.528217049646578E-01   3.572010320275574E-01
   3.616331975426412E-01   3.661188455066764E-01   3.706585146086212E-01
   3.752527671558958E-01   3.799022561707481E-01   3.846075662764044E-01
   3.893692249086840E-01   3.941879667233508E-01   3.990643038327093E-01
   4.039988341966527E-01   4.089922698824964E-01   4.140451208966596E-01
   4.191580751610502E-01   4.243317295294524E-01   4.295667347478478E-01
   4.348637502205079E-01   4.402233172726717E-01   4.456461506281677E-01
   4.511328637006962E-01   4.566840868148390E-01   4.623004985610031E-01
   4.679826853781321E-01   4.737313410374568E-01   4.795471275352625E-01
   4.854306627417770E-01   4.913825720799920E-01   4.974035750080148E-01
   5.034942454668467E-01   5.096553105027510E-01   5.158873560638497E-01
   5.221910680058599E-01   5.285671119163524E-01   5.350160812797142E-01
   5.415386735110843E-01   5.481355279287783E-01   5.548072649330962E-01
   5.615545646660394E-01   5.683780203040243E-01   5.752783083937558E-01
   5.822560395957339E-01   5.893118300909137E-01   5.964463155636963E-01
   6.036601407466193E-01   6.109538683661668E-01   6.183281462934218E-01
   6.257835609675197E-01   6.333206631794610E-01   6.409401176740772E-01
   6.486424193781843E-01   6.564282052251897E-01   6.642979709015151E-01
   6.722522929336066E-01   6.802917081971955E-01   6.884167261131040E-01
   6.966278335862128E-01   7.049255861767989E-01   7.133104125958454E-01
   7.217828225362268E-01   7.303432201134541E-01   7.389920530076424E-01
   7.477297624213648E-01   7.565567229316059E-01   7.654732943396070E-01
   7.744798358096361E-01   7.835766844972198E-01   7.927641628533522E-01
   8.020425394877790E-01   8.114120623039014E-01   8.208729750809454E-01
   8.304254825961053E-01   8.400697381923763E-01   8.498059016752961E-01
   8.596340642481977E-01   8.695543216757144E-01   8.795666906199955E-01
   8.896711963905801E-01   8.998677779790398E-01   9.101563640071788E-01
   9.205368553179412E-01   9.310090952798760E-01   9.415728412911335E-01
   9.522278556009098E-01   9.629738573141680E-01   9.738104604222286E-01
   9.847372770935863E-01   9.957538402285877E-01   1.006859651728575E+00
   1.018054131644860E+00   1.029336620267287E+00   1.040706451086848E+00
   1.052162845788970E+00   1.063704975971504E+00   1.075331963000068E+00
   1.087042808453049E+00   1.098836487379685E+00   1.110711877160881E+00
   1.122667783026941E+00   1.134702924274549E+00   1.146815943936872E+00
   1.159005414840379E+00   1.171269766932454E+00   1.183607424699659E+00
   1.196016625530063E+00   1.208495606942947E+00   1.221042430784507E+00
   1.233655097167599E+00   1.246331512058035E+00   1.259069461367446E+00
   1.271866622933203E+00   1.284720574819332E+00   1.297628781116416E+00
   1.310588602291091E+00   1.323597260261863E+00   1.336651893268396E+00
   1.349749489485021E+00   1.362886940614615E+00   1.376060995843361E+00
   1.389268294072977E+00   1.402505381238910E+00   1.415768589907245E+00
   1.429054216052677E+00   1.442358381569974E+00   1.455677076562608E+00
   1.469006205645769E+00   1.482341497943494E+00   1.495678568687254E+00
   1.509012913603726E+00   1.522339888129125E+00   1.535654736381744E+00
   1.548952570369565E+00   1.562228358180263E+00   1.575476991287815E+00
   1.588693193555727E+00   1.601871621879368E+00   1.615006769450360E+00
   1.628093071345148E+00   1.641124843092427E+00   1.654096273111719E+00
   1.667001499497417E+00   1.679834576107808E+00   1.692589428877596E+00
   1.705259962699188E+00   1.717840002596560E+00   1.730323329342340E+00
   1.742703675878687E+00   1.754974740356829E+00   1.767130202890826E+00
   1.779163751814593E+00   1.791069060449189E+00   1.802839855448099E+00
   1.814469857172497E+00   1.825952882985860E+00   1.837282793588059E+00
   1.848453547774767E+00   1.859459218731814E+00   1.870293995700109E+00
   1.880952237502697E+00   1.891428453531148E+00   1.901717376297142E+00
   1.911813927848328E+00   1.921713293239577E+00   1.931410931954758E+00
   1.940902593080295E+00   1.950184331210778E+00   1.959252596458754E+00
   1.968104176832753E+00   1.976736282682396E+00   1.985146566223364E+00
   1.993333134514046E+00   2.001294594501388E+00   2.009030067455996E+00
   2.016539206421839E+00   2.023822255219216E+00   2.030880054360239E+00
   2.037714043962325E+00   2.044326317593459E+00   2.050719607774084E+00
   2.056897336749984E+00   2.062863591118372E+00   2.068623158684090E+00
   2.074181500006091E+00   2.079544777428197E+00   2.084719814278316E+00
   2.089714102722354E+00   2.094535764465689E+00   2.099193520451450E+00
   2.103696642769279E+00   2.108054922704923E+00   2.112278553592716E+00
   2.116378121432518E+00   2.120364444394284E+00   2.124248510109425E+00
   2.128041298772217E+00   2.131753699440083E+00   2.135396293948105E+00
   2.138979176390450E+00   2.142511767897503E+00   2.146002545183649E+00
   2.149458789212474E+00   2.152886306517615E+00   2.156289073628727E+00
   2.159668917094052E+00   2.163025091750029E+00   2.166353868246745E+00
   2.169648075055079E+00   2.172896587588752E+00   2.176083779898818E+00
   2.179188948102848E+00   2.182185691648527E+00   2.185041206284524E+00
   2.187715619709877E+00   2.190161173035989E+00   2.192321480329895E+00
   2.194130601427219E+00   2.195512238775592E+00   2.196378732021060E+00
   2.196630129571219E+00   2.196153172271806E+00   2.194820246975638E+00
   2.192488360987696E+00   2.188998024217156E+00   2.184172186934475E+00
   2.177815135515885E+00   2.169711422329271E+00   2.159624800480358E+00
   2.147297202535341E+00   2.132447763689939E+00   2.114771943523365E+00
   2.093940685073477E+00   2.069599752334369E+00   2.041369169348201E+00
   2.008842835084394E+00   1.971588364217737E+00   1.929147129569287E+00
   1.881034620940326E+00   1.826741093931176E+00   1.765732605316927E+00
   1.697452452788994E+00   1.621323092009064E+00   1.536748586305947E+00
   1.443117625033622E+00   1.339807236735325E+00   1.226187193859914E+00
   1.101625236057714E+00   9.654931829741642E-01   8.171739697412903E-01
   6.560697787404592E-01   4.816112673782555E-01   2.932680220995181E-01
   9.056034996409323E-02  -1.269275577805402E-01  -3.595329311790181E-01
  -6.074981529674233E-01  -8.709528142677954E-01  -1.149893970663321E+00
  -1.444164591209351E+00  -1.753430037783680E+00  -2.077152574917477E+00
  -2.414563813922204E+00  -2.764635053140204E+00  -3.126045507218475E+00
  -3.497148354173287E+00  -3.875934691341225E+00  -4.259995354715791E+00
  -4.646480708010142E+00  -5.032058492087096E+00  -5.412869843293368E+00
  -5.784483690661274E+00  -6.141849721848105E+00  -6.479250218880429E+00
  -6.790251108358662E+00  -7.067652616339258E+00  -7.303440044482091E+00
  -7.488709858231447E+00  -7.613685940254113E+00  -7.667913309467997E+00
  -7.640286167304553E+00  -7.519058306456452E+00  -7.291860909147097E+00
  -6.945728608939852E+00  -6.467135191211497E+00  -5.842035948191387E+00
  -5.055956291768386E+00  -4.093752970225382E+00  -2.942689411251832E+00
  -1.563458799581556E+00  -1.727547265245946E-01   1.756239808516633E-02
  -1.214824461006406E-03   7.342847528370821E-04   6.244333926833526E-04
   7.147807497990164E-04   7.807485399525156E-04   8.461356050488463E-04
   9.075027799522926E-04   9.655658697091134E-04   1.020333805734595E-03
   1.071886165496804E-03   1.120297826000301E-03   1.165643332465960E-03
   1.208000026205780E-03   1.247443367535232E-03   1.284048890836265E-03
   1.317893620429068E-03   1.349050568433768E-03   1.377596218054002E-03
   1.403602169644436E-03   1.427142104995055E-03   1.448286814347998E-03
   1.467106230528278E-03   1.483669792588227E-03   1.498044013733125E-03
   1.510295680643048E-03   1.520489083051451E-03   1.528687318786676E-03
   1.534952539929865E-03   0.000000000000000E+00   0.000000000000000E+00
   0.000000000000000E+00   0.000000000000000E+00   0.000000000000000E+00
   0.000000000000000E+00   0.000000000000000E+00   0.000000000000000E+00
   0.000000000000000E+00   0.000000000000000E+00   0.000000000000000E+00
   0.000000000000000E+00   0.000000000000000E+00   0.000000000000000E+00
   0.000000000000000E+00   0.000000000000000E+00   0.000000000000000E+00
   0.000000000000000E+00   0.000000000000000E+00   0.000000000000000E+00
   0.000000000000000E+00   0.000000000000000E+00   0.000000000000000E+00
   0.000000000000000E+00   0.000000000000000E+00   0.000000000000000E+00
   0.000000000000000E+00   0.000000000000000E+00   0.000000000000000E+00
   0.000000000000000E+00   0.000000000000000E+00   0.000000000000000E+00
   0.000000000000000E+00   0.000000000000000E+00   0.000000000000000E+00
   0.000000000000000E+00   0.000000000000000E+00   0.000000000000000E+00
   0.000000000000000E+00   0.000000000000000E+00   0.000000000000000E+00
   0.000000000000000E+00   0.000000000000000E+00   0.000000000000000E+00
   0.000000000000000E+00   0.000000000000000E+00   0.000000000000000E+00
   0.000000000000000E+00   0.000000000000000E+00   0.000000000000000E+00
   0.000000000000000E+00   0.000000000000000E+00   0.000000000000000E+00
   0.000000000000000E+00   0.000000000000000E+00   0.000000000000000E+00
   0.000000000000000E+00   0.000000000000000E+00   0.000000000000000E+00
   0.000000000000000E+00   0.000000000000000E+00   0.000000000000000E+00
   0.000000000000000E+00   0.000000000000000E+00   0.000000000000000E+00
   0.000000000000000E+00   0.000000000000000E+00   0.000000000000000E+00
   0.000000000000000E+00   0.000000000000000E+00   0.000000000000000E+00
   0.000000000000000E+00   0.000000000000000E+00   0.000000000000000E+00
   0.000000000000000E+00   0.000000000000000E+00   0.000000000000000E+00
   0.000000000000000E+00   0.000000000000000E+00   0.000000000000000E+00
   0.000000000000000E+00   0.000000000000000E+00   0.000000000000000E+00
   0.000000000000000E+00   0.000000000000000E+00   0.000000000000000E+00
   0.000000000000000E+00   0.000000000000000E+00   0.000000000000000E+00
   0.000000000000000E+00   0.000000000000000E+00   0.000000000000000E+00
   0.000000000000000E+00   0.000000000000000E+00   0.000000000000000E+00
   0.000000000000000E+00   0.000000000000000E+00   0.000000000000000E+00
   0.000000000000000E+00   0.000000000000000E+00   0.000000000000000E+00
   0.000000000000000E+00   0.000000000000000E+00   0.000000000000000E+00
   0.000000000000000E+00   0.000000000000000E+00   0.000000000000000E+00
   0.000000000000000E+00   0.000000000000000E+00   0.000000000000000E+00
   0.000000000000000E+00   0.000000000000000E+00   0.000000000000000E+00
   0.000000000000000E+00   0.000000000000000E+00   0.000000000000000E+00
   0.000000000000000E+00   0.000000000000000E+00   0.000000000000000E+00
   0.000000000000000E+00   0.000000000000000E+00   0.000000000000000E+00
   0.000000000000000E+00   0.000000000000000E+00   0.000000000000000E+00
   0.000000000000000E+00   0.000000000000000E+00   0.000000000000000E+00
   0.000000000000000E+00   0.000000000000000E+00   0.000000000000000E+00
   0.000000000000000E+00   0.000000000000000E+00   0.000000000000000E+00
   0.000000000000000E+00   0.000000000000000E+00   0.000000000000000E+00
   0.000000000000000E+00   0.000000000000000E+00   0.000000000000000E+00
   0.000000000000000E+00   0.000000000000000E+00   0.000000000000000E+00
   0.000000000000000E+00   0.000000000000000E+00   0.000000000000000E+00
   0.000000000000000E+00   0.000000000000000E+00   0.000000000000000E+00
   0.000000000000000E+00   0.000000000000000E+00   0.000000000000000E+00
   0.000000000000000E+00   0.000000000000000E+00   0.000000000000000E+00
   0.000000000000000E+00   0.000000000000000E+00   0.000000000000000E+00
   0.000000000000000E+00   0.000000000000000E+00   0.000000000000000E+00
   0.000000000000000E+00   0.000000000000000E+00   0.000000000000000E+00
   0.000000000000000E+00   0.000000000000000E+00   0.000000000000000E+00
   0.000000000000000E+00   0.000000000000000E+00   0.000000000000000E+00
   0.000000000000000E+00   0.000000000000000E+00   0.000000000000000E+00
   0.000000000000000E+00   0.000000000000000E+00   0.000000000000000E+00
   0.000000000000000E+00   0.000000000000000E+00   0.000000000000000E+00
   0.000000000000000E+00   0.000000000000000E+00   0.000000000000000E+00
   0.000000000000000E+00   0.000000000000000E+00   0.000000000000000E+00
   0.000000000000000E+00   0.000000000000000E+00   0.000000000000000E+00
   0.000000000000000E+00   0.000000000000000E+00   0.000000000000000E+00
   0.000000000000000E+00   0.000000000000000E+00   0.000000000000000E+00
   0.000000000000000E+00   0.000000000000000E+00   0.000000000000000E+00
   0.000000000000000E+00   0.000000000000000E+00   0.000000000000000E+00
   0.000000000000000E+00   0.000000000000000E+00   0.000000000000000E+00
   0.000000000000000E+00   0.000000000000000E+00   0.000000000000000E+00
   0.000000000000000E+00   0.000000000000000E+00   0.000000000000000E+00
   0.000000000000000E+00   0.000000000000000E+00   0.000000000000000E+00
   0.000000000000000E+00   0.000000000000000E+00   0.000000000000000E+00
   0.000000000000000E+00   0.000000000000000E+00   0.000000000000000E+00
   0.000000000000000E+00   0.000000000000000E+00   0.000000000000000E+00
   0.000000000000000E+00   0.000000000000000E+00   0.000000000000000E+00
   0.000000000000000E+00   0.000000000000000E+00   0.000000000000000E+00
   0.000000000000000E+00   0.000000000000000E+00   0.000000000000000E+00
   0.000000000000000E+00   0.000000000000000E+00   0.000000000000000E+00
   0.000000000000000E+00   0.000000000000000E+00   0.000000000000000E+00
   0.000000000000000E+00   0.000000000000000E+00   0.000000000000000E+00
   0.000000000000000E+00   0.000000000000000E+00   0.000000000000000E+00
   0.000000000000000E+00   0.000000000000000E+00   0.000000000000000E+00
   0.000000000000000E+00   0.000000000000000E+00   0.000000000000000E+00
   0.000000000000000E+00   0.000000000000000E+00   0.000000000000000E+00
   0.000000000000000E+00   0.000000000000000E+00   0.000000000000000E+00
   0.000000000000000E+00   0.000000000000000E+00   0.000000000000000E+00
   0.000000000000000E+00   0.000000000000000E+00   0.000000000000000E+00
   0.000000000000000E+00   0.000000000000000E+00   0.000000000000000E+00
   0.000000000000000E+00   0.000000000000000E+00   0.000000000000000E+00
   0.000000000000000E+00   0.000000000000000E+00   0.000000000000000E+00
   0.000000000000000E+00   0.000000000000000E+00   0.000000000000000E+00
   0.000000000000000E+00   0.000000000000000E+00   0.000000000000000E+00
   0.000000000000000E+00   0.000000000000000E+00   0.000000000000000E+00
   0.000000000000000E+00   0.000000000000000E+00   0.000000000000000E+00
   0.000000000000000E+00   0.000000000000000E+00   0.000000000000000E+00
   0.000000000000000E+00   0.000000000000000E+00   0.000000000000000E+00
   0.000000000000000E+00   0.000000000000000E+00   0.000000000000000E+00
   0.000000000000000E+00   0.000000000000000E+00   0.000000000000000E+00
   0.000000000000000E+00   0.000000000000000E+00   0.000000000000000E+00
   0.000000000000000E+00   0.000000000000000E+00   0.000000000000000E+00
   0.000000000000000E+00   0.000000000000000E+00   0.000000000000000E+00
   0.000000000000000E+00   0.000000000000000E+00   0.000000000000000E+00
   0.000000000000000E+00   0.000000000000000E+00   0.000000000000000E+00
   0.000000000000000E+00   0.000000000000000E+00   0.000000000000000E+00
   0.000000000000000E+00   0.000000000000000E+00   0.000000000000000E+00
   0.000000000000000E+00   0.000000000000000E+00   0.000000000000000E+00
    </PP_BETA.1>
    <PP_BETA.2 index="2" label="2S" angular_momentum="0" cutoff_radius_index="759" cutoff_radius="1.0000000000000000" ultrasoft_cutoff_radius="1.3000000000000000">
  -2.898612988150487E-03  -2.935073036034283E-03  -2.971991694285581E-03
  -3.009374731490475E-03  -3.044656544748212E-03  -3.082566388551616E-03
  -3.124781988063499E-03  -3.166296995912657E-03  -3.193468465600119E-03
  -3.237860366417655E-03  -3.287296270756121E-03  -3.329683057330252E-03
  -3.362670927967659E-03  -3.418053273285121E-03  -3.452913389687021E-03
  -3.485321763073951E-03  -3.547174878402268E-03  -3.574144849643704E-03
  -3.627910684409097E-03  -3.671429184127412E-03  -3.717243554927835E-03
  -3.765249516492042E-03  -3.814090701899475E-03  -3.861836813912112E-03
  -3.907961091474232E-03  -3.959259302058982E-03  -4.016624542494462E-03
  -4.066492342754136E-03  -4.112973927521302E-03  -4.173241243762310E-03
  -4.212968485002550E-03  -4.274782213422867E-03  -4.326600404281011E-03
  -4.388154257729426E-03  -4.430914592822938E-03  -4.486071838749078E-03
  -4.541757627635895E-03  -4.607286031563212E-03  -4.663548556464059E-03
  -4.716909836199795E-03  -4.780740119352228E-03  -4.837240137498311E-03
  -4.899314837653712E-03  -4.961028412036272E-03  -5.019526168841382E-03
  -5.086633157633857E-03  -5.158875247834593E-03  -5.212671101388566E-03
  -5.282379085897376E-03  -5.352949864818296E-03  -5.421933209690949E-03
  -5.482404553263986E-03  -5.555112959133607E-03  -5.620990210620846E-03
  -5.697655664327173E-03  -5.765642781075137E-03  -5.833976595616519E-03
  -5.912885929442474E-03  -5.978813951736051E-03  -6.066339571814711E-03
  -6.139191269401795E-03  -6.217626324838910E-03  -6.298685333549547E-03
  -6.369328514217121E-03  -6.447492274031547E-03  -6.531757591000997E-03
  -6.618999363040223E-03  -6.696219477791671E-03  -6.776902785414485E-03
  -6.868806804275374E-03  -6.949549607415395E-03  -7.038052553823004E-03
  -7.128091904650247E-03  -7.220917166210927E-03  -7.312057116023341E-03
  -7.403861744572970E-03  -7.495538754914322E-03  -7.589675648975003E-03
  -7.680744483289759E-03  -7.780706465192855E-03  -7.876866885783373E-03
  -7.982747199529905E-03  -8.084004580041604E-03  -8.176892665752444E-03
  -8.280863667625760E-03  -8.388686917049415E-03  -8.493165010147907E-03
  -8.595531920200516E-03  -8.706762860883566E-03  -8.819676373586605E-03
  -8.923619546197081E-03  -9.040673423072021E-03  -9.154884868126822E-03
  -9.270631304615473E-03  -9.385434647746604E-03  -9.501830589289162E-03
  -9.624976315551870E-03  -9.746187952936747E-03  -9.868300235375882E-03
  -9.991594268844328E-03  -1.011636485415662E-02  -1.024809541272448E-02
  -1.037286958523531E-02  -1.050286453987004E-02  -1.063325244610713E-02
  -1.077035163719681E-02  -1.090444726913348E-02  -1.104046133661762E-02
  -1.118177277832633E-02  -1.132186565069443E-02  -1.146337935456088E-02
  -1.161168525020012E-02  -1.175037311305954E-02  -1.190163825058355E-02
  -1.205101566689881E-02  -1.220293137917039E-02  -1.235587425287538E-02
  -1.251144776460211E-02  -1.267127691600800E-02  -1.282997644778971E-02
  -1.299158208323131E-02  -1.314980693006645E-02  -1.332069297339328E-02
  -1.348544466814117E-02  -1.365664583446558E-02  -1.383002025325492E-02
  -1.400160834515302E-02  -1.417695731889168E-02  -1.435448298507713E-02
  -1.453772402820597E-02  -1.472165299455097E-02  -1.490581644712119E-02
  -1.509387615985602E-02  -1.528510134948136E-02  -1.547383325245077E-02
  -1.566813360557040E-02  -1.586635830452376E-02  -1.606621069841963E-02
  -1.626853597128308E-02  -1.647387017149804E-02  -1.668026828966562E-02
  -1.688977636325728E-02  -1.710356376638866E-02  -1.731719189126890E-02
  -1.753696377431058E-02  -1.775366726670680E-02  -1.797961273905124E-02
  -1.820682987214983E-02  -1.843443948411794E-02  -1.866665760113784E-02
  -1.890373497813846E-02  -1.914094424685109E-02  -1.937967447593636E-02
  -1.962550398361229E-02  -1.987043605271654E-02  -2.012037785002441E-02
  -2.037158789131099E-02  -2.062844636763916E-02  -2.088888572395509E-02
  -2.115140129480386E-02  -2.141784389256196E-02  -2.168642711416724E-02
  -2.195885184806046E-02  -2.223599995658021E-02  -2.251776195351152E-02
  -2.279831067097648E-02  -2.308603514024032E-02  -2.337536741671786E-02
  -2.367098284408642E-02  -2.396876588951313E-02  -2.426913677000453E-02
  -2.457485475175192E-02  -2.488600378264716E-02  -2.519527857322212E-02
  -2.551402068991471E-02  -2.583493817232752E-02  -2.616158633565813E-02
  -2.648799098502930E-02  -2.682174831151862E-02  -2.715807271419790E-02
  -2.750148602718183E-02  -2.784617498409347E-02  -2.819552261317138E-02
  -2.855230137942233E-02  -2.891145105173432E-02  -2.927358447280803E-02
  -2.964455610272831E-02  -3.001642750259670E-02  -3.039285462034202E-02
  -3.077550508333315E-02  -3.116340750773361E-02  -3.155454584371498E-02
  -3.195253764579453E-02  -3.235345628833497E-02  -3.276202443823584E-02
  -3.317218475818584E-02  -3.358953073086224E-02  -3.401212411903232E-02
  -3.444026683601487E-02  -3.487375725092612E-02  -3.531189013458991E-02
  -3.575671368104616E-02  -3.620575897930278E-02  -3.666092343185023E-02
  -3.712219148062701E-02  -3.758908985842035E-02  -3.806197605992545E-02
  -3.854135898746902E-02  -3.902549037154301E-02  -3.951717460693471E-02
  -4.001430423030872E-02  -4.051654846337871E-02  -4.102666971288738E-02
  -4.154282091306460E-02  -4.206566112528809E-02  -4.259422054462814E-02
  -4.313022235358188E-02  -4.367243290986544E-02  -4.422217304802523E-02
  -4.477784148560704E-02  -4.534178021824786E-02  -4.591174655719410E-02
  -4.648933221141194E-02  -4.707373418246963E-02  -4.766570820615179E-02
  -4.826534019631468E-02  -4.887260745871802E-02  -4.948776339620320E-02
  -5.010950570759487E-02  -5.073994925130410E-02  -5.137821941085874E-02
  -5.202428342286858E-02  -5.267819938215301E-02  -5.334132766634792E-02
  -5.401274936731504E-02  -5.469182720204224E-02  -5.537992857437368E-02
  -5.607589805556823E-02  -5.678166705435594E-02  -5.749520995833568E-02
  -5.821881590664857E-02  -5.895083364049114E-02  -5.969258178771408E-02
  -6.044333633636034E-02  -6.120402556357440E-02  -6.197367852371238E-02
  -6.275289870350997E-02  -6.354272566729913E-02  -6.434196282705296E-02
  -6.515128593731401E-02  -6.597021795476987E-02  -6.680065728060613E-02
  -6.763979950141108E-02  -6.849121472608033E-02  -6.935174438750691E-02
  -7.022491210700066E-02  -7.110783860992509E-02  -7.200277880917927E-02
  -7.290820830253208E-02  -7.382468587085089E-02  -7.475386116926730E-02
  -7.569318415382797E-02  -7.664581829080630E-02  -7.760987320270774E-02
  -7.858618909074488E-02  -7.957419078162031E-02  -8.057555750716938E-02
  -8.158854564647999E-02  -8.261479897870805E-02  -8.365410025426900E-02
  -8.470586415589576E-02  -8.577167645540351E-02  -8.684985622851649E-02
  -8.794231510353434E-02  -8.904837684204514E-02  -9.016848049310822E-02
  -9.130231994095128E-02  -9.245059439260483E-02  -9.361362932404882E-02
  -9.479098742812075E-02  -9.598314946649245E-02  -9.719017302949950E-02
  -9.841265588598791E-02  -9.965002608457763E-02  -1.009038046347235E-01
  -1.021727317223240E-01  -1.034575495414538E-01  -1.047589155078081E-01
  -1.060765921291207E-01  -1.074104725742036E-01  -1.087614352806408E-01
  -1.101291280817343E-01  -1.115144574381088E-01  -1.129167070103319E-01
  -1.143367267445861E-01  -1.157745552321701E-01  -1.172303758907889E-01
  -1.187051628271414E-01  -1.201975895866854E-01  -1.217092534185475E-01
  -1.232401614422143E-01  -1.247899684592690E-01  -1.263592942827740E-01
  -1.279484761219907E-01  -1.295572859476160E-01  -1.311866119878244E-01
  -1.328362124228279E-01  -1.345070340319383E-01  -1.361981147906759E-01
  -1.379112003120877E-01  -1.396450322037355E-01  -1.414010180260661E-01
  -1.431794546944740E-01  -1.449799265012768E-01  -1.468031039692308E-01
  -1.486490231604769E-01  -1.505183193403692E-01  -1.524108493940304E-01
  -1.543275844247782E-01  -1.562679098522004E-01  -1.582331740434961E-01
  -1.602228246616031E-01  -1.622371823805038E-01  -1.642775571760557E-01
  -1.663431507140007E-01  -1.684346115365090E-01  -1.705525365192297E-01
  -1.726967333061902E-01  -1.748684843470176E-01  -1.770669283393236E-01
  -1.792931770973469E-01  -1.815475083758793E-01  -1.838300516247875E-01
  -1.861412517367489E-01  -1.884818524466221E-01  -1.908513254509323E-01
  -1.932509025120357E-01  -1.956804230570794E-01  -1.981405639897362E-01
  -2.006315099422622E-01  -2.031539427372895E-01  -2.057078698565418E-01
  -2.082939137622040E-01  -2.109123947650913E-01  -2.135636177938718E-01
  -2.162483787084497E-01  -2.189667361548979E-01  -2.217192470608937E-01
  -2.245064345852157E-01  -2.273283328108269E-01  -2.301858407553485E-01
  -2.330790910062177E-01  -2.360090460850106E-01  -2.389751519208598E-01
  -2.419789482474020E-01  -2.450202822255392E-01  -2.480998100495171E-01
  -2.512178966629364E-01  -2.543753017572090E-01  -2.575722641904203E-01
  -2.608091409478970E-01  -2.640868000115120E-01  -2.674054195431204E-01
  -2.707657227193483E-01  -2.741683826881918E-01  -2.776134476074503E-01
  -2.811019069547172E-01  -2.846338064769931E-01  -2.882103430927625E-01
  -2.918315744634601E-01  -2.954982618892963E-01  -2.992107614400474E-01
  -3.029700872138505E-01  -3.067760920907769E-01  -3.106302596642010E-01
  -3.145322703156772E-01  -3.184835253173492E-01  -3.224841838519676E-01
  -3.265348989279513E-01  -3.306363194834159E-01  -3.347892654832378E-01
  -3.389940779740819E-01  -3.432515957568594E-01  -3.475623554450706E-01
  -3.519271815303373E-01  -3.563465882893109E-01  -3.608212231202756E-01
  -3.653519974885633E-01  -3.699393771095494E-01  -3.745841854142675E-01
  -3.792870501096672E-01  -3.840487422614327E-01  -3.888700184549592E-01
  -3.937515276613475E-01  -3.986941358134590E-01  -4.036985597559397E-01
  -4.087653354707559E-01  -4.138955177832102E-01  -4.190898821055651E-01
  -4.243490841214257E-01  -4.296739961621672E-01  -4.350652321405057E-01
  -4.405239159573267E-01  -4.460507143959536E-01  -4.516464628358747E-01
  -4.573120919991034E-01  -4.630483152968523E-01  -4.688561510667739E-01
  -4.747363461747902E-01  -4.806898552896932E-01  -4.867175944310986E-01
  -4.928204830826317E-01  -4.989993691384811E-01  -5.052551369227167E-01
  -5.115888801123987E-01  -5.180015094223727E-01  -5.244937997172592E-01
  -5.310669617550907E-01  -5.377218692125929E-01  -5.444595989021863E-01
  -5.512809411117736E-01  -5.581871024144114E-01  -5.651790648571975E-01
  -5.722578881071776E-01  -5.794246266584615E-01  -5.866801969537718E-01
  -5.940260456726243E-01  -6.014626678069490E-01  -6.089916373964428E-01
  -6.166139371079602E-01  -6.243306727889255E-01  -6.321429603265436E-01
  -6.400519834325671E-01  -6.480588550845958E-01  -6.561647641670625E-01
  -6.643708192294682E-01  -6.726783563465659E-01  -6.810885724670506E-01
  -6.896025270412665E-01  -6.982215609102056E-01  -7.069470098825867E-01
  -7.157799162912042E-01  -7.247218064820906E-01  -7.337736006039499E-01
  -7.429369728371960E-01  -7.522131114495600E-01  -7.616032384295650E-01
  -7.711087653701547E-01  -7.807310078506760E-01  -7.904713591210175E-01
  -8.003312152342197E-01  -8.103118519274837E-01  -8.204148175025239E-01
  -8.306414915790903E-01  -8.409932014749550E-01  -8.514714814313820E-01
  -8.620777183152093E-01  -8.728134766488154E-01  -8.836800881231639E-01
  -8.946791494022719E-01  -9.058121794955305E-01  -9.170806230448001E-01
  -9.284860163477404E-01  -9.400299844502484E-01  -9.517140211934745E-01
  -9.635396604666653E-01  -9.755085594023427E-01  -9.876222953303682E-01
  -9.998823758441020E-01  -1.012290587814761E+00  -1.024848434932586E+00
  -1.037557537499595E+00  -1.050419674328424E+00  -1.063436366075862E+00
  -1.076609373178464E+00  -1.089940343767381E+00  -1.103431002536695E+00
  -1.117083093542604E+00  -1.130898211812436E+00  -1.144878186124473E+00
  -1.159024719526549E+00  -1.173339542596089E+00  -1.187824455776543E+00
  -1.202481145665423E+00  -1.217311443974054E+00  -1.232317148407340E+00
  -1.247500002582541E+00  -1.262861767303185E+00  -1.278404330686932E+00
  -1.294129396174931E+00  -1.310038872855259E+00  -1.326134488858294E+00
  -1.342418109159318E+00  -1.358891575884925E+00  -1.375556640041744E+00
  -1.392415195592640E+00  -1.409469059762351E+00  -1.426720032418046E+00
  -1.444169992242159E+00  -1.461820708124804E+00  -1.479674060121866E+00
  -1.497731843869268E+00  -1.515995864686531E+00  -1.534467954246537E+00
  -1.553149957688902E+00  -1.572043613341549E+00  -1.591150770118823E+00
  -1.610473197935008E+00  -1.630012617492682E+00  -1.649770899155143E+00
  -1.669749687976264E+00  -1.689950812942513E+00  -1.710375915648818E+00
  -1.731026739487255E+00  -1.751904971511529E+00  -1.773012259838858E+00
  -1.794350214825236E+00  -1.815920533545594E+00  -1.837724737746299E+00
  -1.859764448667690E+00  -1.882041141066779E+00  -1.904556336161519E+00
  -1.927311537927224E+00  -1.950308150812916E+00  -1.973547548538448E+00
  -1.997031090566210E+00  -2.020760093332029E+00  -2.044735838898390E+00
  -2.068959522989871E+00  -2.093432295688714E+00  -2.118155283893813E+00
  -2.143129542897839E+00  -2.168356039431259E+00  -2.193835725806650E+00
  -2.219569440874920E+00  -2.245558003827909E+00  -2.271802102199956E+00
  -2.298302407607451E+00  -2.325059447073556E+00  -2.352073702327615E+00
  -2.379345585283531E+00  -2.406875396108418E+00  -2.434663285342594E+00
  -2.462709369879420E+00  -2.491013668430170E+00  -2.519576018924099E+00
  -2.548396209738939E+00  -2.577473877958326E+00  -2.606808569174405E+00
  -2.636399668737155E+00  -2.666246401524688E+00  -2.696347925464480E+00
  -2.726703191009932E+00  -2.757311019329251E+00  -2.788170098783041E+00
  -2.819278891447951E+00  -2.850635751327005E+00  -2.882238829435437E+00
  -2.914086101787802E+00  -2.946175350001369E+00  -2.978504169391783E+00
  -3.011069973154946E+00  -3.043869893922732E+00  -3.076900960167393E+00
  -3.110159853005982E+00  -3.143643148966078E+00  -3.177347084417178E+00
  -3.211267700723212E+00  -3.245400797918620E+00  -3.279741895207451E+00
  -3.314286242717031E+00  -3.349028827134489E+00  -3.383964348361943E+00
  -3.419087227605118E+00  -3.454391557014219E+00  -3.489871165776933E+00
  -3.525519527368260E+00  -3.561329824931391E+00  -3.597294884314437E+00
  -3.633407211038786E+00  -3.669659006775362E+00  -3.706042004830579E+00
  -3.742547696599729E+00  -3.779167144145703E+00  -3.815891029226151E+00
  -3.852709707260857E+00  -3.889613082550568E+00  -3.926590682438018E+00
  -3.963631642310361E+00  -4.000724671879709E+00  -4.037858085079989E+00
  -4.075019765880370E+00  -4.112197145831004E+00  -4.149377283679229E+00
  -4.186546739169188E+00  -4.223691697447066E+00  -4.260797833727452E+00
  -4.297850444460664E+00  -4.334834359279427E+00  -4.371733922127930E+00
  -4.408533085105660E+00  -4.445215355761434E+00  -4.481763731895910E+00
  -4.518160833926231E+00  -4.554388820048985E+00  -4.590429425596085E+00
  -4.626263949897663E+00  -4.661873267121877E+00  -4.697237840197204E+00
  -4.732337748418814E+00  -4.767152650087041E+00  -4.801661865320369E+00
  -4.835844292190842E+00  -4.869678535267155E+00  -4.903142830258645E+00
  -4.936215110272713E+00  -4.968873022337789E+00  -5.001093925569563E+00
  -5.032854957078001E+00  -5.064133004206127E+00  -5.094904796994967E+00
  -5.125146862299516E+00  -5.154835618828116E+00  -5.183947392118853E+00
  -5.212458434887708E+00  -5.240344949453316E+00  -5.267583208163245E+00
  -5.294149481905635E+00  -5.320020155357582E+00  -5.345171758524629E+00
  -5.369580991896726E+00  -5.393224793430960E+00  -5.416080368873992E+00
  -5.438125225612339E+00  -5.459337264530177E+00  -5.479694802748469E+00
  -5.499176595019208E+00  -5.517761923653779E+00  -5.535430600930852E+00
  -5.552163059330752E+00  -5.567940344279265E+00  -5.582744190589949E+00
  -5.596557016466846E+00  -5.609361994605138E+00  -5.621143035069764E+00
  -5.631884834665499E+00  -5.641572867284054E+00  -5.650193389117277E+00
  -5.657733423741831E+00  -5.664180771289722E+00  -5.669523909686319E+00
  -5.673752039902752E+00  -5.676854937194861E+00  -5.678822933373880E+00
  -5.679646753151957E+00  -5.679317476662305E+00  -5.677826331108520E+00
  -5.675164533445781E+00  -5.671323129972848E+00  -5.666292726725175E+00
  -5.660063249352078E+00  -5.652623671079368E+00  -5.643961642785882E+00
  -5.634063172889540E+00  -5.622912177274628E+00  -5.610490043966763E+00
  -5.596775140442077E+00  -5.581742254763441E+00  -5.565361988839896E+00
  -5.547600116967800E+00  -5.528416890198855E+00  -5.507766226043231E+00
  -5.485594954324085E+00  -5.461841861008480E+00  -5.436436833764759E+00
  -5.409299761291351E+00  -5.380339593395604E+00  -5.349453133074519E+00
  -5.316523926113092E+00  -5.281421030916164E+00  -5.243997743746462E+00
  -5.204090344818923E+00  -5.161516716214493E+00  -5.116075024130794E+00
  -5.067542336675132E+00  -5.015673275321291E+00  -4.960198661014800E+00
  -4.900824204338164E+00  -4.837229239558752E+00  -4.769065571720972E+00
  -4.695956355306322E+00  -4.617495188254338E+00  -4.533245318742217E+00
  -4.442739061174763E+00  -4.345477485340396E+00  -4.240930345944705E+00
  -4.128536401492184E+00  -4.007704086786063E+00  -3.877812664888054E+00
  -3.738213880617863E+00  -3.588234210374196E+00  -3.427177780997638E+00
  -3.254330003268564E+00  -3.068962086630037E+00  -2.870336429764819E+00
  -2.657713054768365E+00  -2.430357178496735E+00  -2.187547965086353E+00
  -1.928588689707226E+00  -1.652818314296724E+00  -1.359624648337473E+00
  -1.048459244437282E+00  -7.188540755541624E-01  -3.704402078045561E-01
  -2.968528618247035E-03   3.836673313431973E-01   7.894057136354391E-01
   1.213989270567005E+00   1.656934705242080E+00   2.117499907281768E+00
   2.594648350021821E+00   3.087010690018261E+00   3.592843552322684E+00
   4.109985397240067E+00   4.635809579590777E+00   5.167174530744976E+00
   5.700371191954062E+00   6.231067809284870E+00   6.754252220530919E+00
   7.264171900781331E+00   7.754272005593116E+00   8.217131796541452E+00
   8.644399894007620E+00   9.026728859425718E+00   9.353709778956313E+00
   9.613774820531930E+00   9.794216013634776E+00   9.881433692146249E+00
   9.860971687560092E+00   9.717529868028082E+00   9.434986314880813E+00
   8.996430288110357E+00   8.384207788378669E+00   7.579975848597327E+00
   6.564817115042757E+00   5.318928473384282E+00   3.825622748440163E+00
   2.033618371709545E+00   2.247711662489055E-01  -2.290396086125755E-02
   1.532447585413604E-03  -1.003941244915242E-03  -8.607811898157158E-04
  -9.781059339693653E-04  -1.063657677661299E-03  -1.148415984852257E-03
  -1.227907260748036E-03  -1.303068232510008E-03  -1.373914392857159E-03
  -1.440552918659341E-03  -1.503084544620180E-03  -1.561609234266535E-03
  -1.616230317420895E-03  -1.667048383732113E-03  -1.714163859638713E-03
  -1.757678875335496E-03  -1.797690082506290E-03  -1.834298480534905E-03
  -1.867598463727356E-03  -1.897686995822152E-03  -1.924657081803740E-03
  -1.948600468033359E-03  -1.969608123017415E-03  -1.987767059214520E-03
  -2.003164552198812E-03  -2.015884512657135E-03  -2.026009209332307E-03
  -2.033619607611699E-03   0.000000000000000E+00   0.000000000000000E+00
   0.000000000000000E+00   0.000000000000000E+00   0.000000000000000E+00
   0.000000000000000E+00   0.000000000000000E+00   0.000000000000000E+00
   0.000000000000000E+00   0.000000000000000E+00   0.000000000000000E+00
   0.000000000000000E+00   0.000000000000000E+00   0.000000000000000E+00
   0.000000000000000E+00   0.000000000000000E+00   0.000000000000000E+00
   0.000000000000000E+00   0.000000000000000E+00   0.000000000000000E+00
   0.000000000000000E+00   0.000000000000000E+00   0.000000000000000E+00
   0.000000000000000E+00   0.000000000000000E+00   0.000000000000000E+00
   0.000000000000000E+00   0.000000000000000E+00   0.000000000000000E+00
   0.000000000000000E+00   0.000000000000000E+00   0.000000000000000E+00
   0.000000000000000E+00   0.000000000000000E+00   0.000000000000000E+00
   0.000000000000000E+00   0.000000000000000E+00   0.000000000000000E+00
   0.000000000000000E+00   0.000000000000000E+00   0.000000000000000E+00
   0.000000000000000E+00   0.000000000000000E+00   0.000000000000000E+00
   0.000000000000000E+00   0.000000000000000E+00   0.000000000000000E+00
   0.000000000000000E+00   0.000000000000000E+00   0.000000000000000E+00
   0.000000000000000E+00   0.000000000000000E+00   0.000000000000000E+00
   0.000000000000000E+00   0.000000000000000E+00   0.000000000000000E+00
   0.000000000000000E+00   0.000000000000000E+00   0.000000000000000E+00
   0.000000000000000E+00   0.000000000000000E+00   0.000000000000000E+00
   0.000000000000000E+00   0.000000000000000E+00   0.000000000000000E+00
   0.000000000000000E+00   0.000000000000000E+00   0.000000000000000E+00
   0.000000000000000E+00   0.000000000000000E+00   0.000000000000000E+00
   0.000000000000000E+00   0.000000000000000E+00   0.000000000000000E+00
   0.000000000000000E+00   0.000000000000000E+00   0.000000000000000E+00
   0.000000000000000E+00   0.000000000000000E+00   0.000000000000000E+00
   0.000000000000000E+00   0.000000000000000E+00   0.000000000000000E+00
   0.000000000000000E+00   0.000000000000000E+00   0.000000000000000E+00
   0.000000000000000E+00   0.000000000000000E+00   0.000000000000000E+00
   0.000000000000000E+00   0.000000000000000E+00   0.000000000000000E+00
   0.000000000000000E+00   0.000000000000000E+00   0.000000000000000E+00
   0.000000000000000E+00   0.000000000000000E+00   0.000000000000000E+00
   0.000000000000000E+00   0.000000000000000E+00   0.000000000000000E+00
   0.000000000000000E+00   0.000000000000000E+00   0.000000000000000E+00
   0.000000000000000E+00   0.000000000000000E+00   0.000000000000000E+00
   0.000000000000000E+00   0.000000000000000E+00   0.000000000000000E+00
   0.000000000000000E+00   0.000000000000000E+00   0.000000000000000E+00
   0.000000000000000E+00   0.000000000000000E+00   0.000000000000000E+00
   0.000000000000000E+00   0.000000000000000E+00   0.000000000000000E+00
   0.000000000000000E+00   0.000000000000000E+00   0.000000000000000E+00
   0.000000000000000E+00   0.000000000000000E+00   0.000000000000000E+00
   0.000000000000000E+00   0.000000000000000E+00   0.000000000000000E+00
   0.000000000000000E+00   0.000000000000000E+00   0.000000000000000E+00
   0.000000000000000E+00   0.000000000000000E+00   0.000000000000000E+00
   0.000000000000000E+00   0.000000000000000E+00   0.000000000000000E+00
   0.000000000000000E+00   0.000000000000000E+00   0.000000000000000E+00
   0.000000000000000E+00   0.000000000000000E+00   0.000000000000000E+00
   0.000000000000000E+00   0.000000000000000E+00   0.000000000000000E+00
   0.000000000000000E+00   0.000000000000000E+00   0.000000000000000E+00
   0.000000000000000E+00   0.000000000000000E+00   0.000000000000000E+00
   0.000000000000000E+00   0.000000000000000E+00   0.000000000000000E+00
   0.000000000000000E+00   0.000000000000000E+00   0.000000000000000E+00
   0.000000000000000E+00   0.000000000000000E+00   0.000000000000000E+00
   0.000000000000000E+00   0.000000000000000E+00   0.000000000000000E+00
   0.000000000000000E+00   0.000000000000000E+00   0.000000000000000E+00
   0.000000000000000E+00   0.000000000000000E+00   0.000000000000000E+00
   0.000000000000000E+00   0.000000000000000E+00   0.000000000000000E+00
   0.000000000000000E+00   0.000000000000000E+00   0.000000000000000E+00
   0.000000000000000E+00   0.000000000000000E+00   0.000000000000000E+00
   0.000000000000000E+00   0.000000000000000E+00   0.000000000000000E+00
   0.000000000000000E+00   0.000000000000000E+00   0.000000000000000E+00
   0.000000000000000E+00   0.000000000000000E+00   0.000000000000000E+00
   0.000000000000000E+00   0.000000000000000E+00   0.000000000000000E+00
   0.000000000000000E+00   0.000000000000000E+00   0.000000000000000E+00
   0.000000000000000E+00   0.000000000000000E+00   0.000000000000000E+00
   0.000000000000000E+00   0.000000000000000E+00   0.000000000000000E+00
   0.000000000000000E+00   0.000000000000000E+00   0.000000000000000E+00
   0.000000000000000E+00   0.000000000000000E+00   0.000000000000000E+00
   0.000000000000000E+00   0.000000000000000E+00   0.000000000000000E+00
   0.000000000000000E+00   0.000000000000000E+00   0.000000000000000E+00
   0.000000000000000E+00   0.000000000000000E+00   0.000000000000000E+00
   0.000000000000000E+00   0.000000000000000E+00   0.000000000000000E+00
   0.000000000000000E+00   0.000000000000000E+00   0.000000000000000E+00
   0.000000000000000E+00   0.000000000000000E+00   0.000000000000000E+00
   0.000000000000000E+00   0.000000000000000E+00   0.000000000000000E+00
   0.000000000000000E+00   0.000000000000000E+00   0.000000000000000E+00
   0.000000000000000E+00   0.000000000000000E+00   0.000000000000000E+00
   0.000000000000000E+00   0.000000000000000E+00   0.000000000000000E+00
   0.000000000000000E+00   0.000000000000000E+00   0.000000000000000E+00
   0.000000000000000E+00   0.000000000000000E+00   0.000000000000000E+00
   0.000000000000000E+00   0.000000000000000E+00   0.000000000000000E+00
   0.000000000000000E+00   0.000000000000000E+00   0.000000000000000E+00
   0.000000000000000E+00   0.000000000000000E+00   0.000000000000000E+00
   0.000000000000000E+00   0.000000000000000E+00   0.000000000000000E+00
   0.000000000000000E+00   0.000000000000000E+00   0.000000000000000E+00
   0.000000000000000E+00   0.000000000000000E+00   0.000000000000000E+00
   0.000000000000000E+00   0.000000000000000E+00   0.000000000000000E+00
   0.000000000000000E+00   0.000000000000000E+00   0.000000000000000E+00
   0.000000000000000E+00   0.000000000000000E+00   0.000000000000000E+00
   0.000000000000000E+00   0.000000000000000E+00   0.000000000000000E+00
   0.000000000000000E+00   0.000000000000000E+00   0.000000000000000E+00
   0.000000000000000E+00   0.000000000000000E+00   0.000000000000000E+00
   0.000000000000000E+00   0.000000000000000E+00   0.000000000000000E+00
   0.000000000000000E+00   0.000000000000000E+00   0.000000000000000E+00
   0.000000000000000E+00   0.000000000000000E+00   0.000000000000000E+00
   0.000000000000000E+00   0.000000000000000E+00   0.000000000000000E+00
   0.000000000000000E+00   0.000000000000000E+00   0.000000000000000E+00
   0.000000000000000E+00   0.000000000000000E+00   0.000000000000000E+00
   0.000000000000000E+00   0.000000000000000E+00   0.000000000000000E+00
   0.000000000000000E+00   0.000000000000000E+00   0.000000000000000E+00
   0.000000000000000E+00   0.000000000000000E+00   0.000000000000000E+00
   0.000000000000000E+00   0.000000000000000E+00   0.000000000000000E+00
   0.000000000000000E+00   0.000000000000000E+00   0.000000000000000E+00
   0.000000000000000E+00   0.000000000000000E+00   0.000000000000000E+00
   0.000000000000000E+00   0.000000000000000E+00   0.000000000000000E+00
    </PP_BETA.2>
    <PP_BETA.3 index="3" label="2P" angular_momentum="1" cutoff_radius_index="761" cutoff_radius="0.90000000000000002" ultrasoft_cutoff_radius="1.3500000000000001">
  -4.598571442768283E-05  -4.714984833263726E-05  -4.834345242779627E-05
  -4.956727275458160E-05  -5.082207424054392E-05  -5.210864117746687E-05
  -5.342777771157598E-05  -5.478030834615518E-05  -5.616707845688897E-05
  -5.758895482024944E-05  -5.904682615526005E-05  -6.054160367897367E-05
  -6.207422167601279E-05  -6.364563808252852E-05  -6.525683508494144E-05
  -6.690881973384018E-05  -6.860262457342056E-05  -7.033930828686006E-05
  -7.211995635802830E-05  -7.394568174995137E-05  -7.581762560044834E-05
  -7.773695793538034E-05  -7.970487839995493E-05  -8.172261700854338E-05
  -8.379143491347985E-05  -8.591262519332224E-05  -8.808751366106885E-05
  -9.031745969283466E-05  -9.260385707750540E-05  -9.494813488790220E-05
  -9.735175837399682E-05  -9.981622987874188E-05  -1.023430897770843E-04
  -1.049339174387488E-04  -1.075903322153974E-04  -1.103139944527742E-04
  -1.131066065284787E-04  -1.159699139160048E-04  -1.189057062757196E-04
  -1.219158185734608E-04  -1.250021322274472E-04  -1.281665762842296E-04
  -1.314111286244057E-04  -1.347378171988605E-04  -1.381487212963026E-04
  -1.416459728428868E-04  -1.452317577347368E-04  -1.489083172042030E-04
  -1.526779492207041E-04  -1.565430099270361E-04  -1.605059151120340E-04
  -1.645691417205224E-04  -1.687352294014847E-04  -1.730067820954279E-04
  -1.773864696619301E-04  -1.818770295483884E-04  -1.864812685010152E-04
  -1.912020643191448E-04  -1.960423676539519E-04  -2.010052038527065E-04
  -2.060936748497117E-04  -2.113109611051166E-04  -2.166603235928077E-04
  -2.221451058386219E-04  -2.277687360101614E-04  -2.335347290595101E-04
  -2.394466889201924E-04  -2.455083107597508E-04  -2.517233832893446E-04
  -2.580957911318209E-04  -2.646295172497282E-04  -2.713286454347991E-04
  -2.781973628604544E-04  -2.852399626989209E-04  -2.924608468046091E-04
  -2.998645284654111E-04  -3.074556352236550E-04  -3.152389117684719E-04
  -3.232192229013786E-04  -3.314015565769415E-04  -3.397910270204079E-04
  -3.483928779242649E-04  -3.572124857257207E-04  -3.662553629671529E-04
  -3.755271617416265E-04  -3.850336772256383E-04  -3.947808513012927E-04
  -4.047747762701704E-04  -4.150216986612181E-04  -4.255280231350365E-04
  -4.363003164869952E-04  -4.473453117517030E-04  -4.586699124113701E-04
  -4.702811967107127E-04  -4.821864220810900E-04  -4.943930296766332E-04
  -5.069086490252115E-04  -5.197411027971399E-04  -5.328984116946007E-04
  -5.463887994648525E-04  -5.602206980403332E-04  -5.744027528089006E-04
  -5.889438280174820E-04  -6.038530123125192E-04  -6.191396244206752E-04
  -6.348132189733366E-04  -6.508835924785793E-04  -6.673607894443034E-04
  -6.842551086563859E-04  -7.015771096157571E-04  -7.193376191384354E-04
  -7.375477381226462E-04  -7.562188484872483E-04  -7.753626202858027E-04
  -7.949910190007525E-04  -8.151163130222312E-04  -8.357510813162181E-04
  -8.569082212867996E-04  -8.786009568374819E-04  -9.008428466365632E-04
  -9.236477925917428E-04  -9.470300485392795E-04  -9.710042291531072E-04
  -9.955853190794905E-04  -1.020788682302921E-03  -1.046630071749118E-03
  -1.073125639131127E-03  -1.100291945044674E-03  -1.128145969319087E-03
  -1.156705121630255E-03  -1.185987252382246E-03  -1.216010663864401E-03
  -1.246794121690879E-03  -1.278356866529777E-03  -1.310718626129206E-03
  -1.343899627647762E-03  -1.377920610297192E-03  -1.412802838305083E-03
  -1.448568114205712E-03  -1.485238792467358E-03  -1.522837793464586E-03
  -1.561388617804241E-03  -1.600915361014123E-03  -1.641442728603478E-03
  -1.682996051504784E-03  -1.725601301906417E-03  -1.769285109486136E-03
  -1.814074778055530E-03  -1.859998302625807E-03  -1.907084386905621E-03
  -1.955362461241839E-03  -2.004862701014508E-03  -2.055616045497470E-03
  -2.107654217196444E-03  -2.161009741676682E-03  -2.215715967892508E-03
  -2.271807089031554E-03  -2.329318163886653E-03  -2.388285138768771E-03
  -2.448744869974656E-03  -2.510735146823265E-03  -2.574294715275382E-03
  -2.626310250301127E-03  -2.693466160171696E-03  -2.761418432263067E-03
  -2.832138129830412E-03  -2.903966889361917E-03  -2.977808243205222E-03
  -3.065814032523049E-03  -3.143598669591623E-03  -3.223201010409975E-03
  -3.304626969456098E-03  -3.388473187275825E-03  -3.474176664373281E-03
  -3.562302069740651E-03  -3.652379311843456E-03  -3.744897131693179E-03
  -3.839594773279227E-03  -3.936823831645158E-03  -4.036438995655547E-03
  -4.138824099946436E-03  -4.243443819884236E-03  -4.350833894233443E-03
  -4.461221219812156E-03  -4.574249202196911E-03  -4.689942416652347E-03
  -4.808614087251764E-03  -4.930543205994023E-03  -5.055122849500604E-03
  -5.183390298592844E-03  -5.314488778554786E-03  -5.449062663425461E-03
  -5.586993088665160E-03  -5.728415565002459E-03  -5.873334172782546E-03
  -6.022172815731260E-03  -6.174846113555923E-03  -6.330856475661516E-03
  -6.491454242295386E-03  -6.655610233939745E-03  -6.824189745535277E-03
  -6.996739164074041E-03  -7.174118471792425E-03  -7.355647497991349E-03
  -7.541927090261216E-03  -7.732922585057159E-03  -7.928689133586256E-03
  -8.129270232086754E-03  -8.335109553339895E-03  -8.546244427863427E-03
  -8.762586317480149E-03  -8.984349478703232E-03  -9.211897378761894E-03
  -9.444983940979715E-03  -9.684264309617878E-03  -9.929424435839600E-03
  -1.018074240370396E-02  -1.043838147089892E-02  -1.070281617902855E-02
  -1.097363297998056E-02  -1.125149413554900E-02  -1.153637513354033E-02
  -1.182829675686667E-02  -1.212785527813728E-02  -1.243487226068982E-02
  -1.274955945389777E-02  -1.307253526286777E-02  -1.340349540353730E-02
  -1.374260488323746E-02  -1.409079192635104E-02  -1.444718895327389E-02
  -1.481312107075173E-02  -1.518815169417925E-02  -1.557260221396722E-02
  -1.596675447948800E-02  -1.637110796992117E-02  -1.678549548247342E-02
  -1.721060441774497E-02  -1.764600564957951E-02  -1.809284161301979E-02
  -1.855085717811826E-02  -1.902054377356281E-02  -1.950224213569041E-02
  -1.999568234907108E-02  -2.050182362684094E-02  -2.102102021838169E-02
  -2.155307649929664E-02  -2.209878871416295E-02  -2.265822465036431E-02
  -2.323184768497233E-02  -2.381990642307029E-02  -2.442282925041743E-02
  -2.504121817524979E-02  -2.567503908033798E-02  -2.632494330190224E-02
  -2.699158891760854E-02  -2.767481993306070E-02  -2.837531156050961E-02
  -2.909368549506927E-02  -2.983031560677184E-02  -3.058555577720903E-02
  -3.135950970877494E-02  -3.215369534812298E-02  -3.296745759003142E-02
  -3.380208974063417E-02  -3.465775803308166E-02  -3.553510265780183E-02
  -3.643451420976604E-02  -3.735692568871177E-02  -3.830264424707722E-02
  -3.927213321820072E-02  -4.026635517550170E-02  -4.128571794462638E-02
  -4.233095731722078E-02  -4.340249118122902E-02  -4.450113239538581E-02
  -4.562767247164015E-02  -4.678264811975380E-02  -4.796685899179018E-02
  -4.918133514092515E-02  -5.042621575924933E-02  -5.170258631223262E-02
  -5.301144135640462E-02  -5.435363109231117E-02  -5.572926737493980E-02
  -5.714020195514508E-02  -5.858644296227752E-02  -6.006951824134751E-02
  -6.159012396113467E-02  -6.314926710069801E-02  -6.474783462576045E-02
  -6.638689454172103E-02  -6.806728048588884E-02  -6.979034239355336E-02
  -7.155702250669971E-02  -7.336830985145509E-02  -7.522568087535481E-02
  -7.712979651546675E-02  -7.908225793444745E-02  -8.108402243712426E-02
  -8.313662030714342E-02  -8.524092516649517E-02  -8.739881294711521E-02
  -8.961085481402137E-02  -9.187933691980094E-02  -9.420495526887712E-02
  -9.658965912583645E-02  -9.903460474342773E-02  -1.015415470161344E-01
  -1.041116327322266E-01  -1.067469660527763E-01  -1.094494098473213E-01
  -1.122195105050008E-01  -1.150600325768933E-01  -1.179725949030771E-01
  -1.209585984534338E-01  -1.240205155636629E-01  -1.271595459858049E-01
  -1.303784858104998E-01  -1.336784262986536E-01  -1.370618939282797E-01
  -1.405312582455576E-01  -1.440882982904735E-01  -1.477354143483014E-01
  -1.514747704487637E-01  -1.553087996841932E-01  -1.592399004276309E-01
  -1.632703890199227E-01  -1.674030409267051E-01  -1.716399531095617E-01
  -1.759845407017128E-01  -1.804385849729300E-01  -1.850057652583673E-01
  -1.896883170960377E-01  -1.944891890662003E-01  -1.994117926913059E-01
  -2.044590465767273E-01  -2.096338355442950E-01  -2.149394642396458E-01
  -2.203797213355670E-01  -2.259573832152915E-01  -2.316763389497339E-01
  -2.375395487965901E-01  -2.435514848724337E-01  -2.497156903154836E-01
  -2.560356701752335E-01  -2.625154194253523E-01  -2.691592460587489E-01
  -2.759714019603272E-01  -2.829554533722130E-01  -2.901164810687153E-01
  -2.974585252650825E-01  -3.049866754056190E-01  -3.127049459548206E-01
  -3.206186779464610E-01  -3.287323231590529E-01  -3.370516600290523E-01
  -3.455813144993944E-01  -3.543264845654124E-01  -3.632927047798895E-01
  -3.724894066346784E-01  -3.819067586111164E-01  -3.915820818500084E-01
  -4.014777026608314E-01  -4.116501653881828E-01  -4.220608533190429E-01
  -4.327432254453236E-01  -4.436961071279457E-01  -4.549144931536679E-01
  -4.664263658453576E-01  -4.782367871749518E-01  -4.903276009143254E-01
  -5.027433151112395E-01  -5.154534966332047E-01  -5.285077171404642E-01
  -5.418683557998811E-01  -5.555761780395674E-01  -5.696538811746339E-01
  -5.840424306782088E-01  -5.988379327369264E-01  -6.139672108277181E-01
  -6.295169984781195E-01  -6.454376927836596E-01  -6.617579400640468E-01
  -6.785198334163662E-01  -6.956600606067886E-01  -7.132853557223711E-01
  -7.312903025722983E-01  -7.498304594994543E-01  -7.687773912595617E-01
  -7.882227133167405E-01  -8.081678516283692E-01  -8.286022138429807E-01
  -8.495631331626239E-01  -8.710575782234034E-01  -8.930840037893666E-01
  -9.156627869540892E-01  -9.388368528947009E-01  -9.625738055583648E-01
  -9.869163898247448E-01  -1.011872477537612E+00  -1.037469805783083E+00
  -1.063693383311057E+00  -1.090604136754758E+00  -1.118176989715043E+00
  -1.146449864567132E+00  -1.175435242927891E+00  -1.205165793740733E+00
  -1.235628363795286E+00  -1.266867630592247E+00  -1.298908544708063E+00
  -1.331728700623991E+00  -1.365406156622646E+00  -1.399925266863827E+00
  -1.435316525059230E+00  -1.471584065454838E+00  -1.508789151556992E+00
  -1.546925626851624E+00  -1.586024235688156E+00  -1.626097764146131E+00
  -1.667216867408013E+00  -1.709333872840150E+00  -1.752531950876927E+00
  -1.796812173896209E+00  -1.842232664618081E+00  -1.888761633534962E+00
  -1.936493677108755E+00  -1.985434473980970E+00  -2.035543709423481E+00
  -2.087004400445936E+00  -2.139735301571138E+00  -2.193748254895178E+00
  -2.249178059989239E+00  -2.305988075967338E+00  -2.364198447321034E+00
  -2.423932900565504E+00  -2.485128202956416E+00  -2.547891837079929E+00
  -2.612204754250948E+00  -2.678166838128764E+00  -2.745770810112523E+00
  -2.815087318171786E+00  -2.886151778427335E+00  -2.958991832606207E+00
  -3.033651592229766E+00  -3.110248650293549E+00  -3.188699199371570E+00
  -3.269165345847759E+00  -3.351653163174040E+00  -3.436204571174956E+00
  -3.522878738456603E+00  -3.611743206142339E+00  -3.702825364657732E+00
  -3.796213720264658E+00  -3.891935160878718E+00  -3.990066641657265E+00
  -4.090657656573338E+00  -4.193778906315433E+00  -4.299473400071630E+00
  -4.407849264100637E+00  -4.518921780412178E+00  -4.632771609106204E+00
  -4.749505270210296E+00  -4.869140979375153E+00  -4.991792320490852E+00
  -5.117494239017557E+00  -5.246370737962401E+00  -5.378457830818473E+00
  -5.513856208349246E+00  -5.652644694831533E+00  -5.794910562108935E+00
  -5.940715994156804E+00  -6.090192209572400E+00  -6.243398298477260E+00
  -6.400412901583053E+00  -6.561382568964373E+00  -6.726338007572906E+00
  -6.895446655569980E+00  -7.068748299380310E+00  -7.246380079029546E+00
  -7.428454266911494E+00  -7.615047712828375E+00  -7.806303678663273E+00
  -8.002318613115488E+00  -8.203220105221938E+00  -8.409106539926974E+00
  -8.620132476040190E+00  -8.836391283165604E+00  -9.058034287886827E+00
  -9.285174901375683E+00  -9.517961759463574E+00  -9.756522579788104E+00
  -1.000100150804202E+01  -1.025153858306005E+01  -1.050828658141644E+01
  -1.077139108885011E+01  -1.104100733483678E+01  -1.131728776481042E+01
  -1.160040636215238E+01  -1.189051505246322E+01  -1.218778074326574E+01
  -1.249238965934635E+01  -1.280450106635141E+01  -1.312430860695087E+01
  -1.345198974496450E+01  -1.378772685409297E+01  -1.413172415853673E+01
  -1.448416893413132E+01  -1.484526832763513E+01  -1.521521929363681E+01
  -1.559424364090373E+01  -1.598254055972987E+01  -1.638034475223596E+01
  -1.678786591111731E+01  -1.720534472380395E+01  -1.763300187053366E+01
  -1.807108930592804E+01  -1.851983575854491E+01  -1.897950511863142E+01
  -1.945033979466753E+01  -1.993259758331338E+01  -2.042655941980627E+01
  -2.093246931724788E+01  -2.145062530142010E+01  -2.198129696486237E+01
  -2.252477083505323E+01  -2.308134323817534E+01  -2.365130823995639E+01
  -2.423497321166444E+01  -2.483264260535240E+01  -2.544464034139639E+01
  -2.607127699984180E+01  -2.671289176912941E+01  -2.736980810132594E+01
  -2.804237412545359E+01  -2.873093170675341E+01  -2.943583485378244E+01
  -3.015744194993643E+01  -3.089611566407012E+01  -3.165223321383729E+01
  -3.242616713531902E+01  -3.321830277978844E+01  -3.402903182870524E+01
  -3.485874972667770E+01  -3.570786271606329E+01  -3.657677341008591E+01
  -3.746590622823103E+01  -3.837567574177589E+01  -3.930651420027010E+01
  -4.025885658719196E+01  -4.123313907759302E+01  -4.222981104300345E+01
  -4.324932522753016E+01  -4.429213736936816E+01  -4.535871199304867E+01
  -4.644951715675052E+01  -4.756502878324252E+01  -4.870572364893411E+01
  -4.987208850066909E+01  -5.106460851773397E+01  -5.228378061366411E+01
  -5.353010009901172E+01  -5.480406670509183E+01  -5.610618780327957E+01
  -5.743696770780480E+01  -5.879692012470773E+01  -6.018655480418624E+01
  -6.160638664528412E+01  -6.305693307161394E+01  -6.453870837366307E+01
  -6.605223150557492E+01  -6.759801784614120E+01  -6.917658208937561E+01
  -7.078844079533516E+01  -7.243410232170510E+01  -7.411407714320066E+01
  -7.582886770535154E+01  -7.757897463707738E+01  -7.936489067336800E+01
  -8.118710146752161E+01  -8.304608662754498E+01  -8.494231405540236E+01
  -8.687624310545272E+01  -8.884832128446135E+01  -9.085898116081268E+01
  -9.290864438034959E+01  -9.499771218841801E+01  -9.712657138861516E+01
  -9.929558886828886E+01  -1.015051090349385E+02  -1.037554540354902E+02
  -1.060469218807734E+02  -1.083797804340986E+02  -1.107542723631270E+02
  -1.131706040247158E+02  -1.156289504179714E+02  -1.181294496281366E+02
  -1.206721973665085E+02  -1.232572512008965E+02  -1.258846184959975E+02
  -1.285542613467531E+02  -1.312660892825201E+02  -1.340199548344285E+02
  -1.368156533048559E+02  -1.396529159278670E+02  -1.425314073606246E+02
  -1.454507230592334E+02  -1.484103799104690E+02  -1.514098181511467E+02
  -1.544483919624798E+02  -1.575253665199524E+02  -1.606399130158565E+02
  -1.637911018524798E+02  -1.669779001202657E+02  -1.701991619848337E+02
  -1.734536261863389E+02  -1.767399083347021E+02  -1.800564943894389E+02
  -1.834017346492476E+02  -1.867738372829492E+02  -1.901708607592107E+02
  -1.935907059867872E+02  -1.970311113826942E+02  -2.004896424908576E+02
  -2.039636852400798E+02  -2.074504389857364E+02  -2.109469064340637E+02
  -2.144498873766860E+02  -2.179559677267250E+02  -2.214615133781658E+02
  -2.249626597330359E+02  -2.284553038077997E+02  -2.319350937435267E+02
  -2.353974227057932E+02  -2.388374163154242E+02  -2.422499263323226E+02
  -2.456295197760318E+02  -2.489704719136371E+02  -2.522667555018226E+02
  -2.555120333315238E+02  -2.586996499835431E+02  -2.618226227964053E+02
  -2.648736349542316E+02  -2.678450280128621E+02  -2.707287951859261E+02
  -2.735165747998487E+02  -2.761996453759550E+02  -2.787689212410060E+02
  -2.812149470554912E+02  -2.835278985225625E+02  -2.856975769420392E+02
  -2.877134124631665E+02  -2.895644631421092E+02  -2.912394185497950E+02
  -2.927266058953064E+02  -2.940139943948440E+02  -2.950892063350084E+02
  -2.959395272607844E+02  -2.965519203241163E+02  -2.969130440711347E+02
  -2.970092704422827E+02  -2.968267106246449E+02  -2.963512401742469E+02
  -2.955685309548721E+02  -2.944640864697851E+02  -2.930232816120706E+02
  -2.912314061952397E+02  -2.890737172844015E+02  -2.865354918701373E+02
  -2.836020897945295E+02  -2.802590208871093E+02  -2.764920182698702E+02
  -2.722871208001729E+02  -2.676307588055329E+02  -2.625098518620121E+02
  -2.569119108575351E+02  -2.508251504190125E+02  -2.442386074492720E+02
  -2.371422719280654E+02  -2.295272209968134E+02  -2.213857686723686E+02
  -2.127116172456535E+02  -2.035000248963661E+02  -1.937479757661149E+02
  -1.834543632124014E+02  -1.726201795051275E+02  -1.612487134772455E+02
  -1.493457573789183E+02  -1.369198171925063E+02  -1.239823328100356E+02
  -1.105478995841277E+02  -9.663449628393209E+01  -8.226371213411494E+01
  -6.746097724193078E+01  -5.225578837631110E+01  -3.668193228779819E+01
  -2.077770164265166E+01  -4.586101256442817E+00   1.184496022101939E+01
   2.846249390167668E+01   4.520827811631261E+01   6.201872958709191E+01
   7.882480863860019E+01   9.555195890541836E+01   1.121200938985921E+02
   1.284436297114444E+02   1.444315786993457E+02   1.599877058073516E+02
   1.750107606748579E+02   1.893947895239435E+02   2.030295419603171E+02
   2.158009772423766E+02   2.275918829371567E+02   2.382826170849739E+02
   2.477519822967715E+02   2.558782471045843E+02   2.625403207801864E+02
   2.676190980880483E+02   2.709989815200997E+02   2.725695947167969E+02
   2.722276955111420E+02   2.698793002510220E+02   2.654420286095055E+02
   2.588476755133297E+02   2.500450187171155E+02   2.390028655319456E+02
   2.257133445947211E+02   2.101954388109798E+02   1.924987633301162E+02
   1.727075779754387E+02   1.509450301188645E+02   1.273776109942387E+02
   1.022198113876730E+02   7.573895180130376E+01   4.826015987687379E+01
   2.017237904361127E+01  -8.068769542989230E+00  -3.594454394600757E+01
  -6.287065073015697E+01  -8.819418000419068E+01  -1.111908570993705E+02
  -1.310626953974232E+02  -1.469361477304001E+02  -1.578608576330070E+02
  -1.628091405695279E+02  -1.606761709422256E+02  -1.502824569819585E+02
  -1.303646449912463E+02  -9.969181676532909E+01  -5.597631683883176E+01
  -6.511251931509792E+00   6.501347846195127E-01  -5.875326689769381E-02
   1.259194214096587E-02   6.525513988002496E-03   8.079433507716727E-03
   8.824295608905991E-03   9.601639614140275E-03   1.028722734789078E-02
   1.099951509463226E-02   1.163111043861062E-02   1.222495963948105E-02
   1.277830768054405E-02   1.329282316031893E-02   1.376972209439901E-02
   1.421038342477282E-02   1.461600653709942E-02   1.498786768649669E-02
   1.532715570643649E-02   1.563509307715611E-02   1.591285082206957E-02
   1.616153648569110E-02   1.638228677249105E-02   1.657614927293126E-02
   1.674420414976674E-02   1.688743329099601E-02   1.700680151631685E-02
   1.710326784104212E-02   1.717768694651339E-02   1.723093599430152E-02
   0.000000000000000E+00   0.000000000000000E+00   0.000000000000000E+00
   0.000000000000000E+00   0.000000000000000E+00   0.000000000000000E+00
   0.000000000000000E+00   0.000000000000000E+00   0.000000000000000E+00
   0.000000000000000E+00   0.000000000000000E+00   0.000000000000000E+00
   0.000000000000000E+00   0.000000000000000E+00   0.000000000000000E+00
   0.000000000000000E+00   0.000000000000000E+00   0.000000000000000E+00
   0.000000000000000E+00   0.000000000000000E+00   0.000000000000000E+00
   0.000000000000000E+00   0.000000000000000E+00   0.000000000000000E+00
   0.000000000000000E+00   0.000000000000000E+00   0.000000000000000E+00
   0.000000000000000E+00   0.000000000000000E+00   0.000000000000000E+00
   0.000000000000000E+00   0.000000000000000E+00   0.000000000000000E+00
   0.000000000000000E+00   0.000000000000000E+00   0.000000000000000E+00
   0.000000000000000E+00   0.000000000000000E+00   0.000000000000000E+00
   0.000000000000000E+00   0.000000000000000E+00   0.000000000000000E+00
   0.000000000000000E+00   0.000000000000000E+00   0.000000000000000E+00
   0.000000000000000E+00   0.000000000000000E+00   0.000000000000000E+00
   0.000000000000000E+00   0.000000000000000E+00   0.000000000000000E+00
   0.000000000000000E+00   0.000000000000000E+00   0.000000000000000E+00
   0.000000000000000E+00   0.000000000000000E+00   0.000000000000000E+00
   0.000000000000000E+00   0.000000000000000E+00   0.000000000000000E+00
   0.000000000000000E+00   0.000000000000000E+00   0.000000000000000E+00
   0.000000000000000E+00   0.000000000000000E+00   0.000000000000000E+00
   0.000000000000000E+00   0.000000000000000E+00   0.000000000000000E+00
   0.000000000000000E+00   0.000000000000000E+00   0.000000000000000E+00
   0.000000000000000E+00   0.000000000000000E+00   0.000000000000000E+00
   0.000000000000000E+00   0.000000000000000E+00   0.000000000000000E+00
   0.000000000000000E+00   0.000000000000000E+00   0.000000000000000E+00
   0.000000000000000E+00   0.000000000000000E+00   0.000000000000000E+00
   0.000000000000000E+00   0.000000000000000E+00   0.000000000000000E+00
   0.000000000000000E+00   0.000000000000000E+00   0.000000000000000E+00
   0.000000000000000E+00   0.000000000000000E+00   0.000000000000000E+00
   0.000000000000000E+00   0.000000000000000E+00   0.000000000000000E+00
   0.000000000000000E+00   0.000000000000000E+00   0.000000000000000E+00
   0.000000000000000E+00   0.000000000000000E+00   0.000000000000000E+00
   0.000000000000000E+00   0.000000000000000E+00   0.000000000000000E+00
   0.000000000000000E+00   0.000000000000000E+00   0.000000000000000E+00
   0.000000000000000E+00   0.000000000000000E+00   0.000000000000000E+00
   0.000000000000000E+00   0.000000000000000E+00   0.000000000000000E+00
   0.000000000000000E+00   0.000000000000000E+00   0.000000000000000E+00
   0.000000000000000E+00   0.000000000000000E+00   0.000000000000000E+00
   0.000000000000000E+00   0.000000000000000E+00   0.000000000000000E+00
   0.000000000000000E+00   0.000000000000000E+00   0.000000000000000E+00
   0.000000000000000E+00   0.000000000000000E+00   0.000000000000000E+00
   0.000000000000000E+00   0.000000000000000E+00   0.000000000000000E+00
   0.000000000000000E+00   0.000000000000000E+00   0.000000000000000E+00
   0.000000000000000E+00   0.000000000000000E+00   0.000000000000000E+00
   0.000000000000000E+00   0.000000000000000E+00   0.000000000000000E+00
   0.000000000000000E+00   0.000000000000000E+00   0.000000000000000E+00
   0.000000000000000E+00   0.000000000000000E+00   0.000000000000000E+00
   0.000000000000000E+00   0.000000000000000E+00   0.000000000000000E+00
   0.000000000000000E+00   0.000000000000000E+00   0.000000000000000E+00
   0.000000000000000E+00   0.000000000000000E+00   0.000000000000000E+00
   0.000000000000000E+00   0.000000000000000E+00   0.000000000000000E+00
   0.000000000000000E+00   0.000000000000000E+00   0.000000000000000E+00
   0.000000000000000E+00   0.000000000000000E+00   0.000000000000000E+00
   0.000000000000000E+00   0.000000000000000E+00   0.000000000000000E+00
   0.000000000000000E+00   0.000000000000000E+00   0.000000000000000E+00
   0.000000000000000E+00   0.000000000000000E+00   0.000000000000000E+00
   0.000000000000000E+00   0.000000000000000E+00   0.000000000000000E+00
   0.000000000000000E+00   0.000000000000000E+00   0.000000000000000E+00
   0.000000000000000E+00   0.000000000000000E+00   0.000000000000000E+00
   0.000000000000000E+00   0.000000000000000E+00   0.000000000000000E+00
   0.000000000000000E+00   0.000000000000000E+00   0.000000000000000E+00
   0.000000000000000E+00   0.000000000000000E+00   0.000000000000000E+00
   0.000000000000000E+00   0.000000000000000E+00   0.000000000000000E+00
   0.000000000000000E+00   0.000000000000000E+00   0.000000000000000E+00
   0.000000000000000E+00   0.000000000000000E+00   0.000000000000000E+00
   0.000000000000000E+00   0.000000000000000E+00   0.000000000000000E+00
   0.000000000000000E+00   0.000000000000000E+00   0.000000000000000E+00
   0.000000000000000E+00   0.000000000000000E+00   0.000000000000000E+00
   0.000000000000000E+00   0.000000000000000E+00   0.000000000000000E+00
   0.000000000000000E+00   0.000000000000000E+00   0.000000000000000E+00
   0.000000000000000E+00   0.000000000000000E+00   0.000000000000000E+00
   0.000000000000000E+00   0.000000000000000E+00   0.000000000000000E+00
   0.000000000000000E+00   0.000000000000000E+00   0.000000000000000E+00
   0.000000000000000E+00   0.000000000000000E+00   0.000000000000000E+00
   0.000000000000000E+00   0.000000000000000E+00   0.000000000000000E+00
   0.000000000000000E+00   0.000000000000000E+00   0.000000000000000E+00
   0.000000000000000E+00   0.000000000000000E+00   0.000000000000000E+00
   0.000000000000000E+00   0.000000000000000E+00   0.000000000000000E+00
   0.000000000000000E+00   0.000000000000000E+00   0.000000000000000E+00
   0.000000000000000E+00   0.000000000000000E+00   0.000000000000000E+00
   0.000000000000000E+00   0.000000000000000E+00   0.000000000000000E+00
   0.000000000000000E+00   0.000000000000000E+00   0.000000000000000E+00
   0.000000000000000E+00   0.000000000000000E+00   0.000000000000000E+00
   0.000000000000000E+00   0.000000000000000E+00   0.000000000000000E+00
   0.000000000000000E+00   0.000000000000000E+00   0.000000000000000E+00
   0.000000000000000E+00   0.000000000000000E+00   0.000000000000000E+00
   0.000000000000000E+00   0.000000000000000E+00   0.000000000000000E+00
   0.000000000000000E+00   0.000000000000000E+00   0.000000000000000E+00
   0.000000000000000E+00   0.000000000000000E+00   0.000000000000000E+00
   0.000000000000000E+00   0.000000000000000E+00   0.000000000000000E+00
   0.000000000000000E+00   0.000000000000000E+00   0.000000000000000E+00
   0.000000000000000E+00   0.000000000000000E+00   0.000000000000000E+00
   0.000000000000000E+00   0.000000000000000E+00   0.000000000000000E+00
   0.000000000000000E+00   0.000000000000000E+00   0.000000000000000E+00
   0.000000000000000E+00   0.000000000000000E+00   0.000000000000000E+00
   0.000000000000000E+00   0.000000000000000E+00   0.000000000000000E+00
   0.000000000000000E+00   0.000000000000000E+00   0.000000000000000E+00
   0.000000000000000E+00   0.000000000000000E+00   0.000000000000000E+00
   0.000000000000000E+00   0.000000000000000E+00   0.000000000000000E+00
   0.000000000000000E+00   0.000000000000000E+00   0.000000000000000E+00
   0.000000000000000E+00   0.000000000000000E+00   0.000000000000000E+00
   0.000000000000000E+00   0.000000000000000E+00   0.000000000000000E+00
   0.000000000000000E+00   0.000000000000000E+00   0.000000000000000E+00
    </PP_BETA.3>
    <PP_BETA.4 index="4" label="2P" angular_momentum="1" cutoff_radius_index="761" cutoff_radius="0.90000000000000002" ultrasoft_cutoff_radius="1.3500000000000001">
   7.261532214257899E-05   7.445358777849356E-05   7.633838933074165E-05
   7.827090486166435E-05   8.025234225639369E-05   8.228393997781970E-05
   8.436696784067072E-05   8.650272780518821E-05   8.869255479089484E-05
   9.093781751096276E-05   9.323991932770365E-05   9.560029912971622E-05
   9.802043223123766E-05   1.005018312942644E-04   1.030460472740143E-04
   1.056546703883247E-04   1.083293311115893E-04   1.110717011938596E-04
   1.138834947057413E-04   1.167664691097465E-04   1.197224263587628E-04
   1.227532140223336E-04   1.258607264414497E-04   1.290469059125734E-04
   1.323137439016386E-04   1.356632822887797E-04   1.390976146445744E-04
   1.426188875385944E-04   1.462293018810798E-04   1.499311142985818E-04
   1.537266385444259E-04   1.576182469448833E-04   1.616083718819544E-04
   1.656995073136838E-04   1.698942103329694E-04   1.741951027658237E-04
   1.786048728101053E-04   1.831262767157278E-04   1.877621405074064E-04
   1.925153617510167E-04   1.973889113646656E-04   2.023858354756140E-04
   2.075092573242053E-04   2.127623792159915E-04   2.181484845232818E-04
   2.236709397373537E-04   2.293331965726216E-04   2.351387941240717E-04
   2.410913610793094E-04   2.471946179866131E-04   2.534523795803909E-04
   2.598685571655200E-04   2.664471610620369E-04   2.731923031117206E-04
   2.801081992481265E-04   2.871991721316823E-04   2.944696538514939E-04
   3.019241886955443E-04   3.095674359910219E-04   3.174041730165552E-04
   3.254392979881629E-04   3.336778331208040E-04   3.421249277674242E-04
   3.507858616374692E-04   3.596660480968781E-04   3.687710375516117E-04
   3.781065209168383E-04   3.876783331739438E-04   3.974924570175817E-04
   4.075550265950599E-04   4.178723313403767E-04   4.284508199053263E-04
   4.392971041901170E-04   4.504179634760228E-04   4.618203486626629E-04
   4.735113866125337E-04   4.854983846055336E-04   4.977888349062573E-04
   5.103904194468985E-04   5.233110146287173E-04   5.365586962450437E-04
   5.501417445289134E-04   5.640686493284886E-04   5.783481154134893E-04
   5.929890679159584E-04   6.080006579087644E-04   6.233922681253214E-04
   6.391735188241050E-04   6.553542738016293E-04   6.719446465576488E-04
   6.889550066164177E-04   7.063959860079917E-04   7.242784859135916E-04
   7.426136834792030E-04   7.614130388016588E-04   7.806883020915769E-04
   8.004515210176233E-04   8.207150482367111E-04   8.414915491148055E-04
   8.627940096432095E-04   8.846357445552191E-04   9.070304056482854E-04
   9.299919903168240E-04   9.535348503010572E-04   9.776737006573256E-04
   1.002423628955477E-03   1.027800104709094E-03   1.053818989044461E-03
   1.080496544614280E-03   1.107849445762376E-03   1.135894788945703E-03
   1.164650103420199E-03   1.194133362197151E-03   1.224362993276915E-03
   1.255357891167042E-03   1.287137428691952E-03   1.319721469101600E-03
   1.353130378486660E-03   1.387385038508011E-03   1.422506859448472E-03
   1.458517793594926E-03   1.495440348959235E-03   1.533297603346497E-03
   1.572113218779434E-03   1.611911456287949E-03   1.652717191073070E-03
   1.694555928054786E-03   1.737453817813460E-03   1.781437672934821E-03
   1.826534984768725E-03   1.872773940612159E-03   1.920183441327236E-03
   1.968793119405220E-03   2.018633357487790E-03   2.069735307357256E-03
   2.122130909407400E-03   2.175852912607350E-03   2.230934894970744E-03
   2.287411284543128E-03   2.345317380920649E-03   2.404689377313470E-03
   2.465564383167742E-03   2.527980447360268E-03   2.591976581980324E-03
   2.657592786713531E-03   2.724870073843005E-03   2.793850493883403E-03
   2.864577161863939E-03   2.937094284276720E-03   3.011447186707298E-03
   3.087682342164694E-03   3.165847400128621E-03   3.245991216331991E-03
   3.328163883297422E-03   3.412416761646806E-03   3.498802512203369E-03
   3.587375128906535E-03   3.678189972559963E-03   3.771303805433942E-03
   3.866774826743746E-03   3.964662709026127E-03   4.065028635436719E-03
   4.147136853115761E-03   4.253182443410976E-03   4.360483603522713E-03
   4.472157016999035E-03   4.585580272789457E-03   4.702181998416200E-03
   4.841183894378126E-03   4.964012990894450E-03   5.089711624780772E-03
   5.218289699225782E-03   5.350690391998689E-03   5.486023002564851E-03
   5.625181175973725E-03   5.767420187401551E-03   5.913513873168866E-03
   6.063049184922665E-03   6.216581900763893E-03   6.373882760610117E-03
   6.535557659448868E-03   6.700760706107003E-03   6.870338651307720E-03
   7.044649887680193E-03   7.223131054087246E-03   7.405819929729843E-03
   7.593212408007168E-03   7.785749304685938E-03   7.982470186648799E-03
   8.185016287198858E-03   8.392031374267556E-03   8.604534997374819E-03
   8.822338780361136E-03   9.045656516542336E-03   9.274495194955656E-03
   9.509524139694726E-03   9.750608719471136E-03   9.996961559218677E-03
   1.025055953536228E-02   1.050977551553593E-02   1.077597675227884E-02
   1.104844640174638E-02   1.132854396876685E-02   1.161519314659912E-02
   1.190934474318740E-02   1.221094271111058E-02   1.252007468332464E-02
   1.283680891498755E-02   1.316184640250106E-02   1.349524679619781E-02
   1.383686863145368E-02   1.418705128621307E-02   1.454636888786332E-02
   1.491443170575275E-02   1.529227637363392E-02   1.567940461786881E-02
   1.607625690302079E-02   1.648309054584468E-02   1.690065553320162E-02
   1.732829807172152E-02   1.776706416053099E-02   1.821691548992878E-02
   1.867788417223112E-02   1.915091242987946E-02   1.963571839387733E-02
   2.013263560087562E-02   2.064264226653763E-02   2.116525639654146E-02
   2.170073823067453E-02   2.225055596586423E-02   2.281333595803589E-02
   2.339117423857910E-02   2.398337942426532E-02   2.459045890913915E-02
   2.521285879534273E-02   2.585136724502426E-02   2.650572012481167E-02
   2.717700356704167E-02   2.786453798957712E-02   2.857013030624575E-02
   2.929337534642394E-02   3.003505044165715E-02   3.079569339853802E-02
   3.157487650090313E-02   3.237411631839474E-02   3.319397205535610E-02
   3.403413370562863E-02   3.489585976257539E-02   3.577925632913984E-02
   3.668505578623193E-02   3.761365011369905E-02   3.856571613476481E-02
   3.954220486676543E-02   4.054306145065703E-02   4.156931513960874E-02
   4.262200553596912E-02   4.370088499864039E-02   4.480702044678406E-02
   4.594139372373740E-02   4.710459549883358E-02   4.829718382867471E-02
   4.951932199255032E-02   5.077340920516488E-02   5.205840812302592E-02
   5.337636339116408E-02   5.472753595712521E-02   5.611293751140795E-02
   5.753318428912380E-02   5.898975041944260E-02   6.048312035672279E-02
   6.201402534628836E-02   6.358398634438583E-02   6.519364677516432E-02
   6.684416869345566E-02   6.853621153169581E-02   7.027105903660102E-02
   7.204996159541310E-02   7.387376607486323E-02   7.574373543892343E-02
   7.766149700635577E-02   7.962726900301115E-02   8.164276627846589E-02
   8.370955972652899E-02   8.582899197889582E-02   8.800123810464694E-02
   9.022922415713469E-02   9.251296132058923E-02   9.485486341595867E-02
   9.725602927060983E-02   9.971804911976745E-02   1.022423234003864E-01
   1.048305386913256E-01   1.074840110132226E-01   1.102048725670097E-01
   1.129946111936863E-01   1.158547880213492E-01   1.187877357172774E-01
   1.217944964171199E-01   1.248775997174151E-01   1.280385565234484E-01
   1.312797839865855E-01   1.346026606843472E-01   1.380101502555149E-01
   1.415031526295468E-01   1.450852801236359E-01   1.487576300609750E-01
   1.525232816269124E-01   1.563840599331497E-01   1.603427365202517E-01
   1.644011214337086E-01   1.685625384155949E-01   1.728299297109357E-01
   1.772041553249086E-01   1.816895830844157E-01   1.862887692726610E-01
   1.910039246908912E-01   1.958389551952086E-01   2.007957534224467E-01
   2.058787366560167E-01   2.110896260197307E-01   2.164324119628006E-01
   2.219108370236906E-01   2.275277093251249E-01   2.332868199739300E-01
   2.391915852400700E-01   2.452458481266468E-01   2.514533954210310E-01
   2.578178847581039E-01   2.643436994646693E-01   2.710341493288551E-01
   2.778946295653013E-01   2.849279502973130E-01   2.921399238513662E-01
   2.995340789720591E-01   3.071150714538764E-01   3.148882899119110E-01
   3.228583422801958E-01   3.310297836349039E-01   3.394078323157987E-01
   3.479984720864928E-01   3.568060859012008E-01   3.658368157337679E-01
   3.750953347849351E-01   3.845887068026250E-01   3.943225260397754E-01
   4.043023270195918E-01   4.145344179142239E-01   4.250256021508063E-01
   4.357825943164804E-01   4.468110237630003E-01   4.581189158887971E-01
   4.697126491099137E-01   4.816002614779271E-01   4.937880907736827E-01
   5.062845719345348E-01   5.190967339174555E-01   5.322337030875741E-01
   5.457027827889607E-01   5.595121811548136E-01   5.736706374865661E-01
   5.881930560386852E-01   6.030638692524377E-01   6.183420958866241E-01
   6.339681330150357E-01   6.500313850525727E-01   6.664707860994938E-01
   6.833392100119542E-01   7.006348040833639E-01   7.183496153722353E-01
   7.365279074414914E-01   7.551776465025051E-01   7.742701091987336E-01
   7.938756633442403E-01   8.139461683281528E-01   8.345600005728011E-01
   8.556576321135969E-01   8.773035273188348E-01   8.995335569660710E-01
   9.222543354251993E-01   9.456178346819994E-01   9.695083021862114E-01
   9.940628857888836E-01   1.019203119567033E+00   1.044974277754632E+00
   1.071442903693413E+00   1.098508858747465E+00   1.126340902536657E+00
   1.154772298505826E+00   1.184049034330042E+00   1.213967972155011E+00
   1.244673952398978E+00   1.276169223682323E+00   1.308436991145564E+00
   1.341536273666880E+00   1.375478057832724E+00   1.410259867435100E+00
   1.445913899169931E+00   1.482508004964080E+00   1.519990918086598E+00
   1.558430196930405E+00   1.597838267631016E+00   1.638258946565340E+00
   1.679668500494997E+00   1.722163230023691E+00   1.765703455717985E+00
   1.810349099423421E+00   1.856119861570800E+00   1.903067366613173E+00
   1.951170772899331E+00   2.000500683009612E+00   2.051096525711662E+00
   2.102922803082535E+00   2.156102931438548E+00   2.210612107397472E+00
   2.266498516180596E+00   2.323768631967187E+00   2.382519301105237E+00
   2.442740727961658E+00   2.504481483149885E+00   2.567761724922775E+00
   2.632693148654836E+00   2.699200282331290E+00   2.767414616427308E+00
   2.837337775355262E+00   2.909061619036043E+00   2.982535805483929E+00
   3.057909877054994E+00   3.135192733383880E+00   3.214320574619373E+00
   3.295582731805970E+00   3.378850670886193E+00   3.464143036962353E+00
   3.551672931123260E+00   3.641382339334143E+00   3.733303034524711E+00
   3.827630600478404E+00   3.924264955107851E+00   4.023376008294832E+00
   4.124933522403840E+00   4.229095389928499E+00   4.335850008771292E+00
   4.445308988567465E+00   4.557528283568651E+00   4.672551470907319E+00
   4.790448248152448E+00   4.911404439383269E+00   5.035287446505428E+00
   5.162353493735896E+00   5.292612093683783E+00   5.426129429427181E+00
   5.562998950704866E+00   5.703327356841104E+00   5.847157853596734E+00
   5.994630281191732E+00   6.145787032913489E+00   6.300749688867196E+00
   6.459596394878115E+00   6.622438819990485E+00   6.789344847127037E+00
   6.960485338159316E+00   7.135884313297055E+00   7.315669197537044E+00
   7.500008287532182E+00   7.688930245106871E+00   7.882614546024936E+00
   8.081116293013594E+00   8.284631434738650E+00   8.493216748480954E+00
   8.707031324603918E+00   8.926199629145010E+00   9.150859514141466E+00
   9.381109139713097E+00   9.617155842911188E+00   9.859092879321132E+00
   1.010704443154371E+01   1.036124206939098E+01   1.062173415465831E+01
   1.088878528076522E+01   1.116245816936972E+01   1.144296948567438E+01
   1.173049657401205E+01   1.202516075382650E+01   1.232718836259359E+01
   1.263673170852982E+01   1.295399233393652E+01   1.327912560370384E+01
   1.361237570339384E+01   1.395389005377497E+01   1.430390772392965E+01
   1.466260782181408E+01   1.503022515029679E+01   1.540696143517028E+01
   1.579304437247368E+01   1.618869515930743E+01   1.659415513959736E+01
   1.700965426928735E+01   1.743543776380716E+01   1.787174642517229E+01
   1.831885510945401E+01   1.877700379717329E+01   1.924645614419300E+01
   1.972750636179735E+01   2.022040601940043E+01   2.072546104859892E+01
   2.124295179081703E+01   2.177316635038643E+01   2.231642738591729E+01
   2.287303074202741E+01   2.344330369618017E+01   2.402755739461733E+01
   2.462614229566570E+01   2.523937307781007E+01   2.586762058322411E+01
   2.651121609757151E+01   2.717053992407649E+01   2.784594072222737E+01
   2.853781661269508E+01   2.924652897912677E+01   2.997249482133677E+01
   3.071609715296900E+01   3.147774333878645E+01   3.225787732639297E+01
   3.305688468079178E+01   3.387523638306433E+01   3.471335845639177E+01
   3.557170370399572E+01   3.645074043216320E+01   3.735093337782047E+01
   3.827276832324108E+01   3.921672644111163E+01   4.018331970036039E+01
   4.117303897994626E+01   4.218642041044743E+01   4.322397524764452E+01
   4.428625378056191E+01   4.537379640864884E+01   4.648716274480020E+01
   4.762691933798953E+01   4.879363952927093E+01   4.998791968501621E+01
   5.121034878727869E+01   5.246153610550982E+01   5.374210094123043E+01
   5.505266857238652E+01   5.639388137741210E+01   5.776637602454056E+01
   5.917082369655253E+01   6.060788003426356E+01   6.207822867083806E+01
   6.358255759715797E+01   6.512155673158773E+01   6.669593690192318E+01
   6.830641431459483E+01   6.995370995989683E+01   7.163855877257797E+01
   7.336170133321184E+01   7.512389071348133E+01   7.692588140021633E+01
   7.876844371126873E+01   8.065234555571607E+01   8.257837347250620E+01
   8.454731154381568E+01   8.655995092644611E+01   8.861709494564508E+01
   9.071954218494352E+01   9.286810617849449E+01   9.506359430828167E+01
   9.730682220637681E+01   9.959860961479734E+01   1.019397714405929E+02
   1.043311300948272E+02   1.067735024698773E+02   1.092677045165777E+02
   1.118145552881629E+02   1.144148610220759E+02   1.170694314712056E+02
   1.197790638645184E+02   1.225445527412463E+02   1.253666803499740E+02
   1.282462179410549E+02   1.311839274177410E+02   1.341805523931055E+02
   1.372368231951232E+02   1.403534516609680E+02   1.435311262588402E+02
   1.467705184516342E+02   1.500722677209996E+02   1.534369910025372E+02
   1.568652740421591E+02   1.603576673556411E+02   1.639146865889267E+02
   1.675368095685872E+02   1.712244668069395E+02   1.749780493527301E+02
   1.787978912251075E+02   1.826842772664246E+02   1.866374343702727E+02
   1.906575228647264E+02   1.947446432204043E+02   1.988988169968314E+02
   2.031199946625283E+02   2.074080440770724E+02   2.117627434982874E+02
   2.161837812398593E+02   2.206707448724322E+02   2.252231172782434E+02
   2.298402725212206E+02   2.345214610510234E+02   2.392658127607063E+02
   2.440723221318927E+02   2.489398435903892E+02   2.538670836560085E+02
   2.588525901970053E+02   2.638947484641080E+02   2.689917659072245E+02
   2.741416682403857E+02   2.793422872775391E+02   2.845912506378052E+02
   2.898859722604056E+02   2.952236421892875E+02   3.006012146182429E+02
   3.060153954755041E+02   3.114626346370584E+02   3.169391095220721E+02
   3.224407144392418E+02   3.279630495915012E+02   3.335014051478379E+02
   3.390507513366714E+02   3.446057211089488E+02   3.501606004237042E+02
   3.557093116797712E+02   3.612454012239780E+02   3.667620227468394E+02
   3.722519276187336E+02   3.777074449890731E+02   3.831204717697552E+02
   3.884824553961902E+02   3.937843826987428E+02   3.990167628430890E+02
   4.041696154873281E+02   4.092324576825860E+02   4.141942895219083E+02
   4.190435831294702E+02   4.237682707570933E+02   4.283557340691812E+02
   4.327927936846514E+02   4.370657012847747E+02   4.411601325392776E+02
   4.450611783143601E+02   4.487533456385521E+02   4.522205489222723E+02
   4.554461149217236E+02   4.584127810496409E+02   4.611027008708736E+02
   4.634974535580109E+02   4.655780505547289E+02   4.673249528130898E+02
   4.687180866229230E+02   4.697368660087816E+02   4.703602205425000E+02
   4.705666234743949E+02   4.703341322658548E+02   4.696404279435314E+02
   4.684628652191136E+02   4.667785279523337E+02   4.645642915835078E+02
   4.617968915275551E+02   4.584530054644874E+02   4.545093361578374E+02
   4.499427104677029E+02   4.447301850067024E+02   4.388491615404255E+02
   4.322775168232420E+02   4.249937376338521E+02   4.169770748472447E+02
   4.082077042786286E+02   3.986669039169319E+02   3.883372408193009E+02
   3.772027774099643E+02   3.652492829793000E+02   3.524644699152959E+02
   3.388382326208084E+02   3.243629120993601E+02   3.090335644645074E+02
   2.928482503304613E+02   2.758083344399765E+02   2.579187979262442E+02
   2.391885651918710E+02   2.196308363357202E+02   1.992634352576497E+02
   1.781091600282853E+02   1.561961434923196E+02   1.335582125343681E+02
   1.102352528310603E+02   8.627356638828132E+01   6.172622534066431E+01
   3.665341423260907E+01   1.112275713225245E+01  -1.479037807543318E+01
  -4.100259936327166E+01  -6.742224776252806E+01  -9.394919184582250E+01
  -1.204746758110887E+02  -1.468812218788735E+02  -1.730426065471274E+02
  -1.988239095590670E+02  -2.240816590388749E+02  -2.486640754418677E+02
  -2.724114350801374E+02  -2.951565595646680E+02  -3.167254550940725E+02
  -3.369381088047940E+02  -3.556094626252852E+02  -3.725505822407267E+02
  -3.875700345123678E+02  -4.004754976059958E+02  -4.110756136908039E+02
  -4.191821102857939E+02  -4.246122022333857E+02  -4.271912960208192E+02
  -4.267560098475478E+02  -4.231575279313456E+02  -4.162653036846732E+02
  -4.059711223202794E+02  -3.921935364507208E+02  -3.748826803142765E+02
  -3.540254720282192E+02  -3.296511978451663E+02  -3.018374846162706E+02
  -2.707166438340737E+02  -2.364823810169773E+02  -1.993968436488349E+02
  -1.597979855394997E+02  -1.181072083301397E+02  -7.483723720726084E+01
  -3.060162710847817E+01   1.388069960913435E+01   5.779105446192580E+01
   1.002071269182597E+02   1.400981257740120E+02   1.763204197462253E+02
   2.076138108947374E+02   2.325985949141701E+02   2.497735684518185E+02
   2.575151892255559E+02   2.540778508664678E+02   2.375977730145784E+02
   2.060784469652504E+02   1.575744096471492E+02   8.846990336721353E+01
   1.029026676103350E+01  -1.027528392005008E+00   9.279208937178690E-02
  -1.996132486281521E-02  -1.037392452203409E-02  -1.282954869611116E-02
  -1.400644715845073E-02  -1.523459512069089E-02  -1.631761936175888E-02
  -1.744283090036539E-02  -1.844042096245062E-02  -1.937830506143876E-02
  -2.025213222495395E-02  -2.106454590141277E-02  -2.181747339774194E-02
  -2.251309916258336E-02  -2.315332334920626E-02  -2.374016719232233E-02
  -2.427551337961310E-02  -2.476129741084498E-02  -2.519937313801955E-02
  -2.559149372082063E-02  -2.593945816224302E-02  -2.624492431533464E-02
  -2.650960129881998E-02  -2.673504263753188E-02  -2.692277467420590E-02
  -2.707431440574672E-02  -2.719101369680955E-02  -2.727425982239217E-02
   0.000000000000000E+00   0.000000000000000E+00   0.000000000000000E+00
   0.000000000000000E+00   0.000000000000000E+00   0.000000000000000E+00
   0.000000000000000E+00   0.000000000000000E+00   0.000000000000000E+00
   0.000000000000000E+00   0.000000000000000E+00   0.000000000000000E+00
   0.000000000000000E+00   0.000000000000000E+00   0.000000000000000E+00
   0.000000000000000E+00   0.000000000000000E+00   0.000000000000000E+00
   0.000000000000000E+00   0.000000000000000E+00   0.000000000000000E+00
   0.000000000000000E+00   0.000000000000000E+00   0.000000000000000E+00
   0.000000000000000E+00   0.000000000000000E+00   0.000000000000000E+00
   0.000000000000000E+00   0.000000000000000E+00   0.000000000000000E+00
   0.000000000000000E+00   0.000000000000000E+00   0.000000000000000E+00
   0.000000000000000E+00   0.000000000000000E+00   0.000000000000000E+00
   0.000000000000000E+00   0.000000000000000E+00   0.000000000000000E+00
   0.000000000000000E+00   0.000000000000000E+00   0.000000000000000E+00
   0.000000000000000E+00   0.000000000000000E+00   0.000000000000000E+00
   0.000000000000000E+00   0.000000000000000E+00   0.000000000000000E+00
   0.000000000000000E+00   0.000000000000000E+00   0.000000000000000E+00
   0.000000000000000E+00   0.000000000000000E+00   0.000000000000000E+00
   0.000000000000000E+00   0.000000000000000E+00   0.000000000000000E+00
   0.000000000000000E+00   0.000000000000000E+00   0.000000000000000E+00
   0.000000000000000E+00   0.000000000000000E+00   0.000000000000000E+00
   0.000000000000000E+00   0.000000000000000E+00   0.000000000000000E+00
   0.000000000000000E+00   0.000000000000000E+00   0.000000000000000E+00
   0.000000000000000E+00   0.000000000000000E+00   0.000000000000000E+00
   0.000000000000000E+00   0.000000000000000E+00   0.000000000000000E+00
   0.000000000000000E+00   0.000000000000000E+00   0.000000000000000E+00
   0.000000000000000E+00   0.000000000000000E+00   0.000000000000000E+00
   0.000000000000000E+00   0.000000000000000E+00   0.000000000000000E+00
   0.000000000000000E+00   0.000000000000000E+00   0.000000000000000E+00
   0.000000000000000E+00   0.000000000000000E+00   0.000000000000000E+00
   0.000000000000000E+00   0.000000000000000E+00   0.000000000000000E+00
   0.000000000000000E+00   0.000000000000000E+00   0.000000000000000E+00
   0.000000000000000E+00   0.000000000000000E+00   0.000000000000000E+00
   0.000000000000000E+00   0.000000000000000E+00   0.000000000000000E+00
   0.000000000000000E+00   0.000000000000000E+00   0.000000000000000E+00
   0.000000000000000E+00   0.000000000000000E+00   0.000000000000000E+00
   0.000000000000000E+00   0.000000000000000E+00   0.000000000000000E+00
   0.000000000000000E+00   0.000000000000000E+00   0.000000000000000E+00
   0.000000000000000E+00   0.000000000000000E+00   0.000000000000000E+00
   0.000000000000000E+00   0.000000000000000E+00   0.000000000000000E+00
   0.000000000000000E+00   0.000000000000000E+00   0.000000000000000E+00
   0.000000000000000E+00   0.000000000000000E+00   0.000000000000000E+00
   0.000000000000000E+00   0.000000000000000E+00   0.000000000000000E+00
   0.000000000000000E+00   0.000000000000000E+00   0.000000000000000E+00
   0.000000000000000E+00   0.000000000000000E+00   0.000000000000000E+00
   0.000000000000000E+00   0.000000000000000E+00   0.000000000000000E+00
   0.000000000000000E+00   0.000000000000000E+00   0.000000000000000E+00
   0.000000000000000E+00   0.000000000000000E+00   0.000000000000000E+00
   0.000000000000000E+00   0.000000000000000E+00   0.000000000000000E+00
   0.000000000000000E+00   0.000000000000000E+00   0.000000000000000E+00
   0.000000000000000E+00   0.000000000000000E+00   0.000000000000000E+00
   0.000000000000000E+00   0.000000000000000E+00   0.000000000000000E+00
   0.000000000000000E+00   0.000000000000000E+00   0.000000000000000E+00
   0.000000000000000E+00   0.000000000000000E+00   0.000000000000000E+00
   0.000000000000000E+00   0.000000000000000E+00   0.000000000000000E+00
   0.000000000000000E+00   0.000000000000000E+00   0.000000000000000E+00
   0.000000000000000E+00   0.000000000000000E+00   0.000000000000000E+00
   0.000000000000000E+00   0.000000000000000E+00   0.000000000000000E+00
   0.000000000000000E+00   0.000000000000000E+00   0.000000000000000E+00
   0.000000000000000E+00   0.000000000000000E+00   0.000000000000000E+00
   0.000000000000000E+00   0.000000000000000E+00   0.000000000000000E+00
   0.000000000000000E+00   0.000000000000000E+00   0.000000000000000E+00
   0.000000000000000E+00   0.000000000000000E+00   0.000000000000000E+00
   0.000000000000000E+00   0.000000000000000E+00   0.000000000000000E+00
   0.000000000000000E+00   0.000000000000000E+00   0.000000000000000E+00
   0.000000000000000E+00   0.000000000000000E+00   0.000000000000000E+00
   0.000000000000000E+00   0.000000000000000E+00   0.000000000000000E+00
   0.000000000000000E+00   0.000000000000000E+00   0.000000000000000E+00
   0.000000000000000E+00   0.000000000000000E+00   0.000000000000000E+00
   0.000000000000000E+00   0.000000000000000E+00   0.000000000000000E+00
   0.000000000000000E+00   0.000000000000000E+00   0.000000000000000E+00
   0.000000000000000E+00   0.000000000000000E+00   0.000000000000000E+00
   0.000000000000000E+00   0.000000000000000E+00   0.000000000000000E+00
   0.000000000000000E+00   0.000000000000000E+00   0.000000000000000E+00
   0.000000000000000E+00   0.000000000000000E+00   0.000000000000000E+00
   0.000000000000000E+00   0.000000000000000E+00   0.000000000000000E+00
   0.000000000000000E+00   0.000000000000000E+00   0.000000000000000E+00
   0.000000000000000E+00   0.000000000000000E+00   0.000000000000000E+00
   0.000000000000000E+00   0.000000000000000E+00   0.000000000000000E+00
   0.000000000000000E+00   0.000000000000000E+00   0.000000000000000E+00
   0.000000000000000E+00   0.000000000000000E+00   0.000000000000000E+00
   0.000000000000000E+00   0.000000000000000E+00   0.000000000000000E+00
   0.000000000000000E+00   0.000000000000000E+00   0.000000000000000E+00
   0.000000000000000E+00   0.000000000000000E+00   0.000000000000000E+00
   0.000000000000000E+00   0.000000000000000E+00   0.000000000000000E+00
   0.000000000000000E+00   0.000000000000000E+00   0.000000000000000E+00
   0.000000000000000E+00   0.000000000000000E+00   0.000000000000000E+00
   0.000000000000000E+00   0.000000000000000E+00   0.000000000000000E+00
   0.000000000000000E+00   0.000000000000000E+00   0.000000000000000E+00
   0.000000000000000E+00   0.000000000000000E+00   0.000000000000000E+00
   0.000000000000000E+00   0.000000000000000E+00   0.000000000000000E+00
   0.000000000000000E+00   0.000000000000000E+00   0.000000000000000E+00
   0.000000000000000E+00   0.000000000000000E+00   0.000000000000000E+00
   0.000000000000000E+00   0.000000000000000E+00   0.000000000000000E+00
   0.000000000000000E+00   0.000000000000000E+00   0.000000000000000E+00
   0.000000000000000E+00   0.000000000000000E+00   0.000000000000000E+00
   0.000000000000000E+00   0.000000000000000E+00   0.000000000000000E+00
   0.000000000000000E+00   0.000000000000000E+00   0.000000000000000E+00
   0.000000000000000E+00   0.000000000000000E+00   0.000000000000000E+00
   0.000000000000000E+00   0.000000000000000E+00   0.000000000000000E+00
   0.000000000000000E+00   0.000000000000000E+00   0.000000000000000E+00
   0.000000000000000E+00   0.000000000000000E+00   0.000000000000000E+00
   0.000000000000000E+00   0.000000000000000E+00   0.000000000000000E+00
   0.000000000000000E+00   0.000000000000000E+00   0.000000000000000E+00
   0.000000000000000E+00   0.000000000000000E+00   0.000000000000000E+00
    </PP_BETA.4>
    <PP_DIJ columns="4" rows="4">
  0.54117757488847396       0.33747209470898820        0.0000000000000000        0.0000000000000000     
  0.33747209470898820       0.19449066755376787        0.0000000000000000        0.0000000000000000     
   0.0000000000000000        0.0000000000000000       0.60852271965876437       0.47738147424428945     
   0.0000000000000000        0.0000000000000000       0.47738147424428945       0.37079220874705987     
    </PP_DIJ>
    <PP_AUGMENTATION q_with_l="true" nqf="0" nqlc="3" shape="PSQ" cutoff_r="-1.0000000000000000" cutoff_r_index="769" augmentation_epsilon="9.9999999999999998E-013" l_max_aug="2">
      <PP_Q size="16">
 -0.15911028750426937      -0.12549208298961545        0.0000000000000000        0.0000000000000000     
 -0.12549208298961545      -0.10012704484984687        0.0000000000000000        0.0000000000000000     
   0.0000000000000000        0.0000000000000000       0.14151643659101043        9.9207468368774740E-002
   0.0000000000000000        0.0000000000000000        9.9207468368774740E-002   6.9431389987630140E-002
      </PP_Q>
<!--augmentation charge multipoles ( only for PAW) 
multipole array dims = (nbeta,nbeta,2*lmax+1)-->
      <PP_MULTIPOLES nbeta="4" lmax="1">
 -0.15911028750426937      -0.12549208298961545        0.0000000000000000        0.0000000000000000     
 -0.12549208298961545      -0.10012704484984687        0.0000000000000000        0.0000000000000000     
   0.0000000000000000        0.0000000000000000       0.14151643659101043        9.9207468368774740E-002
   0.0000000000000000        0.0000000000000000        9.9207468368774740E-002   6.9431389987630140E-002
   0.0000000000000000        0.0000000000000000       -5.9149231094625691E-003  -6.1803066623882571E-003
   0.0000000000000000        0.0000000000000000       -4.9799111234859663E-003  -4.8313530060002776E-003
  -5.9149231094625691E-003  -4.9799111234859663E-003   0.0000000000000000        0.0000000000000000     
  -6.1803066623882571E-003  -4.8313530060002776E-003   0.0000000000000000        0.0000000000000000     
   0.0000000000000000        0.0000000000000000        0.0000000000000000        0.0000000000000000     
   0.0000000000000000        0.0000000000000000        0.0000000000000000        0.0000000000000000     
   0.0000000000000000        0.0000000000000000        4.3727520047229469E-002   3.0567957770575860E-002
   0.0000000000000000        0.0000000000000000        3.0567957770575860E-002   2.1282602874765019E-002
      </PP_MULTIPOLES>
      <PP_QIJL.1.1.0 first_index="1" second_index="1" composite_index="1" angular_momentum="0" size="1095">
  -5.352641485328527E-08  -5.488144241106116E-08  -5.627077265039365E-08
  -5.769527394757586E-08  -5.915583666194021E-08  -6.065337369236053E-08
  -6.218882104784302E-08  -6.376313843256134E-08  -6.537730984570170E-08
  -6.703234419649394E-08  -6.872927593481076E-08  -7.046916569773181E-08
  -7.225310097247500E-08  -7.408219677611008E-08  -7.595759635247978E-08
  -7.788047188676202E-08  -7.985202523812295E-08  -8.187348869091632E-08
  -8.394612572489947E-08  -8.607123180494811E-08  -8.825013519076135E-08
  -9.048419776706583E-08  -9.277481589483589E-08  -9.512342128406231E-08
  -9.753148188861594E-08  -1.000005028237634E-07  -1.025320273069113E-07
  -1.051276376221645E-07  -1.077889561093021E-07  -1.105176461777909E-07
  -1.133154133464655E-07  -1.161840063095317E-07  -1.191252180295528E-07
  -1.221408868581061E-07  -1.252328976848100E-07  -1.284031831154355E-07
  -1.316537246798450E-07  -1.349865540705080E-07  -1.384037544123706E-07
  -1.419074615648724E-07  -1.454998654569216E-07  -1.491832114556678E-07
  -1.529598017699234E-07  -1.568319968891132E-07  -1.608022170586520E-07
  -1.648729437926688E-07  -1.690467214250277E-07  -1.733261586996126E-07
  -1.777139304008689E-07  -1.822127790256243E-07  -1.868255164972282E-07
  -1.915550259230883E-07  -1.964042633966966E-07  -2.013762598452742E-07
  -2.064741229241912E-07  -2.117010389593390E-07  -2.170602749386781E-07
  -2.225551805542005E-07  -2.281891902955823E-07  -2.339658255968410E-07
  -2.398886970373298E-07  -2.459615065984548E-07  -2.521880499775182E-07
  -2.585722189601364E-07  -2.651180038527173E-07  -2.718294959765123E-07
  -2.787108902248079E-07  -2.857664876848511E-07  -2.930006983261474E-07
  -3.004180437568165E-07  -3.080231600497189E-07  -3.158208006401302E-07
  -3.238158392967681E-07  -3.320132731680288E-07  -3.404182259053429E-07
  -3.490359508655921E-07  -3.578718343945989E-07  -3.669313991937368E-07
  -3.762203077717636E-07  -3.857443659840404E-07  -3.955095266613401E-07
  -4.055218933305232E-07  -4.157877240293991E-07  -4.263134352181597E-07
  -4.371056057898329E-07  -4.481709811822535E-07  -4.595164775941333E-07
  -4.711491863078577E-07  -4.830763781217110E-07  -4.953055078943069E-07
  -5.078442192040529E-07  -5.207003491265725E-07  -5.338819331330647E-07
  -5.473972101126642E-07  -5.612546275219416E-07  -5.754628466647562E-07
  -5.900307481057736E-07  -6.049674372210189E-07  -6.202822498889413E-07
  -6.359847583255498E-07  -6.520847770672517E-07  -6.685923691051573E-07
  -6.855178521746611E-07  -7.028718052042456E-07  -7.206650749275369E-07
  -7.389087826627296E-07  -7.576143312636392E-07  -7.767934122467143E-07
  -7.964580130984617E-07  -8.166204247678625E-07  -8.372932493484410E-07
  -8.584894079548125E-07  -8.802221487986154E-07  -9.025050554688804E-07
  -9.253520554220167E-07  -9.487774286867030E-07  -9.727958167891515E-07
  -9.974222319042996E-07  -1.022672066238659E-06  -1.048561101650689E-06
  -1.075105519514687E-06  -1.102321910834395E-06  -1.130227286612607E-06
  -1.158839088483279E-06  -1.188175199612795E-06  -1.218253955877155E-06
  -1.249094157322140E-06  -1.280715079913552E-06  -1.313136487584914E-06
  -1.346378644590148E-06  -1.380462328168925E-06  -1.415408841532648E-06
  -1.451240027179152E-06  -1.487978280544448E-06  -1.525646564000051E-06
  -1.564268421204618E-06  -1.603867991818894E-06  -1.644470026593144E-06
  -1.686099902836497E-06  -1.728783640277890E-06  -1.772547917328485E-06
  -1.817420087755763E-06  -1.863428197779698E-06  -1.910601003601681E-06
  -1.958967989377183E-06  -2.008559385643334E-06  -2.059406188212997E-06
  -2.111540177547094E-06  -2.164993938617312E-06  -2.219800881271613E-06
  -2.275995261115224E-06  -2.333612200920221E-06  -2.392687712577044E-06
  -2.453258719601659E-06  -2.515363080212477E-06  -2.579039610991357E-06
  -2.644328111143594E-06  -2.711269387371963E-06  -2.779905279380388E-06
  -2.850278686023216E-06  -2.922433592116327E-06  -2.996415095926969E-06
  -3.072269437359383E-06  -3.150044026853886E-06  -3.229787475017495E-06
  -3.311549623004453E-06  -3.395381573665924E-06  -3.481335723487981E-06
  -3.569465795338116E-06  -3.659826872040619E-06  -3.752475430801708E-06
  -3.847469378506207E-06  -3.944868087907444E-06  -4.044732434733302E-06
  -4.147124835731457E-06  -4.252109287677504E-06  -4.359751407370611E-06
  -4.470118472641304E-06  -4.583279464397352E-06  -4.699305109733846E-06
  -4.818267926134331E-06  -4.940242266790903E-06  -5.065304367071174E-06
  -5.193532392161489E-06  -5.325006485915989E-06  -5.459808820941942E-06
  -5.598023649952973E-06  -5.739737358421826E-06  -5.885038518565872E-06
  -6.034017944699024E-06  -6.186768749984420E-06  -6.343386404623755E-06
  -6.503968795519080E-06  -6.668616287444776E-06  -6.837431785767726E-06
  -7.010520800754706E-06  -7.187991513507597E-06  -7.369954843567066E-06
  -7.556524518227328E-06  -7.747817143605216E-06  -7.943952277507602E-06
  -8.145052504143363E-06  -8.351243510725739E-06  -8.562654166013554E-06
  -8.779416600840117E-06  -9.001666290679848E-06  -9.229542140304804E-06
  -9.463186570583228E-06  -9.702745607474878E-06  -9.948368973278560E-06
  -1.020021018018846E-05  -1.045842662621853E-05  -1.072317969355381E-05
  -1.099463484939083E-05  -1.127296174932991E-05  -1.155833434338339E-05
  -1.185093098466695E-05  -1.215093454084073E-05  -1.245853250837080E-05
  -1.277391712968176E-05  -1.309728551327350E-05  -1.342883975687786E-05
  -1.376878707373093E-05  -1.411733992204073E-05  -1.447471613773084E-05
  -1.484113907054219E-05  -1.521683772357925E-05  -1.560204689638623E-05
  -1.599700733164368E-05  -1.640196586557659E-05  -1.681717558216752E-05
  -1.724289597127201E-05  -1.767939309073347E-05  -1.812693973260001E-05
  -1.858581559354630E-05  -1.905630744960633E-05  -1.953870933532746E-05
  -2.003332272745573E-05  -2.054045673326845E-05  -2.106042828367092E-05
  -2.159356233117724E-05  -2.214019205290022E-05  -2.270065905867481E-05
  -2.327531360444676E-05  -2.386451481105857E-05  -2.446863088856909E-05
  -2.508803936624734E-05  -2.572312732838299E-05  -2.637429165606124E-05
  -2.704193927505263E-05  -2.772648740997180E-05  -2.842836384486446E-05
  -2.914800719038407E-05  -2.988586715772541E-05  -3.064240483948546E-05
  -3.141809299762631E-05  -3.221341635872018E-05  -3.302887191665964E-05
  -3.386496924302221E-05  -3.472223080528265E-05  -3.560119229307032E-05
  -3.650240295267604E-05  -3.742642593001549E-05  -3.837383862226359E-05
  -3.934523303837847E-05  -4.034121616873892E-05  -4.136241036412658E-05
  -4.240945372428738E-05  -4.348300049631504E-05  -4.458372148310413E-05
  -4.571230446212643E-05  -4.686945461479213E-05  -4.805589496666154E-05
  -4.927236683878232E-05  -5.051963031043234E-05  -5.179846469355553E-05
  -5.310966901918675E-05  -5.445406253616651E-05  -5.583248522245694E-05
  -5.724579830937614E-05  -5.869488481907593E-05  -6.018065011559863E-05
  -6.170402246985291E-05  -6.326595363886183E-05  -6.486741945964109E-05
  -6.650942045807660E-05  -6.819298247318014E-05  -6.991915729710907E-05
  -7.168902333134852E-05  -7.350368625946265E-05  -7.536427973683154E-05
  -7.727196609780329E-05  -7.922793708069736E-05  -8.123341457111064E-05
  -8.328965136398614E-05  -8.539793194491563E-05  -8.755957329116230E-05
  -8.977592569289689E-05  -9.204837359515841E-05  -9.437833646105926E-05
  -9.676726965676812E-05  -9.921666535882098E-05  -1.017280534843184E-04
  -1.043030026445865E-04  -1.069431211228903E-04  -1.096500578768036E-04
  -1.124255035658557E-04  -1.152711916050882E-04  -1.181888992451746E-04
  -1.211804486797672E-04  -1.242477081807565E-04  -1.273925932621428E-04
  -1.306170678732374E-04  -1.339231456219298E-04  -1.373128910287752E-04
  -1.407884208126724E-04  -1.443519052089280E-04  -1.480055693205147E-04
  -1.517516945033566E-04  -1.555926197864955E-04  -1.595307433280071E-04
  -1.635685239075669E-04  -1.677084824565795E-04  -1.719532036268116E-04
  -1.763053373984926E-04  -1.807676007288700E-04  -1.853427792422261E-04
  -1.900337289623984E-04  -1.948433780888607E-04  -1.997747288174537E-04
  -2.048308592068804E-04  -2.100149250921045E-04  -2.153301620458275E-04
  -2.207798873892368E-04  -2.263675022532570E-04  -2.320964936915609E-04
  -2.379704368466260E-04  -2.439929971701632E-04  -2.501679326992640E-04
  -2.564990963896548E-04  -2.629904385074786E-04  -2.696460090810523E-04
  -2.764699604140970E-04  -2.834665496619614E-04  -2.906401414724007E-04
  -2.979952106925169E-04  -3.055363451434896E-04  -3.132682484647876E-04
  -3.211957430295736E-04  -3.293237729330645E-04  -3.376574070556536E-04
  -3.462018422026343E-04  -3.549624063224268E-04  -3.639445618052368E-04
  -3.731539088641319E-04  -3.825961890005685E-04  -3.922772885564430E-04
  -4.022032423548014E-04  -4.123802374313869E-04  -4.228146168592514E-04
  -4.335128836687247E-04  -4.444817048650674E-04  -4.557279155462157E-04
  -4.672585231230581E-04  -4.790807116447567E-04  -4.912018462316839E-04
  -5.036294776185905E-04  -5.163713468107097E-04  -5.294353898555393E-04
  -5.428297427331209E-04  -5.565627463677024E-04  -5.706429517637202E-04
  -5.850791252691383E-04  -5.998802539692120E-04  -6.150555512138461E-04
  -6.306144622817788E-04  -6.465666701848820E-04  -6.629221016159803E-04
  -6.796909330436297E-04  -6.968835969573952E-04  -7.145107882672555E-04
  -7.325834708608075E-04  -7.511128843220809E-04  -7.701105508158076E-04
  -7.895882821411098E-04  -8.095581869586362E-04  -8.300326781952952E-04
  -8.510244806307756E-04  -8.725466386702029E-04  -8.946125243073162E-04
  -9.172358452826778E-04  -9.404306534415235E-04  -9.642113532959366E-04
  -9.885927107961747E-04  -1.013589862316034E-03  -1.039218323857272E-03
  -1.065494000478201E-03  -1.092433195951670E-03  -1.120052622657780E-03
  -1.148369411716770E-03  -1.177401123367626E-03  -1.207165757598096E-03
  -1.237681765031868E-03  -1.268968058078856E-03  -1.301044022354575E-03
  -1.333929528374772E-03  -1.367644943531570E-03  -1.402211144357486E-03
  -1.437649529083871E-03  -1.473982030500388E-03  -1.511231129122267E-03
  -1.549419866672272E-03  -1.588571859884339E-03  -1.628711314636087E-03
  -1.669863040417431E-03  -1.712052465142737E-03  -1.755305650314037E-03
  -1.799649306542976E-03  -1.845110809439307E-03  -1.891718215873854E-03
  -1.939500280624016E-03  -1.988486473410031E-03  -2.038706996330279E-03
  -2.090192801704161E-03  -2.142975610331104E-03  -2.197087930174412E-03
  -2.252563075478880E-03  -2.309435186331054E-03  -2.367739248671361E-03
  -2.427511114767253E-03  -2.488787524156781E-03  -2.551606125072055E-03
  -2.616005496352169E-03  -2.682025169855337E-03  -2.749705653380036E-03
  -2.819088454105079E-03  -2.890216102558684E-03  -2.963132177126578E-03
  -3.037881329109474E-03  -3.114509308340119E-03  -3.193062989370356E-03
  -3.273590398238648E-03  -3.356140739828531E-03  -3.440764425828665E-03
  -3.527513103305034E-03  -3.616439683895975E-03  -3.707598373640774E-03
  -3.801044703452421E-03  -3.896835560245366E-03  -3.995029218728899E-03
  -4.095685373876827E-03  -4.198865174084161E-03  -4.304631255021252E-03
  -4.413047774196063E-03  -4.524180446234868E-03  -4.638096578891739E-03
  -4.754865109797016E-03  -4.874556643954699E-03  -4.997243491998735E-03
  -5.122999709217739E-03  -5.251901135357596E-03  -5.384025435211137E-03
  -5.519452140003604E-03  -5.658262689582639E-03  -5.800540475420815E-03
  -5.946370884438537E-03  -6.095841343654726E-03  -6.249041365671961E-03
  -6.406062595002675E-03  -6.566998855241979E-03  -6.731946197092372E-03
  -6.901002947244847E-03  -7.074269758120003E-03  -7.251849658472379E-03
  -7.433848104859941E-03  -7.620373033980055E-03  -7.811534915872219E-03
  -8.007446807986542E-03  -8.208224410116344E-03  -8.413986120191470E-03
  -8.624853090927986E-03  -8.840949287328481E-03  -9.062401545025441E-03
  -9.289339629459107E-03  -9.521896295879014E-03  -9.760207350156881E-03
  -1.000441171039672E-02  -1.025465146932550E-02  -1.051107195744625E-02
  -1.077382180693258E-02  -1.104305301624144E-02  -1.131892101541839E-02
  -1.160158473206650E-02  -1.189120665794782E-02  -1.218795291618256E-02
  -1.249199332900811E-02  -1.280350148605686E-02  -1.312265481310749E-02
  -1.344963464126123E-02  -1.378462627648997E-02  -1.412781906949908E-02
  -1.447940648584324E-02  -1.483958617622830E-02  -1.520856004692813E-02
  -1.558653433023887E-02  -1.597371965488836E-02  -1.637033111631206E-02
  -1.677658834670038E-02  -1.719271558471662E-02  -1.761894174477675E-02
  -1.805550048577569E-02  -1.850263027913698E-02  -1.896057447605429E-02
  -1.942958137378567E-02  -1.990990428085162E-02  -2.040180158097941E-02
  -2.090553679562633E-02  -2.142137864490364E-02  -2.194960110671355E-02
  -2.249048347389913E-02  -2.304431040919597E-02  -2.361137199776229E-02
  -2.419196379705029E-02  -2.478638688376987E-02  -2.539494789768010E-02
  -2.601795908193003E-02  -2.665573831965526E-02  -2.730860916651962E-02
  -2.797690087887642E-02  -2.866094843720440E-02  -2.936109256445679E-02
  -3.007767973894246E-02  -3.081106220133800E-02  -3.156159795541050E-02
  -3.232965076200782E-02  -3.311559012585223E-02  -3.391979127465000E-02
  -3.474263513000508E-02  -3.558450826960145E-02  -3.644580288009184E-02
  -3.732691670010472E-02  -3.822825295275394E-02  -3.915022026700570E-02
  -4.009323258723049E-02  -4.105770907023474E-02  -4.204407396903703E-02
  -4.305275650262141E-02  -4.408419071086543E-02  -4.513881529380885E-02
  -4.621707343439164E-02  -4.731941260375395E-02  -4.844628434815544E-02
  -4.959814405653014E-02  -5.077545070765761E-02  -5.197866659588915E-02
  -5.320825703432784E-02  -5.446469003432097E-02  -5.574843596007924E-02
  -5.705996715719775E-02  -5.839975755380800E-02  -5.976828223304786E-02
  -6.116601697549343E-02  -6.259343777014992E-02  -6.405102029255898E-02
  -6.553923934853165E-02  -6.705856828197460E-02  -6.860947834523422E-02
  -7.019243803033766E-02  -7.180791235947247E-02  -7.345636213300097E-02
  -7.513824313326910E-02  -7.685400528243058E-02  -7.860409175247003E-02
  -8.038893802557788E-02  -8.220897090299610E-02  -8.406460746042697E-02
  -8.595625394807353E-02  -8.788430463335700E-02  -8.984914058434521E-02
  -9.185112839191048E-02  -9.389061882863263E-02  -9.596794544246470E-02
  -9.808342308318296E-02  -1.002373463596648E-01  -1.024299880260566E-01
  -1.046615972949308E-01  -1.069323980755744E-01  -1.092425871356053E-01
  -1.115923321841825E-01  -1.139817698751558E-01  -1.164110037285937E-01
  -1.188801019692448E-01  -1.213890952806074E-01  -1.239379744734389E-01
  -1.265266880676912E-01  -1.291551397870540E-01  -1.318231859654936E-01
  -1.345306328654096E-01  -1.372772339072926E-01  -1.400626868110542E-01
  -1.428866306495177E-01  -1.457486428149079E-01  -1.486482358995590E-01
  -1.515848544924809E-01  -1.545578718938775E-01  -1.575665867502063E-01
  -1.606102196129045E-01  -1.636879094244877E-01  -1.667987099363556E-01
  -1.699415860633086E-01  -1.731154101805076E-01  -1.763189583693852E-01
  -1.795509066198400E-01  -1.828098269969448E-01  -1.860941837813282E-01
  -1.894023295934031E-01  -1.927325015126731E-01  -1.960828172044716E-01
  -1.994512710676843E-01  -2.028357304182428E-01  -2.062339317245053E-01
  -2.096434769120071E-01  -2.130618297565071E-01  -2.164863123857595E-01
  -2.199141019119963E-01  -2.233422272187247E-01  -2.267675659271173E-01
  -2.301868415689845E-01  -2.335966209950935E-01  -2.369933120493914E-01
  -2.403731615415256E-01  -2.437322535519104E-01  -2.470665081054501E-01
  -2.503716802519013E-01  -2.536433595927050E-01  -2.568769702959481E-01
  -2.600677716428935E-01  -2.632108591512333E-01  -2.663011663218591E-01
  -2.693334670574594E-01  -2.723023788026537E-01  -2.752023664566033E-01
  -2.780277471100682E-01  -2.807726956597122E-01  -2.834312513529883E-01
  -2.859973253172062E-01  -2.884647091262895E-01  -2.908270844582474E-01
  -2.930780338954908E-01  -2.952110529187180E-01  -2.972195631431729E-01
  -2.990969268435670E-01  -3.008364628107760E-01  -3.024314635795716E-01
  -3.038752140619964E-01  -3.051610116155392E-01  -3.062821875689197E-01
  -3.072321302209935E-01  -3.080043093199959E-01  -3.085923020209792E-01
  -3.089898203088284E-01  -3.091907398626065E-01  -3.091891303241419E-01
  -3.089792869197021E-01  -3.085557633682675E-01  -3.079134059933170E-01
  -3.070473889371740E-01  -3.059532503578410E-01  -3.046269294679294E-01
  -3.030648042538120E-01  -3.012637296905901E-01  -2.992210762449581E-01
  -2.969347684337644E-01  -2.944033231811000E-01  -2.916258876914059E-01
  -2.886022765305542E-01  -2.853330075814443E-01  -2.818193365157534E-01
  -2.780632893993763E-01  -2.740676930263485E-01  -2.698362025550480E-01
  -2.653733260018135E-01  -2.606844451314110E-01  -2.557758322715697E-01
  -2.506546625709166E-01  -2.453290212166564E-01  -2.398079051311055E-01
  -2.341012186754779E-01  -2.282197629058497E-01  -2.221752179509047E-01
  -2.159801181145342E-01  -2.096478193494173E-01  -2.031924588010174E-01
  -1.966289061854375E-01  -1.899727068398737E-01  -1.832400163710692E-01
  -1.764475269253644E-01  -1.696123852134135E-01  -1.627521025427861E-01
  -1.558844572417635E-01  -1.490273899961931E-01  -1.421988927665989E-01
  -1.354168921025566E-01  -1.286991278225983E-01  -1.220630281772346E-01
  -1.155255827556767E-01  -1.091032145286233E-01  -1.028116525343616E-01
  -9.666580680683055E-02  -9.067964720519264E-02  -8.486608782678579E-02
  -7.923687866072782E-02  -7.380250605890795E-02  -6.857210345527875E-02
  -6.355337354403034E-02  -5.875252282307827E-02  -5.417420901286690E-02
  -4.982150136417966E-02  -4.569585326639555E-02  -4.179708585564860E-02
  -3.812338049955815E-02  -3.467127710425880E-02  -3.143567415759530E-02
  -2.840982530205971E-02  -2.558532604163836E-02  -2.295208295465224E-02
  -2.049825654525519E-02  -1.821016766417005E-02  -1.607476366176608E-02
  -1.408798012712964E-02  -1.224806656323596E-02  -1.055311638937484E-02
  -9.001022649925638E-03  -7.589425466395405E-03  -6.315651294221181E-03
  -5.176644168383038E-03  -4.168889253281627E-03  -3.288329152256853E-03
  -2.530273580398257E-03  -1.889303161310640E-03  -1.359168274488676E-03
  -9.326840556757032E-04  -6.016228395926415E-04  -3.566055338608543E-04
  -1.869936277717477E-04  -8.078377208842191E-05  -2.450712016399681E-05
  -3.135900419781734E-06   0.000000000000000E+00   0.000000000000000E+00
   0.000000000000000E+00   0.000000000000000E+00   0.000000000000000E+00
   0.000000000000000E+00   0.000000000000000E+00   0.000000000000000E+00
   0.000000000000000E+00   0.000000000000000E+00   0.000000000000000E+00
   0.000000000000000E+00   0.000000000000000E+00   0.000000000000000E+00
   0.000000000000000E+00   0.000000000000000E+00   0.000000000000000E+00
   0.000000000000000E+00   0.000000000000000E+00   0.000000000000000E+00
   0.000000000000000E+00   0.000000000000000E+00   0.000000000000000E+00
   0.000000000000000E+00   0.000000000000000E+00   0.000000000000000E+00
   0.000000000000000E+00   0.000000000000000E+00   0.000000000000000E+00
   0.000000000000000E+00   0.000000000000000E+00   0.000000000000000E+00
   0.000000000000000E+00   0.000000000000000E+00   0.000000000000000E+00
   0.000000000000000E+00   0.000000000000000E+00   0.000000000000000E+00
   0.000000000000000E+00   0.000000000000000E+00   0.000000000000000E+00
   0.000000000000000E+00   0.000000000000000E+00   0.000000000000000E+00
   0.000000000000000E+00   0.000000000000000E+00   0.000000000000000E+00
   0.000000000000000E+00   0.000000000000000E+00   0.000000000000000E+00
   0.000000000000000E+00   0.000000000000000E+00   0.000000000000000E+00
   0.000000000000000E+00   0.000000000000000E+00   0.000000000000000E+00
   0.000000000000000E+00   0.000000000000000E+00   0.000000000000000E+00
   0.000000000000000E+00   0.000000000000000E+00   0.000000000000000E+00
   0.000000000000000E+00   0.000000000000000E+00   0.000000000000000E+00
   0.000000000000000E+00   0.000000000000000E+00   0.000000000000000E+00
   0.000000000000000E+00   0.000000000000000E+00   0.000000000000000E+00
   0.000000000000000E+00   0.000000000000000E+00   0.000000000000000E+00
   0.000000000000000E+00   0.000000000000000E+00   0.000000000000000E+00
   0.000000000000000E+00   0.000000000000000E+00   0.000000000000000E+00
   0.000000000000000E+00   0.000000000000000E+00   0.000000000000000E+00
   0.000000000000000E+00   0.000000000000000E+00   0.000000000000000E+00
   0.000000000000000E+00   0.000000000000000E+00   0.000000000000000E+00
   0.000000000000000E+00   0.000000000000000E+00   0.000000000000000E+00
   0.000000000000000E+00   0.000000000000000E+00   0.000000000000000E+00
   0.000000000000000E+00   0.000000000000000E+00   0.000000000000000E+00
   0.000000000000000E+00   0.000000000000000E+00   0.000000000000000E+00
   0.000000000000000E+00   0.000000000000000E+00   0.000000000000000E+00
   0.000000000000000E+00   0.000000000000000E+00   0.000000000000000E+00
   0.000000000000000E+00   0.000000000000000E+00   0.000000000000000E+00
   0.000000000000000E+00   0.000000000000000E+00   0.000000000000000E+00
   0.000000000000000E+00   0.000000000000000E+00   0.000000000000000E+00
   0.000000000000000E+00   0.000000000000000E+00   0.000000000000000E+00
   0.000000000000000E+00   0.000000000000000E+00   0.000000000000000E+00
   0.000000000000000E+00   0.000000000000000E+00   0.000000000000000E+00
   0.000000000000000E+00   0.000000000000000E+00   0.000000000000000E+00
   0.000000000000000E+00   0.000000000000000E+00   0.000000000000000E+00
   0.000000000000000E+00   0.000000000000000E+00   0.000000000000000E+00
   0.000000000000000E+00   0.000000000000000E+00   0.000000000000000E+00
   0.000000000000000E+00   0.000000000000000E+00   0.000000000000000E+00
   0.000000000000000E+00   0.000000000000000E+00   0.000000000000000E+00
   0.000000000000000E+00   0.000000000000000E+00   0.000000000000000E+00
   0.000000000000000E+00   0.000000000000000E+00   0.000000000000000E+00
   0.000000000000000E+00   0.000000000000000E+00   0.000000000000000E+00
   0.000000000000000E+00   0.000000000000000E+00   0.000000000000000E+00
   0.000000000000000E+00   0.000000000000000E+00   0.000000000000000E+00
   0.000000000000000E+00   0.000000000000000E+00   0.000000000000000E+00
   0.000000000000000E+00   0.000000000000000E+00   0.000000000000000E+00
   0.000000000000000E+00   0.000000000000000E+00   0.000000000000000E+00
   0.000000000000000E+00   0.000000000000000E+00   0.000000000000000E+00
   0.000000000000000E+00   0.000000000000000E+00   0.000000000000000E+00
   0.000000000000000E+00   0.000000000000000E+00   0.000000000000000E+00
   0.000000000000000E+00   0.000000000000000E+00   0.000000000000000E+00
   0.000000000000000E+00   0.000000000000000E+00   0.000000000000000E+00
   0.000000000000000E+00   0.000000000000000E+00   0.000000000000000E+00
   0.000000000000000E+00   0.000000000000000E+00   0.000000000000000E+00
   0.000000000000000E+00   0.000000000000000E+00   0.000000000000000E+00
   0.000000000000000E+00   0.000000000000000E+00   0.000000000000000E+00
   0.000000000000000E+00   0.000000000000000E+00   0.000000000000000E+00
   0.000000000000000E+00   0.000000000000000E+00   0.000000000000000E+00
   0.000000000000000E+00   0.000000000000000E+00   0.000000000000000E+00
   0.000000000000000E+00   0.000000000000000E+00   0.000000000000000E+00
   0.000000000000000E+00   0.000000000000000E+00   0.000000000000000E+00
   0.000000000000000E+00   0.000000000000000E+00   0.000000000000000E+00
   0.000000000000000E+00   0.000000000000000E+00   0.000000000000000E+00
   0.000000000000000E+00   0.000000000000000E+00   0.000000000000000E+00
   0.000000000000000E+00   0.000000000000000E+00   0.000000000000000E+00
   0.000000000000000E+00   0.000000000000000E+00   0.000000000000000E+00
   0.000000000000000E+00   0.000000000000000E+00   0.000000000000000E+00
   0.000000000000000E+00   0.000000000000000E+00   0.000000000000000E+00
   0.000000000000000E+00   0.000000000000000E+00   0.000000000000000E+00
   0.000000000000000E+00   0.000000000000000E+00   0.000000000000000E+00
   0.000000000000000E+00   0.000000000000000E+00   0.000000000000000E+00
   0.000000000000000E+00   0.000000000000000E+00   0.000000000000000E+00
   0.000000000000000E+00   0.000000000000000E+00   0.000000000000000E+00
   0.000000000000000E+00   0.000000000000000E+00   0.000000000000000E+00
   0.000000000000000E+00   0.000000000000000E+00   0.000000000000000E+00
   0.000000000000000E+00   0.000000000000000E+00   0.000000000000000E+00
   0.000000000000000E+00   0.000000000000000E+00   0.000000000000000E+00
   0.000000000000000E+00   0.000000000000000E+00   0.000000000000000E+00
   0.000000000000000E+00   0.000000000000000E+00   0.000000000000000E+00
   0.000000000000000E+00   0.000000000000000E+00   0.000000000000000E+00
   0.000000000000000E+00   0.000000000000000E+00   0.000000000000000E+00
   0.000000000000000E+00   0.000000000000000E+00   0.000000000000000E+00
   0.000000000000000E+00   0.000000000000000E+00   0.000000000000000E+00
   0.000000000000000E+00   0.000000000000000E+00   0.000000000000000E+00
   0.000000000000000E+00   0.000000000000000E+00   0.000000000000000E+00
   0.000000000000000E+00   0.000000000000000E+00   0.000000000000000E+00
   0.000000000000000E+00   0.000000000000000E+00   0.000000000000000E+00
   0.000000000000000E+00   0.000000000000000E+00   0.000000000000000E+00
   0.000000000000000E+00   0.000000000000000E+00   0.000000000000000E+00
   0.000000000000000E+00   0.000000000000000E+00   0.000000000000000E+00
   0.000000000000000E+00   0.000000000000000E+00   0.000000000000000E+00
   0.000000000000000E+00   0.000000000000000E+00   0.000000000000000E+00
   0.000000000000000E+00   0.000000000000000E+00   0.000000000000000E+00
   0.000000000000000E+00   0.000000000000000E+00   0.000000000000000E+00
   0.000000000000000E+00   0.000000000000000E+00   0.000000000000000E+00
   0.000000000000000E+00   0.000000000000000E+00   0.000000000000000E+00
   0.000000000000000E+00   0.000000000000000E+00   0.000000000000000E+00
   0.000000000000000E+00   0.000000000000000E+00   0.000000000000000E+00
   0.000000000000000E+00   0.000000000000000E+00   0.000000000000000E+00
   0.000000000000000E+00   0.000000000000000E+00   0.000000000000000E+00
   0.000000000000000E+00   0.000000000000000E+00   0.000000000000000E+00
   0.000000000000000E+00   0.000000000000000E+00   0.000000000000000E+00
   0.000000000000000E+00   0.000000000000000E+00   0.000000000000000E+00
   0.000000000000000E+00   0.000000000000000E+00   0.000000000000000E+00
   0.000000000000000E+00   0.000000000000000E+00   0.000000000000000E+00
   0.000000000000000E+00   0.000000000000000E+00   0.000000000000000E+00
   0.000000000000000E+00   0.000000000000000E+00   0.000000000000000E+00
      </PP_QIJL.1.1.0>
      <PP_QIJL.1.2.0 first_index="1" second_index="2" composite_index="2" angular_momentum="0" size="1095">
  -4.660264308732061E-08  -4.778239453580525E-08  -4.899201153039659E-08
  -5.023225012078863E-08  -5.150388549615426E-08  -5.280771246966241E-08
  -5.414454597526159E-08  -5.551522157703931E-08  -5.692059599147557E-08
  -5.836154762291827E-08  -5.983897711261268E-08  -6.135380790163090E-08
  -6.290698680805140E-08  -6.449948461874980E-08  -6.613229669617152E-08
  -6.780644360046368E-08  -6.952297172735742E-08  -7.128295396219784E-08
  -7.308749035053053E-08  -7.493770878566475E-08  -7.683476571364115E-08
  -7.877984685604664E-08  -8.077416795112722E-08  -8.281897551366179E-08
  -8.491554761407300E-08  -8.706519467725963E-08  -8.926926030165349E-08
  -9.152912209900928E-08  -9.384619255545420E-08  -9.622191991433589E-08
  -9.865778908141772E-08  -1.011553225529911E-07  -1.037160813674818E-07
  -1.063416660811466E-07  -1.090337177684701E-07  -1.117939190478854E-07
  -1.146239951334617E-07  -1.175257149132161E-07  -1.205008920547208E-07
  -1.235513861387015E-07  -1.266791038213298E-07  -1.298860000259416E-07
  -1.331740791649219E-07  -1.365453963925231E-07  -1.400020588893979E-07
  -1.435462271796492E-07  -1.471801164812218E-07  -1.509059980904797E-07
  -1.547262008018331E-07  -1.586431123633041E-07  -1.626591809689383E-07
  -1.667769167889985E-07  -1.709988935388944E-07  -1.753277500878292E-07
  -1.797661921081708E-07  -1.843169937665739E-07  -1.889829994579148E-07
  -1.937671255831202E-07  -1.986723623720009E-07  -2.037017757522324E-07
  -2.088585092656446E-07  -2.141457860330265E-07  -2.195669107686671E-07
  -2.251252718458946E-07  -2.308243434149063E-07  -2.366676875742072E-07
  -2.426589565970224E-07  -2.488018952140685E-07  -2.551003429541128E-07
  -2.615582365437863E-07  -2.681796123681429E-07  -2.749686089935111E-07
  -2.819294697542097E-07  -2.890665454047454E-07  -2.963842968391533E-07
  -3.038872978791704E-07  -3.115802381329980E-07  -3.194679259264300E-07
  -3.275552913081811E-07  -3.358473891312978E-07  -3.443494022125690E-07
  -3.530666445719219E-07  -3.620045647538187E-07  -3.711687492327348E-07
  -3.805649259048479E-07  -3.901989676681122E-07  -4.000768960929677E-07
  -4.102048851859684E-07  -4.205892652486867E-07  -4.312365268343069E-07
  -4.421533248043724E-07  -4.533464824882345E-07  -4.648229959477926E-07
  -4.765900383501955E-07  -4.886549644512383E-07  -5.010253151922477E-07
  -5.137088224133441E-07  -5.267134136860121E-07  -5.400472172680068E-07
  -5.537185671836959E-07  -5.677360084329967E-07  -5.821083023321876E-07
  -5.968444319899121E-07  -6.119536079218058E-07  -6.274452738072605E-07
  -6.433291123919059E-07  -6.596150515395205E-07  -6.763132704371369E-07
  -6.934342059572279E-07  -7.109885591809493E-07  -7.289873020865067E-07
  -7.474416844068416E-07  -7.663632406609132E-07  -7.857637973629691E-07
  -8.056554804143211E-07  -8.260507226822250E-07  -8.469622717706269E-07
  -8.684031979876136E-07  -8.903869025145522E-07  -9.129271257820311E-07
  -9.360379560578170E-07  -9.597338382522248E-07  -9.840295829463727E-07
  -1.008940375648990E-06  -1.034481786287553E-06  -1.060669778939660E-06
  -1.087520721810774E-06  -1.115051397464521E-06  -1.143279013311965E-06
  -1.172221212366412E-06  -1.201896084270446E-06  -1.232322176602111E-06
  -1.263518506467299E-06  -1.295504572385572E-06  -1.328300366476875E-06
  -1.361926386956723E-06  -1.396403650947694E-06  -1.431753707615235E-06
  -1.467998651635964E-06  -1.505161137006928E-06  -1.543264391204389E-06
  -1.582332229701048E-06  -1.622389070850732E-06  -1.663459951149865E-06
  -1.705570540885270E-06  -1.748747160178045E-06  -1.793016795433581E-06
  -1.838407116207978E-06  -1.884946492501392E-06  -1.932664012489153E-06
  -1.981589500701681E-06  -2.031753536664614E-06  -2.083187474010764E-06
  -2.135923460075845E-06  -2.189994455990248E-06  -2.245434257279349E-06
  -2.302277514985314E-06  -2.360559757323529E-06  -2.420317411887205E-06
  -2.481587828414062E-06  -2.544409302129256E-06  -2.608821097679204E-06
  -2.674863473671216E-06  -2.742577707834268E-06  -2.812006122816698E-06
  -2.883192112636793E-06  -2.956180169803034E-06  -3.031015913120672E-06
  -3.107746116202227E-06  -3.186418736699621E-06  -3.267082946276162E-06
  -3.349789161337296E-06  -3.434589074539058E-06  -3.521535687094135E-06
  -3.610683341895648E-06  -3.702087757479217E-06  -3.795806062844839E-06
  -3.891896833159953E-06  -3.990420126366296E-06  -4.091437520713297E-06
  -4.195012153241378E-06  -4.301208759239453E-06  -4.410093712700945E-06
  -4.521735067803862E-06  -4.636202601440746E-06  -4.753567856824947E-06
  -4.873904188200760E-06  -4.997286806684985E-06  -5.123792827268827E-06
  -5.253501317009404E-06  -5.386493344440826E-06  -5.522852030236059E-06
  -5.662662599150752E-06  -5.806012433281886E-06  -5.952991126674299E-06
  -6.103690541309109E-06  -6.258204864509357E-06  -6.416630667798252E-06
  -6.579066967247143E-06  -6.745615285350830E-06  -6.916379714468557E-06
  -7.091466981870918E-06  -7.270986516432572E-06  -7.455050517013008E-06
  -7.643774022567782E-06  -7.837274984033868E-06  -8.035674338034531E-06
  -8.239096082449058E-06  -8.447667353895082E-06  -8.661518507171666E-06
  -8.880783196712558E-06  -9.105598460101000E-06  -9.336104803697567E-06
  -9.572446290435013E-06  -9.814770629834768E-06  -1.006322927030102E-05
  -1.031797749375060E-05  -1.057917451263704E-05  -1.084698356942988E-05
  -1.112157203861114E-05  -1.140311153125242E-05  -1.169177800223848E-05
  -1.198775186020339E-05  -1.229121808024862E-05  -1.260236631951311E-05
  -1.292139103566703E-05  -1.324849160840423E-05  -1.358387246400795E-05
  -1.392774320306837E-05  -1.428031873143154E-05  -1.464181939446080E-05
  -1.501247111469567E-05  -1.539250553299255E-05  -1.578216015323661E-05
  -1.618167849071455E-05  -1.659131022424042E-05  -1.701131135213051E-05
  -1.744194435212313E-05  -1.788347834534432E-05  -1.833618926442109E-05
  -1.880036002584668E-05  -1.927628070670664E-05  -1.976424872587419E-05
  -2.026456902978916E-05  -2.077755428293589E-05  -2.130352506313856E-05
  -2.184281006179622E-05  -2.239574628918189E-05  -2.296267928493383E-05
  -2.354396333387051E-05  -2.413996168726297E-05  -2.475104678970342E-05
  -2.537760051171063E-05  -2.602001438821751E-05  -2.667868986308947E-05
  -2.735403853982529E-05  -2.804648243859775E-05  -2.875645425979274E-05
  -2.948439765421234E-05  -3.023076750010918E-05  -3.099603018722486E-05
  -3.178066390800959E-05  -3.258515895620370E-05  -3.341001803296757E-05
  -3.425575656075022E-05  -3.512290300509145E-05  -3.601199920455894E-05
  -3.692360070902412E-05  -3.785827712648858E-05  -3.881661247867612E-05
  -3.979920556561134E-05  -4.080667033941260E-05  -4.183963628753030E-05
  -4.289874882567008E-05  -4.398466970064457E-05  -4.509807740340395E-05
  -4.623966759250275E-05  -4.741015352826500E-05  -4.861026651791844E-05
  -4.984075637197403E-05  -5.110239187213362E-05  -5.239596125101754E-05
  -5.372227268400875E-05  -5.508215479351985E-05  -5.647645716599567E-05
  -5.790605088197169E-05  -5.937182905951862E-05  -6.087470741140836E-05
  -6.241562481634880E-05  -6.399554390464073E-05  -6.561545165861951E-05
  -6.727636002825551E-05  -6.897930656229237E-05  -7.072535505531639E-05
  -7.251559621115691E-05  -7.435114832302794E-05  -7.623315797083396E-05
  -7.816280073606945E-05  -8.014128193475629E-05  -8.216983736887212E-05
  -8.424973409673335E-05  -8.638227122281134E-05  -8.856878070746803E-05
  -9.081062819711282E-05  -9.310921387529357E-05  -9.546597333524618E-05
  -9.788237847444393E-05  -1.003599384116962E-04  -1.029002004273648E-04
  -1.055047509272769E-04  -1.081752164309287E-04  -1.109132645845907E-04
  -1.137206051999369E-04  -1.165989913188394E-04  -1.195502203049843E-04
  -1.225761349629792E-04  -1.256786246856435E-04  -1.288596266301845E-04
  -1.321211269239859E-04  -1.354651619007469E-04  -1.388938193677322E-04
  -1.424092399049132E-04  -1.460136181967942E-04  -1.497092043977440E-04
  -1.534983055316689E-04  -1.573832869268862E-04  -1.613665736870731E-04
  -1.654506521991992E-04  -1.696380716793586E-04  -1.739314457574506E-04
  -1.783334541016790E-04  -1.828468440838571E-04  -1.874744324865427E-04
  -1.922191072530395E-04  -1.970838292813347E-04  -2.020716342630667E-04
  -2.071856345686396E-04  -2.124290211796373E-04  -2.178050656697092E-04
  -2.233171222351320E-04  -2.289686297762839E-04  -2.347631140312886E-04
  -2.407041897631319E-04  -2.467955630015682E-04  -2.530410333411804E-04
  -2.594444962969823E-04  -2.660099457189837E-04  -2.727414762671844E-04
  -2.796432859484841E-04  -2.867196787170415E-04  -2.939750671396504E-04
  -3.014139751277294E-04  -3.090410407375800E-04  -3.168610190405840E-04
  -3.248787850650690E-04  -3.330993368116044E-04  -3.415277983435292E-04
  -3.501694229545654E-04  -3.590295964154074E-04  -3.681138403012226E-04
  -3.774278154020515E-04  -3.869773252181268E-04  -3.967683195422039E-04
  -4.068068981310169E-04  -4.170993144680430E-04  -4.276519796198045E-04
  -4.384714661879786E-04  -4.495645123596621E-04  -4.609380260581674E-04
  -4.725990891967961E-04  -4.845549620380951E-04  -4.968130876611375E-04
  -5.093810965394651E-04  -5.222668112323499E-04  -5.354782511921261E-04
  -5.490236376903867E-04  -5.629113988659036E-04  -5.771501748972154E-04
  -5.917488233028650E-04  -6.067164243723541E-04  -6.220622867309557E-04
  -6.377959530415660E-04  -6.539272058468974E-04  -6.704660735553373E-04
  -6.874228365739063E-04  -7.048080335918058E-04  -7.226324680181398E-04
  -7.409072145774425E-04  -7.596436260667687E-04  -7.788533402781427E-04
  -7.985482870902658E-04  -8.187406957334683E-04  -8.394431022319516E-04
  -8.606683570274976E-04  -8.824296327888599E-04  -9.047404324111823E-04
  -9.276145972098547E-04  -9.510663153133116E-04  -9.751101302593900E-04
  -9.997609497999383E-04  -1.025034054918464E-03  -1.050945109065726E-03
  -1.077510167618241E-03  -1.104745687564811E-03  -1.132668537426250E-03
  -1.161296007413602E-03  -1.190645819830259E-03  -1.220736139723441E-03
  -1.251585585790678E-03  -1.283213241546989E-03  -1.315638666758558E-03
  -1.348881909148858E-03  -1.382963516383209E-03  -1.417904548337966E-03
  -1.453726589660531E-03  -1.490451762626579E-03  -1.528102740300961E-03
  -1.566702760008830E-03  -1.606275637123734E-03  -1.646845779179422E-03
  -1.688438200312292E-03  -1.731078536041517E-03  -1.774793058393917E-03
  -1.819608691380885E-03  -1.865553026834652E-03  -1.912654340611373E-03
  -1.960941609168580E-03  -2.010444526524628E-03  -2.061193521607955E-03
  -2.113219776003961E-03  -2.166555242107484E-03  -2.221232661688942E-03
  -2.277285584882229E-03  -2.334748389602668E-03  -2.393656301403289E-03
  -2.454045413777839E-03  -2.515952708919042E-03  -2.579416078940550E-03
  -2.644474347571341E-03  -2.711167292331119E-03  -2.779535667195508E-03
  -2.849621225759801E-03  -2.921466744910053E-03  -2.995116049010422E-03
  -3.070614034615581E-03  -3.148006695717100E-03  -3.227341149532727E-03
  -3.308665662847350E-03  -3.392029678914639E-03  -3.477483844928097E-03
  -3.565080040070344E-03  -3.654871404149413E-03  -3.746912366830587E-03
  -3.841258677472496E-03  -3.937967435575842E-03  -4.037097121853081E-03
  -4.138707629927325E-03  -4.242860298668340E-03  -4.349617945173644E-03
  -4.459044898402176E-03  -4.571207033467970E-03  -4.686171806600982E-03
  -4.804008290781716E-03  -4.924787212056388E-03  -5.048580986538509E-03
  -5.175463758102774E-03  -5.305511436776520E-03  -5.438801737833500E-03
  -5.575414221594468E-03  -5.715430333938191E-03  -5.858933447526130E-03
  -6.006008903743357E-03  -6.156744055357388E-03  -6.311228309896196E-03
  -6.469553173745549E-03  -6.631812296965084E-03  -6.798101518821676E-03
  -6.968518914037349E-03  -7.143164839748411E-03  -7.322141983170834E-03
  -7.505555409965967E-03  -7.693512613299411E-03  -7.886123563584129E-03
  -8.083500758897903E-03  -8.285759276063219E-03  -8.493016822376184E-03
  -8.705393787969345E-03  -8.923013298791074E-03  -9.146001270182655E-03
  -9.374486461031560E-03  -9.608600528477437E-03  -9.848478083144940E-03
  -1.009425674487454E-02  -1.034607719892054E-02  -1.060408325258182E-02
  -1.086842189222836E-02  -1.113924334068331E-02  -1.141670111491650E-02
  -1.170095208400264E-02  -1.199215652729282E-02  -1.229047819274425E-02
  -1.259608435534934E-02  -1.290914587559996E-02  -1.322983725791906E-02
  -1.355833670898609E-02  -1.389482619587792E-02  -1.423949150394156E-02
  -1.459252229430861E-02  -1.495411216095657E-02  -1.532445868721448E-02
  -1.570376350160456E-02  -1.609223233290438E-02  -1.649007506430624E-02
  -1.689750578654380E-02  -1.731474284984669E-02  -1.774200891457633E-02
  -1.817953100038688E-02  -1.862754053374579E-02  -1.908627339363919E-02
  -1.955596995527686E-02  -2.003687513160057E-02  -2.052923841238925E-02
  -2.103331390074160E-02  -2.154936034670595E-02  -2.207764117781321E-02
  -2.261842452625622E-02  -2.317198325244483E-02  -2.373859496465092E-02
  -2.431854203444382E-02  -2.491211160759949E-02  -2.551959561015130E-02
  -2.614129074923312E-02  -2.677749850834701E-02  -2.742852513667088E-02
  -2.809468163200057E-02  -2.877628371690232E-02  -2.947365180763038E-02
  -3.018711097534274E-02  -3.091699089912709E-02  -3.166362581032457E-02
  -3.242735442761635E-02  -3.320851988231309E-02  -3.400746963326119E-02
  -3.482455537075545E-02  -3.566013290881870E-02  -3.651456206518212E-02
  -3.738820652827179E-02  -3.828143371047567E-02  -3.919461458693763E-02
  -4.012812351909156E-02  -4.108233806211821E-02  -4.205763875547473E-02
  -4.305440889561225E-02  -4.407303428996515E-02  -4.511390299125884E-02
  -4.617740501114871E-02  -4.726393201216757E-02  -4.837387697692058E-02
  -4.950763385343337E-02  -5.066559717551877E-02  -5.184816165699238E-02
  -5.305572175852958E-02  -5.428867122591786E-02  -5.554740259842413E-02
  -5.683230668595652E-02  -5.814377201366563E-02  -5.948218423259466E-02
  -6.084792549495009E-02  -6.224137379253532E-02  -6.366290225685182E-02
  -6.511287841934497E-02  -6.659166343024073E-02  -6.809961123439115E-02
  -6.963706770252512E-02  -7.120436971627477E-02  -7.280184420533192E-02
  -7.442980713507340E-02  -7.608856244298062E-02  -7.777840092217712E-02
  -7.949959905040097E-02  -8.125241776273691E-02  -8.303710116644325E-02
  -8.485387519622310E-02  -8.670294620831996E-02  -8.858449951184628E-02
  -9.049869783579928E-02  -9.244567973027043E-02  -9.442555790041764E-02
  -9.643841747184709E-02  -9.848431418613840E-02  -1.005632725253494E-01
  -1.026752837644555E-01  -1.048203039508106E-01  -1.069982518098707E-01
  -1.092090065765877E-01  -1.114524057520756E-01  -1.137282427853595E-01
  -1.160362646802532E-01  -1.183761695276752E-01  -1.207476039639925E-01
  -1.231501605562993E-01  -1.255833751158798E-01  -1.280467239414786E-01
  -1.305396209944100E-01  -1.330614150079802E-01  -1.356113865341743E-01
  -1.381887449310794E-01  -1.407926252950691E-01  -1.434220853423812E-01
  -1.460761022453568E-01  -1.487535694293037E-01  -1.514532933366826E-01
  -1.541739901660968E-01  -1.569142825944090E-01  -1.596726964911898E-01
  -1.624476576356471E-01  -1.652374884471786E-01  -1.680404047417361E-01
  -1.708545125273008E-01  -1.736778048529179E-01  -1.765081587269610E-01
  -1.793433321215563E-01  -1.821809610814231E-01  -1.850185569567523E-01
  -1.878535037811674E-01  -1.906830558172750E-01  -1.935043352938193E-01
  -1.963143303599927E-01  -1.991098932840372E-01  -2.018877389248593E-01
  -2.046444435070000E-01  -2.073764437309225E-01  -2.100800362521938E-01
  -2.127513775647446E-01  -2.153864843249600E-01  -2.179812341548843E-01
  -2.205313669642941E-01  -2.230324868327767E-01  -2.254800644942437E-01
  -2.278694404674709E-01  -2.301958288772685E-01  -2.324543220117273E-01
  -2.346398956616111E-01  -2.367474152883696E-01  -2.387716430673495E-01
  -2.407072458526004E-01  -2.425488041091274E-01  -2.442908218574966E-01
  -2.459277376743418E-01  -2.474539367904432E-01  -2.488637643256733E-01
  -2.501515396971201E-01  -2.513115722330866E-01  -2.523381780213677E-01
  -2.532256980151574E-01  -2.539685174140996E-01  -2.545610863313040E-01
  -2.549979417495518E-01  -2.552737307613749E-01  -2.553832350781421E-01
  -2.553213967827063E-01  -2.550833452885061E-01  -2.546644254552506E-01
  -2.540602267974290E-01  -2.532666137068662E-01  -2.522797565943999E-01
  -2.510961638384930E-01  -2.497127144102677E-01  -2.481266910250998E-01
  -2.463358136506262E-01  -2.443382731798972E-01  -2.421327650565834E-01
  -2.397185226167840E-01  -2.370953498892651E-01  -2.342636535731473E-01
  -2.312244738893885E-01  -2.279795139802102E-01  -2.245311675092672E-01
  -2.208825440951983E-01  -2.170374921927616E-01  -2.130006190194537E-01
  -2.087773071119347E-01  -2.043737270863283E-01  -1.997968461700800E-01
  -1.950544320713332E-01  -1.901550517552868E-01  -1.851080647065300E-01
  -1.799236102726361E-01  -1.746125887079899E-01  -1.691866355687637E-01
  -1.636580891506756E-01  -1.580399507113876E-01  -1.523458372796093E-01
  -1.465899269235519E-01  -1.407868964326673E-01  -1.349518514585829E-01
  -1.291002492637046E-01  -1.232478143386926E-01  -1.174104472720403E-01
  -1.116041273853403E-01  -1.058448097847517E-01  -1.001483176207627E-01
  -9.453023049195326E-02  -8.900577007083758E-02  -8.358968416737395E-02
  -7.829613057369703E-02  -7.313856214703680E-02  -6.812961468072613E-02
  -6.328099917906062E-02  -5.860340018346152E-02  -5.410638178699841E-02
  -4.979830291363937E-02  -4.568624331902252E-02  -4.177594158221842E-02
  -3.807174609439099E-02  -3.457657970211454E-02  -3.129191822305203E-02
  -2.821778251363431E-02  -2.535274312793757E-02  -2.269393586241410E-02
  -2.023708563368504E-02  -1.797653519160285E-02  -1.590527413723875E-02
  -1.401496261110416E-02  -1.229594286322234E-02  -1.073723074359286E-02
  -9.326477997740501E-03  -8.049895165334799E-03  -6.894093755374586E-03
  -5.852372197955147E-03  -4.919669246138181E-03  -4.090723595532197E-03
  -3.360074285844505E-03  -2.722061814029397E-03  -2.170830939461688E-03
  -1.700336325917595E-03  -1.304352332491543E-03  -9.764884331505130E-04
  -7.102119090682257E-04  -4.988796159715037E-04  -3.357807757918274E-04
  -2.141928733479792E-04  -1.274528491248261E-04  -6.904586172659655E-05
  -3.271394165932362E-05  -1.258686310234847E-05  -3.337513423434801E-06
  -3.639311343672791E-07   0.000000000000000E+00   0.000000000000000E+00
   0.000000000000000E+00   0.000000000000000E+00   0.000000000000000E+00
   0.000000000000000E+00   0.000000000000000E+00   0.000000000000000E+00
   0.000000000000000E+00   0.000000000000000E+00   0.000000000000000E+00
   0.000000000000000E+00   0.000000000000000E+00   0.000000000000000E+00
   0.000000000000000E+00   0.000000000000000E+00   0.000000000000000E+00
   0.000000000000000E+00   0.000000000000000E+00   0.000000000000000E+00
   0.000000000000000E+00   0.000000000000000E+00   0.000000000000000E+00
   0.000000000000000E+00   0.000000000000000E+00   0.000000000000000E+00
   0.000000000000000E+00   0.000000000000000E+00   0.000000000000000E+00
   0.000000000000000E+00   0.000000000000000E+00   0.000000000000000E+00
   0.000000000000000E+00   0.000000000000000E+00   0.000000000000000E+00
   0.000000000000000E+00   0.000000000000000E+00   0.000000000000000E+00
   0.000000000000000E+00   0.000000000000000E+00   0.000000000000000E+00
   0.000000000000000E+00   0.000000000000000E+00   0.000000000000000E+00
   0.000000000000000E+00   0.000000000000000E+00   0.000000000000000E+00
   0.000000000000000E+00   0.000000000000000E+00   0.000000000000000E+00
   0.000000000000000E+00   0.000000000000000E+00   0.000000000000000E+00
   0.000000000000000E+00   0.000000000000000E+00   0.000000000000000E+00
   0.000000000000000E+00   0.000000000000000E+00   0.000000000000000E+00
   0.000000000000000E+00   0.000000000000000E+00   0.000000000000000E+00
   0.000000000000000E+00   0.000000000000000E+00   0.000000000000000E+00
   0.000000000000000E+00   0.000000000000000E+00   0.000000000000000E+00
   0.000000000000000E+00   0.000000000000000E+00   0.000000000000000E+00
   0.000000000000000E+00   0.000000000000000E+00   0.000000000000000E+00
   0.000000000000000E+00   0.000000000000000E+00   0.000000000000000E+00
   0.000000000000000E+00   0.000000000000000E+00   0.000000000000000E+00
   0.000000000000000E+00   0.000000000000000E+00   0.000000000000000E+00
   0.000000000000000E+00   0.000000000000000E+00   0.000000000000000E+00
   0.000000000000000E+00   0.000000000000000E+00   0.000000000000000E+00
   0.000000000000000E+00   0.000000000000000E+00   0.000000000000000E+00
   0.000000000000000E+00   0.000000000000000E+00   0.000000000000000E+00
   0.000000000000000E+00   0.000000000000000E+00   0.000000000000000E+00
   0.000000000000000E+00   0.000000000000000E+00   0.000000000000000E+00
   0.000000000000000E+00   0.000000000000000E+00   0.000000000000000E+00
   0.000000000000000E+00   0.000000000000000E+00   0.000000000000000E+00
   0.000000000000000E+00   0.000000000000000E+00   0.000000000000000E+00
   0.000000000000000E+00   0.000000000000000E+00   0.000000000000000E+00
   0.000000000000000E+00   0.000000000000000E+00   0.000000000000000E+00
   0.000000000000000E+00   0.000000000000000E+00   0.000000000000000E+00
   0.000000000000000E+00   0.000000000000000E+00   0.000000000000000E+00
   0.000000000000000E+00   0.000000000000000E+00   0.000000000000000E+00
   0.000000000000000E+00   0.000000000000000E+00   0.000000000000000E+00
   0.000000000000000E+00   0.000000000000000E+00   0.000000000000000E+00
   0.000000000000000E+00   0.000000000000000E+00   0.000000000000000E+00
   0.000000000000000E+00   0.000000000000000E+00   0.000000000000000E+00
   0.000000000000000E+00   0.000000000000000E+00   0.000000000000000E+00
   0.000000000000000E+00   0.000000000000000E+00   0.000000000000000E+00
   0.000000000000000E+00   0.000000000000000E+00   0.000000000000000E+00
   0.000000000000000E+00   0.000000000000000E+00   0.000000000000000E+00
   0.000000000000000E+00   0.000000000000000E+00   0.000000000000000E+00
   0.000000000000000E+00   0.000000000000000E+00   0.000000000000000E+00
   0.000000000000000E+00   0.000000000000000E+00   0.000000000000000E+00
   0.000000000000000E+00   0.000000000000000E+00   0.000000000000000E+00
   0.000000000000000E+00   0.000000000000000E+00   0.000000000000000E+00
   0.000000000000000E+00   0.000000000000000E+00   0.000000000000000E+00
   0.000000000000000E+00   0.000000000000000E+00   0.000000000000000E+00
   0.000000000000000E+00   0.000000000000000E+00   0.000000000000000E+00
   0.000000000000000E+00   0.000000000000000E+00   0.000000000000000E+00
   0.000000000000000E+00   0.000000000000000E+00   0.000000000000000E+00
   0.000000000000000E+00   0.000000000000000E+00   0.000000000000000E+00
   0.000000000000000E+00   0.000000000000000E+00   0.000000000000000E+00
   0.000000000000000E+00   0.000000000000000E+00   0.000000000000000E+00
   0.000000000000000E+00   0.000000000000000E+00   0.000000000000000E+00
   0.000000000000000E+00   0.000000000000000E+00   0.000000000000000E+00
   0.000000000000000E+00   0.000000000000000E+00   0.000000000000000E+00
   0.000000000000000E+00   0.000000000000000E+00   0.000000000000000E+00
   0.000000000000000E+00   0.000000000000000E+00   0.000000000000000E+00
   0.000000000000000E+00   0.000000000000000E+00   0.000000000000000E+00
   0.000000000000000E+00   0.000000000000000E+00   0.000000000000000E+00
   0.000000000000000E+00   0.000000000000000E+00   0.000000000000000E+00
   0.000000000000000E+00   0.000000000000000E+00   0.000000000000000E+00
   0.000000000000000E+00   0.000000000000000E+00   0.000000000000000E+00
   0.000000000000000E+00   0.000000000000000E+00   0.000000000000000E+00
   0.000000000000000E+00   0.000000000000000E+00   0.000000000000000E+00
   0.000000000000000E+00   0.000000000000000E+00   0.000000000000000E+00
   0.000000000000000E+00   0.000000000000000E+00   0.000000000000000E+00
   0.000000000000000E+00   0.000000000000000E+00   0.000000000000000E+00
   0.000000000000000E+00   0.000000000000000E+00   0.000000000000000E+00
   0.000000000000000E+00   0.000000000000000E+00   0.000000000000000E+00
   0.000000000000000E+00   0.000000000000000E+00   0.000000000000000E+00
   0.000000000000000E+00   0.000000000000000E+00   0.000000000000000E+00
   0.000000000000000E+00   0.000000000000000E+00   0.000000000000000E+00
   0.000000000000000E+00   0.000000000000000E+00   0.000000000000000E+00
   0.000000000000000E+00   0.000000000000000E+00   0.000000000000000E+00
   0.000000000000000E+00   0.000000000000000E+00   0.000000000000000E+00
   0.000000000000000E+00   0.000000000000000E+00   0.000000000000000E+00
   0.000000000000000E+00   0.000000000000000E+00   0.000000000000000E+00
   0.000000000000000E+00   0.000000000000000E+00   0.000000000000000E+00
   0.000000000000000E+00   0.000000000000000E+00   0.000000000000000E+00
   0.000000000000000E+00   0.000000000000000E+00   0.000000000000000E+00
   0.000000000000000E+00   0.000000000000000E+00   0.000000000000000E+00
   0.000000000000000E+00   0.000000000000000E+00   0.000000000000000E+00
   0.000000000000000E+00   0.000000000000000E+00   0.000000000000000E+00
   0.000000000000000E+00   0.000000000000000E+00   0.000000000000000E+00
   0.000000000000000E+00   0.000000000000000E+00   0.000000000000000E+00
   0.000000000000000E+00   0.000000000000000E+00   0.000000000000000E+00
   0.000000000000000E+00   0.000000000000000E+00   0.000000000000000E+00
   0.000000000000000E+00   0.000000000000000E+00   0.000000000000000E+00
   0.000000000000000E+00   0.000000000000000E+00   0.000000000000000E+00
   0.000000000000000E+00   0.000000000000000E+00   0.000000000000000E+00
   0.000000000000000E+00   0.000000000000000E+00   0.000000000000000E+00
   0.000000000000000E+00   0.000000000000000E+00   0.000000000000000E+00
   0.000000000000000E+00   0.000000000000000E+00   0.000000000000000E+00
   0.000000000000000E+00   0.000000000000000E+00   0.000000000000000E+00
   0.000000000000000E+00   0.000000000000000E+00   0.000000000000000E+00
   0.000000000000000E+00   0.000000000000000E+00   0.000000000000000E+00
   0.000000000000000E+00   0.000000000000000E+00   0.000000000000000E+00
   0.000000000000000E+00   0.000000000000000E+00   0.000000000000000E+00
   0.000000000000000E+00   0.000000000000000E+00   0.000000000000000E+00
   0.000000000000000E+00   0.000000000000000E+00   0.000000000000000E+00
   0.000000000000000E+00   0.000000000000000E+00   0.000000000000000E+00
   0.000000000000000E+00   0.000000000000000E+00   0.000000000000000E+00
   0.000000000000000E+00   0.000000000000000E+00   0.000000000000000E+00
   0.000000000000000E+00   0.000000000000000E+00   0.000000000000000E+00
   0.000000000000000E+00   0.000000000000000E+00   0.000000000000000E+00
      </PP_QIJL.1.2.0>
      <PP_QIJL.1.3.1 first_index="1" second_index="3" composite_index="4" angular_momentum="1" size="1095">
   7.272569842339160E-12   7.550469235176565E-12   7.838987717205529E-12
   8.138531064928254E-12   8.449520560370890E-12   8.772393583580010E-12
   9.107604227759730E-12   9.455623937914372E-12   9.816942173894810E-12
   1.019206709878132E-11   1.058152629357059E-11   1.098586749917254E-11
   1.140565938676020E-11   1.184149235755610E-11   1.229397937318027E-11
   1.276375681772707E-11   1.325148539278398E-11   1.375785104665067E-11
   1.428356593906523E-11   1.482936944279476E-11   1.539602918349823E-11
   1.598434211932482E-11   1.659513566176578E-11   1.722926883933602E-11
   1.788763350572247E-11   1.857115559409776E-11   1.928079641936401E-11
   2.001755403015759E-11   2.078246461251663E-11   2.157660394718561E-11
   2.240108892260579E-11   2.325707910572046E-11   2.414577837280330E-11
   2.506843660260396E-11   2.602635143419207E-11   2.702087009197134E-11
   2.805339128043143E-11   2.912536715130163E-11   3.023830534587323E-11
   3.139377111536318E-11   3.259338952230009E-11   3.383884772603020E-11
   3.513189735555636E-11   3.647435697304766E-11   3.786811463148491E-11
   3.931513053003744E-11   4.081743977090798E-11   4.237715522152111E-11
   4.399647048608123E-11   4.567766299067999E-11   4.742309718629017E-11
   4.923522787415296E-11   5.111660365823411E-11   5.306987052960444E-11
   5.509777558778723E-11   5.720317090430334E-11   5.938901753385111E-11
   6.165838967876012E-11   6.401447901257605E-11   6.646059916885885E-11
   6.900019040150382E-11   7.163682442314419E-11   7.437420942843672E-11
   7.721619530929604E-11   8.016677906941366E-11   8.323011044567329E-11
   8.641049774437252E-11   8.971241390045603E-11   9.314050276828263E-11
   9.669958565277514E-11   1.003946680901345E-10   1.042309468876591E-10
   1.082138174325672E-10   1.123488812801017E-10   1.166419540315915E-10
   1.210990735135440E-10   1.257265082692779E-10   1.305307663750345E-10
   1.355186045929682E-10   1.406970378738882E-10   1.460733492231156E-10
   1.516550999433326E-10   1.574501402688275E-10   1.634666204060923E-10
   1.697130019963009E-10   1.761980700157849E-10   1.829309451312494E-10
   1.899210965271000E-10   1.971783552229233E-10   2.047129278998517E-10
   2.125354112552521E-10   2.206568069059337E-10   2.290885368608303E-10
   2.378424595849177E-10   2.469308866769606E-10   2.563666001845381E-10
   2.661628705807084E-10   2.763334754275856E-10   2.868927187530828E-10
   2.978554511680709E-10   3.092370907522387E-10   3.210536447380401E-10
   3.333217320232123E-10   3.460586065435321E-10   3.592821815386827E-10
   3.730110547453448E-10   3.872645345529613E-10   4.020626671589469E-10
   4.174262647615350E-10   4.333769348299183E-10   4.499371104928307E-10
   4.671300820883285E-10   4.849800299191262E-10   5.035120582595559E-10
   5.227522306619844E-10   5.427276066123198E-10   5.634662795861853E-10
   5.849974165592603E-10   6.073512990273597E-10   6.305593655939478E-10
   6.546542561849572E-10   6.796698579531225E-10   7.056413529363616E-10
   7.326052675372431E-10   7.605995238931216E-10   7.896634932091659E-10
   8.198380511293179E-10   8.511656352230230E-10   8.836903046685870E-10
   9.174578022171031E-10   9.525156185240582E-10   9.889130589391343E-10
   1.026701312848093E-09   1.065933525664280E-09   1.106664873570998E-09
   1.148952641119816E-09   1.192856301794003E-09   1.238437601650342E-09
   1.285760646156945E-09   1.334891990349238E-09   1.385900732430814E-09
   1.438858610950881E-09   1.493840105694896E-09   1.550922542430285E-09
   1.610186201654574E-09   1.671714431498807E-09   1.735593764945078E-09
   1.801914041522992E-09   1.870768533656176E-09   1.942254077836571E-09
   2.016471210810871E-09   2.093524310970739E-09   2.173521745145534E-09
   2.256576021004029E-09   2.342803945279426E-09   2.432326788040111E-09
   2.525270453237253E-09   2.621765655768996E-09   2.721948105310243E-09
   2.825958697166606E-09   2.933943710420759E-09   3.046055013649996E-09
   3.162450278504155E-09   3.283293201444275E-09   3.408753733953841E-09
   3.539008321546160E-09   3.674240151904289E-09   3.814639412502013E-09
   3.960403558068486E-09   4.111737588272505E-09   4.268854336016704E-09
   4.431974766747491E-09   4.601328289201056E-09   4.777153078022820E-09
   4.959696408713837E-09   5.149215005374877E-09   5.345975401737740E-09
   5.550254315990710E-09   5.762339039925775E-09   5.982527842954574E-09
   6.211130391560904E-09   6.448468184780189E-09   6.694875006317425E-09
   6.950697393939962E-09   7.216295126804818E-09   7.492041731405494E-09
   7.778325006850385E-09   8.075547570210366E-09   8.384127422703085E-09
   8.704498537509747E-09   9.037111470050496E-09   9.382433991577283E-09
   9.740951746973917E-09   1.011316893768907E-08   1.049960903076194E-08
   1.090081549493723E-08   1.131735256490503E-08   1.174980603473917E-08
   1.219878408165013E-08   1.266491812121065E-08   1.314886369525539E-08
   1.365130139370468E-08   1.417293781160612E-08   1.471450654274124E-08
   1.527676921119319E-08   1.586051654232518E-08   1.646656947467674E-08
   1.709578031433889E-08   1.774903393343240E-08   1.842724901437347E-08
   1.913137934167510E-08   1.986241514310164E-08   2.062138448205980E-08
   2.140935470318475E-08   2.222743393315286E-08   2.307677263882960E-08
   2.395856524494501E-08   2.487405181356751E-08   2.582451978773902E-08
   2.681130580172119E-08   2.783579756039588E-08   2.889943579046421E-08
   3.000371626618275E-08   3.115019191248694E-08   3.234047498845614E-08
   3.357623935418777E-08   3.485922282426934E-08   3.619122961115199E-08
   3.757413286186171E-08   3.900987729161265E-08   4.050048191802116E-08
   4.204804289976678E-08   4.365473648368386E-08   4.532282206442904E-08
   4.705464536102228E-08   4.885264171472224E-08   5.071933951287525E-08
   5.265736374354151E-08   5.466943968589802E-08   5.675839674160078E-08
   5.892717241248678E-08   6.117881643020974E-08   6.351649504360317E-08
   6.594349546979975E-08   6.846323051535677E-08   7.107924337387834E-08
   7.379521260687528E-08   7.661495731485627E-08   7.954244250591523E-08
   8.258178466935439E-08   8.573725756216979E-08   8.901329821652769E-08
   9.241451317666617E-08   9.594568497398213E-08   9.961177884939569E-08
   1.034179497324299E-07   1.073695494868080E-07   1.114721344327381E-07
   1.157314731564501E-07   1.201535546179459E-07   1.247445965683466E-07
   1.295110542886536E-07   1.344596296621886E-07   1.395972805934490E-07
   1.449312307866000E-07   1.504689798973230E-07   1.562183140722754E-07
   1.621873168909451E-07   1.683843807252610E-07   1.748182185328956E-07
   1.814978761008078E-07   1.884327447562081E-07   1.956325745627736E-07
   2.031074880206301E-07   2.108679942893201E-07   2.189250039537025E-07
   2.272898443535022E-07   2.359742754980018E-07   2.449905065882014E-07
   2.543512131696142E-07   2.640695549397436E-07   2.741591942352232E-07
   2.846343152245228E-07   2.955096438331404E-07   3.068004684292046E-07
   3.185226612984776E-07   3.306927009388697E-07   3.433276952056925E-07
   3.564454053400997E-07   3.700642709143749E-07   3.842034357290123E-07
   3.988827746978830E-07   4.141229217590893E-07   4.299452988508569E-07
   4.463721459923874E-07   4.634265525127926E-07   4.811324894708270E-07
   4.995148433116346E-07   5.185994508067994E-07   5.384131353275604E-07
   5.589837445013310E-07   5.803401893038903E-07   6.025124846428774E-07
   6.255317914888643E-07   6.494304606126795E-07   6.742420779904563E-07
   7.000015119404613E-07   7.267449620557183E-07   7.545100100038231E-07
   7.833356722615020E-07   8.132624548611389E-07   8.443324102223234E-07
   8.765891961507922E-07   9.100781370851091E-07   9.448462876776484E-07
   9.809424987986305E-07   1.018417486054662E-06   1.057323900918161E-06
   1.097716404566899E-06   1.139651744535700E-06   1.183188834288716E-06
   1.228388835822849E-06   1.275315245415133E-06   1.324033982638620E-06
   1.374613482765454E-06   1.427124792689542E-06   1.481641670500918E-06
   1.538240688850735E-06   1.597001342250785E-06   1.658006158457659E-06
   1.721340814094828E-06   1.787094254675983E-06   1.855358819193613E-06
   1.926230369449096E-06   1.999808424302157E-06   2.076196299026585E-06
   2.155501249965936E-06   2.237834624691440E-06   2.323312017867129E-06
   2.412053433043327E-06   2.504183450598835E-06   2.599831402067089E-06
   2.699131551086315E-06   2.802223281227723E-06   2.909251290957143E-06
   3.020365796004338E-06   3.135722739418914E-06   3.255484009600817E-06
   3.379817666613420E-06   3.508898177084642E-06   3.642906658024534E-06
   3.782031129899088E-06   3.926466779303062E-06   4.076416231599412E-06
   4.232089833900556E-06   4.393705948778791E-06   4.561491259116929E-06
   4.735681084510057E-06   4.916519709664383E-06   5.104260725235012E-06
   5.299167381580052E-06   5.501512955909647E-06   5.711581133342852E-06
   5.929666402384493E-06   6.156074465376294E-06   6.391122664475322E-06
   6.635140423750986E-06   6.888469707999100E-06   7.151465498906177E-06
   7.424496289213007E-06   7.707944595551113E-06   8.002207490656103E-06
   8.307697155678857E-06   8.624841453353597E-06   8.954084522796405E-06
   9.295887396751372E-06   9.650728642116974E-06   1.001910502462556E-05
   1.040153219858092E-05   1.079854542258332E-05   1.121070030221638E-05
   1.163857356070076E-05   1.208276383855328E-05   1.254389252333271E-05
   1.302260461059834E-05   1.351956959722773E-05   1.403548240831410E-05
   1.457106435887169E-05   1.512706415165617E-05   1.570425891242867E-05
   1.630345526405487E-05   1.692549044087620E-05   1.757123344484073E-05
   1.824158624494055E-05   1.893748502154631E-05   1.965990145730624E-05
   2.040984407631558E-05   2.118835963333694E-05   2.199653455491428E-05
   2.283549643428115E-05   2.370641558204378E-05   2.461050663467963E-05
   2.554903022296797E-05   2.652329470254781E-05   2.753465794886826E-05
   2.858452921888274E-05   2.967437108192296E-05   3.080570142226096E-05
   3.198009551597463E-05   3.319918818480603E-05   3.446467602980874E-05
   3.577831974766644E-05   3.714194653267327E-05   3.855745256746835E-05
   4.002680560571279E-05   4.155204765003061E-05   4.313529772862015E-05
   4.477875477407761E-05   4.648470060809290E-05   4.825550303579346E-05
   5.009361905364360E-05   5.200159817494846E-05   5.398208587712208E-05
   5.603782717504793E-05   5.817167032498169E-05   6.038657066360385E-05
   6.268559458697282E-05   6.507192367430124E-05   6.754885896161668E-05
   7.011982537054637E-05   7.278837629763672E-05   7.555819836978318E-05
   7.843311637151282E-05   8.141709835009044E-05   8.451426090453937E-05
   8.772887466491875E-05   9.106536996835674E-05   9.452834273856824E-05
   9.812256057575871E-05   1.018529690640679E-04   1.057246983038736E-04
   1.097430696765460E-04   1.139136028494191E-04   1.182420230290151E-04
   1.227342684707600E-04   1.273964982536803E-04   1.322351003288169E-04
   1.372566998503202E-04   1.424681677984580E-04   1.478766299040113E-04
   1.534894758837850E-04   1.593143689972344E-04   1.653592559344592E-04
   1.716323770460770E-04   1.781422769257850E-04   1.848978153566382E-04
   1.919081786324007E-04   1.991828912655354E-04   2.067318280937415E-04
   2.145652267971509E-04   2.226937008386038E-04   2.311282528397045E-04
   2.398802884055730E-04   2.489616304115462E-04   2.583845337652537E-04
   2.681617006578454E-04   2.783062963183069E-04   2.888319652850890E-04
   2.997528482095165E-04   3.110835992056174E-04   3.228394037612755E-04
   3.350359972257661E-04   3.476896838889426E-04   3.608173566674904E-04
   3.744365174138256E-04   3.885652978633136E-04   4.032224812356211E-04
   4.184275245060586E-04   4.342005813628146E-04   4.505625258660423E-04
   4.675349768246647E-04   4.851403229067767E-04   5.034017484993497E-04
   5.223432603328819E-04   5.419897148863481E-04   5.623668465876105E-04
   5.835012968241315E-04   6.054206437784149E-04   6.281534331022184E-04
   6.517292094429875E-04   6.761785488354292E-04   7.015330919703847E-04
   7.278255783524131E-04   7.550898813566125E-04   7.833610441941555E-04
   8.126753167949819E-04   8.430701936147440E-04   8.745844523717794E-04
   9.072581937183593E-04   9.411328818487330E-04   9.762513860446400E-04
   1.012658023156968E-03   1.050398601019904E-03   1.089520462791612E-03
   1.130072532212710E-03   1.172105359770963E-03   1.215671169757461E-03
   1.260823908196131E-03   1.307619291624740E-03   1.356114856701529E-03
   1.406370010607305E-03   1.458446082208139E-03   1.512406373938782E-03
   1.568316214361514E-03   1.626243011349287E-03   1.686256305835743E-03
   1.748427826068039E-03   1.812831542291066E-03   1.879543721784061E-03
   1.948642984162246E-03   2.020210356847308E-03   2.094329330601085E-03
   2.171085915006673E-03   2.250568693770482E-03   2.332868879707244E-03
   2.418080369257646E-03   2.506299796375469E-03   2.597626585606961E-03
   2.692163004170757E-03   2.790014212830810E-03   2.891288315338323E-03
   2.996096406201099E-03   3.104552616519966E-03   3.216774157612478E-03
   3.332881362122956E-03   3.452997722296115E-03   3.577249925068134E-03
   3.705767883604470E-03   3.838684764887964E-03   3.976137012933307E-03
   4.118264367175467E-03   4.265209875549359E-03   4.417119901746295E-03
   4.574144126099753E-03   4.736435539517855E-03   4.904150429843515E-03
   5.077448359985141E-03   5.256492137120500E-03   5.441447772235139E-03
   5.632484429212888E-03   5.829774362650863E-03   6.033492843524453E-03
   6.243818071778526E-03   6.460931074870920E-03   6.685015591241352E-03
   6.916257937624861E-03   7.154846859073001E-03   7.400973360488083E-03
   7.654830518416924E-03   7.916613271789557E-03   8.186518190226259E-03
   8.464743218473040E-03   8.751487395460824E-03   9.046950546418721E-03
   9.351332946405087E-03   9.664834953553757E-03   9.987656610266108E-03
   1.031999721051257E-02   1.066205483134182E-02   1.101402582662991E-02
   1.137610428103829E-02   1.174848142208780E-02   1.213134498819576E-02
   1.252487855046807E-02   1.292926078598471E-02   1.334466470027020E-02
   1.377125679659788E-02   1.420919618974103E-02   1.465863366175639E-02
   1.511971065736509E-02   1.559255821648714E-02   1.607729584148726E-02
   1.657403029670361E-02   1.708285433786110E-02   1.760384536901473E-02
   1.813706402473215E-02   1.868255267530746E-02   1.924033385290308E-02
   1.981040859664700E-02   2.039275471486886E-02   2.098732496284444E-02
   2.159404513463794E-02   2.221281206788395E-02   2.284349156064601E-02
   2.348591619982152E-02   2.413988310094398E-02   2.480515155966286E-02
   2.548144061566288E-02   2.616842653032515E-02   2.686574018003147E-02
   2.757296436767971E-02   2.828963105571336E-02   2.901521852477747E-02
   2.974914846300262E-02   3.049078299188893E-02   3.123942163582229E-02
   3.199429824340665E-02   3.275457787004387E-02   3.351935363254321E-02
   3.428764354799527E-02   3.505838737070851E-02   3.583044344268072E-02
   3.660258557486527E-02   3.737349997839905E-02   3.814178226697949E-02
   3.890593455372000E-02   3.966436266807154E-02   4.041537352077008E-02
   4.115717264725792E-02   4.188786196261642E-02   4.260543776374323E-02
   4.330778901728911E-02   4.399269597473304E-02   4.465782915890411E-02
   4.530074876923459E-02   4.591890455603390E-02   4.650963621708237E-02
   4.707017437282626E-02   4.759764217938522E-02   4.808905764141347E-02
   4.854133668955434E-02   4.895129708973791E-02   4.931566325384442E-02
   4.963107202322992E-02   4.989407949821813E-02   5.010116898783001E-02
   5.024876015466963E-02   5.033321942992144E-02   5.035087177274442E-02
   5.029801384686958E-02   5.017092868480388E-02   4.996590190660083E-02
   4.967923955554533E-02   4.930728760718506E-02   4.884645320078691E-02
   4.829322763335279E-02   4.764421114565354E-02   4.689613951717848E-02
   4.604591247229656E-02   4.509062388314299E-02   4.402759373562800E-02
   4.285440180337836E-02   4.156892295025153E-02   4.016936395517613E-02
   3.865430172341119E-02   3.702272271579327E-02   3.527406339213929E-02
   3.340825142671573E-02   3.142574741259786E-02   2.932758672799239E-02
   2.711542119131553E-02   2.479156008329528E-02   2.235901006395054E-02
   1.982151346039025E-02   1.718358434859144E-02   1.445054179925921E-02
   1.162853960539219E-02   8.724591758220469E-03   5.746592889808916E-03
   2.703332856165225E-03  -3.954954044766978E-04  -3.539295635746176E-03
  -6.716576570616049E-03  -9.914969716084333E-03  -1.312125754874436E-02
  -1.632141303965206E-02  -1.950065139394583E-02  -2.264349483744162E-02
  -2.573385120629306E-02  -2.875510699393624E-02  -3.169023537930392E-02
  -3.452191959897309E-02  -3.723269183101336E-02  -3.980508752764061E-02
  -4.222181486538119E-02  -4.446593867403575E-02  -4.652107785850129E-02
  -4.837161494056195E-02  -5.000291592220912E-02  -5.140155821010896E-02
  -5.255556384625289E-02  -5.345463476787356E-02  -5.409038627757638E-02
  -5.445657435160225E-02  -5.454931186174949E-02  -5.436726824884529E-02
  -5.391184667951953E-02  -5.318733226296767E-02  -5.220100452284084E-02
  -5.096320703666728E-02  -4.948736699933838E-02  -4.778995746872536E-02
  -4.589039524311406E-02  -4.381086773602203E-02  -4.157608288912346E-02
  -3.921293713315450E-02  -3.675009770307310E-02  -3.421749726762758E-02
  -3.164574087013070E-02  -2.906542761500461E-02  -2.650639238233918E-02
  -2.399687610694286E-02  -2.156263680061078E-02  -1.922601748959664E-02
  -1.700499152503124E-02  -1.491221021864639E-02  -1.295408234804709E-02
  -1.112991962239855E-02  -9.431186525082680E-03  -7.845831812433257E-03
  -6.375311204064538E-03  -5.024205538715742E-03  -3.795875994955011E-03
  -2.692415518433799E-03  -1.714613208225524E-03  -8.619330652781532E-04
  -1.325084512299179E-04   4.768464705117159E-04   9.706071380510828E-04
   1.354489786603352E-03   1.635382528513030E-03   1.821255576615388E-03
   1.921050058958929E-03   1.944545083324645E-03   1.902202940899045E-03
   1.804992588501642E-03   1.664191816815319E-03   1.491168796870501E-03
   1.297143997556538E-03   1.092933782795735E-03   8.886773281242544E-04
   6.935488438681858E-04   5.154574581014426E-04   3.607375003986668E-04
   2.338323425976618E-04   1.369754020373870E-04   6.987240522760008E-05
   2.938955657028064E-05   9.252870189602191E-06   1.280726012797828E-06
   0.000000000000000E+00   0.000000000000000E+00   0.000000000000000E+00
   0.000000000000000E+00   0.000000000000000E+00   0.000000000000000E+00
   0.000000000000000E+00   0.000000000000000E+00   0.000000000000000E+00
   0.000000000000000E+00   0.000000000000000E+00   0.000000000000000E+00
   0.000000000000000E+00   0.000000000000000E+00   0.000000000000000E+00
   0.000000000000000E+00   0.000000000000000E+00   0.000000000000000E+00
   0.000000000000000E+00   0.000000000000000E+00   0.000000000000000E+00
   0.000000000000000E+00   0.000000000000000E+00   0.000000000000000E+00
   0.000000000000000E+00   0.000000000000000E+00   0.000000000000000E+00
   0.000000000000000E+00   0.000000000000000E+00   0.000000000000000E+00
   0.000000000000000E+00   0.000000000000000E+00   0.000000000000000E+00
   0.000000000000000E+00   0.000000000000000E+00   0.000000000000000E+00
   0.000000000000000E+00   0.000000000000000E+00   0.000000000000000E+00
   0.000000000000000E+00   0.000000000000000E+00   0.000000000000000E+00
   0.000000000000000E+00   0.000000000000000E+00   0.000000000000000E+00
   0.000000000000000E+00   0.000000000000000E+00   0.000000000000000E+00
   0.000000000000000E+00   0.000000000000000E+00   0.000000000000000E+00
   0.000000000000000E+00   0.000000000000000E+00   0.000000000000000E+00
   0.000000000000000E+00   0.000000000000000E+00   0.000000000000000E+00
   0.000000000000000E+00   0.000000000000000E+00   0.000000000000000E+00
   0.000000000000000E+00   0.000000000000000E+00   0.000000000000000E+00
   0.000000000000000E+00   0.000000000000000E+00   0.000000000000000E+00
   0.000000000000000E+00   0.000000000000000E+00   0.000000000000000E+00
   0.000000000000000E+00   0.000000000000000E+00   0.000000000000000E+00
   0.000000000000000E+00   0.000000000000000E+00   0.000000000000000E+00
   0.000000000000000E+00   0.000000000000000E+00   0.000000000000000E+00
   0.000000000000000E+00   0.000000000000000E+00   0.000000000000000E+00
   0.000000000000000E+00   0.000000000000000E+00   0.000000000000000E+00
   0.000000000000000E+00   0.000000000000000E+00   0.000000000000000E+00
   0.000000000000000E+00   0.000000000000000E+00   0.000000000000000E+00
   0.000000000000000E+00   0.000000000000000E+00   0.000000000000000E+00
   0.000000000000000E+00   0.000000000000000E+00   0.000000000000000E+00
   0.000000000000000E+00   0.000000000000000E+00   0.000000000000000E+00
   0.000000000000000E+00   0.000000000000000E+00   0.000000000000000E+00
   0.000000000000000E+00   0.000000000000000E+00   0.000000000000000E+00
   0.000000000000000E+00   0.000000000000000E+00   0.000000000000000E+00
   0.000000000000000E+00   0.000000000000000E+00   0.000000000000000E+00
   0.000000000000000E+00   0.000000000000000E+00   0.000000000000000E+00
   0.000000000000000E+00   0.000000000000000E+00   0.000000000000000E+00
   0.000000000000000E+00   0.000000000000000E+00   0.000000000000000E+00
   0.000000000000000E+00   0.000000000000000E+00   0.000000000000000E+00
   0.000000000000000E+00   0.000000000000000E+00   0.000000000000000E+00
   0.000000000000000E+00   0.000000000000000E+00   0.000000000000000E+00
   0.000000000000000E+00   0.000000000000000E+00   0.000000000000000E+00
   0.000000000000000E+00   0.000000000000000E+00   0.000000000000000E+00
   0.000000000000000E+00   0.000000000000000E+00   0.000000000000000E+00
   0.000000000000000E+00   0.000000000000000E+00   0.000000000000000E+00
   0.000000000000000E+00   0.000000000000000E+00   0.000000000000000E+00
   0.000000000000000E+00   0.000000000000000E+00   0.000000000000000E+00
   0.000000000000000E+00   0.000000000000000E+00   0.000000000000000E+00
   0.000000000000000E+00   0.000000000000000E+00   0.000000000000000E+00
   0.000000000000000E+00   0.000000000000000E+00   0.000000000000000E+00
   0.000000000000000E+00   0.000000000000000E+00   0.000000000000000E+00
   0.000000000000000E+00   0.000000000000000E+00   0.000000000000000E+00
   0.000000000000000E+00   0.000000000000000E+00   0.000000000000000E+00
   0.000000000000000E+00   0.000000000000000E+00   0.000000000000000E+00
   0.000000000000000E+00   0.000000000000000E+00   0.000000000000000E+00
   0.000000000000000E+00   0.000000000000000E+00   0.000000000000000E+00
   0.000000000000000E+00   0.000000000000000E+00   0.000000000000000E+00
   0.000000000000000E+00   0.000000000000000E+00   0.000000000000000E+00
   0.000000000000000E+00   0.000000000000000E+00   0.000000000000000E+00
   0.000000000000000E+00   0.000000000000000E+00   0.000000000000000E+00
   0.000000000000000E+00   0.000000000000000E+00   0.000000000000000E+00
   0.000000000000000E+00   0.000000000000000E+00   0.000000000000000E+00
   0.000000000000000E+00   0.000000000000000E+00   0.000000000000000E+00
   0.000000000000000E+00   0.000000000000000E+00   0.000000000000000E+00
   0.000000000000000E+00   0.000000000000000E+00   0.000000000000000E+00
   0.000000000000000E+00   0.000000000000000E+00   0.000000000000000E+00
   0.000000000000000E+00   0.000000000000000E+00   0.000000000000000E+00
   0.000000000000000E+00   0.000000000000000E+00   0.000000000000000E+00
   0.000000000000000E+00   0.000000000000000E+00   0.000000000000000E+00
   0.000000000000000E+00   0.000000000000000E+00   0.000000000000000E+00
   0.000000000000000E+00   0.000000000000000E+00   0.000000000000000E+00
   0.000000000000000E+00   0.000000000000000E+00   0.000000000000000E+00
   0.000000000000000E+00   0.000000000000000E+00   0.000000000000000E+00
   0.000000000000000E+00   0.000000000000000E+00   0.000000000000000E+00
   0.000000000000000E+00   0.000000000000000E+00   0.000000000000000E+00
   0.000000000000000E+00   0.000000000000000E+00   0.000000000000000E+00
   0.000000000000000E+00   0.000000000000000E+00   0.000000000000000E+00
   0.000000000000000E+00   0.000000000000000E+00   0.000000000000000E+00
   0.000000000000000E+00   0.000000000000000E+00   0.000000000000000E+00
   0.000000000000000E+00   0.000000000000000E+00   0.000000000000000E+00
   0.000000000000000E+00   0.000000000000000E+00   0.000000000000000E+00
   0.000000000000000E+00   0.000000000000000E+00   0.000000000000000E+00
   0.000000000000000E+00   0.000000000000000E+00   0.000000000000000E+00
   0.000000000000000E+00   0.000000000000000E+00   0.000000000000000E+00
   0.000000000000000E+00   0.000000000000000E+00   0.000000000000000E+00
   0.000000000000000E+00   0.000000000000000E+00   0.000000000000000E+00
   0.000000000000000E+00   0.000000000000000E+00   0.000000000000000E+00
   0.000000000000000E+00   0.000000000000000E+00   0.000000000000000E+00
   0.000000000000000E+00   0.000000000000000E+00   0.000000000000000E+00
   0.000000000000000E+00   0.000000000000000E+00   0.000000000000000E+00
   0.000000000000000E+00   0.000000000000000E+00   0.000000000000000E+00
   0.000000000000000E+00   0.000000000000000E+00   0.000000000000000E+00
   0.000000000000000E+00   0.000000000000000E+00   0.000000000000000E+00
   0.000000000000000E+00   0.000000000000000E+00   0.000000000000000E+00
   0.000000000000000E+00   0.000000000000000E+00   0.000000000000000E+00
   0.000000000000000E+00   0.000000000000000E+00   0.000000000000000E+00
   0.000000000000000E+00   0.000000000000000E+00   0.000000000000000E+00
   0.000000000000000E+00   0.000000000000000E+00   0.000000000000000E+00
   0.000000000000000E+00   0.000000000000000E+00   0.000000000000000E+00
   0.000000000000000E+00   0.000000000000000E+00   0.000000000000000E+00
   0.000000000000000E+00   0.000000000000000E+00   0.000000000000000E+00
   0.000000000000000E+00   0.000000000000000E+00   0.000000000000000E+00
   0.000000000000000E+00   0.000000000000000E+00   0.000000000000000E+00
   0.000000000000000E+00   0.000000000000000E+00   0.000000000000000E+00
   0.000000000000000E+00   0.000000000000000E+00   0.000000000000000E+00
   0.000000000000000E+00   0.000000000000000E+00   0.000000000000000E+00
   0.000000000000000E+00   0.000000000000000E+00   0.000000000000000E+00
   0.000000000000000E+00   0.000000000000000E+00   0.000000000000000E+00
   0.000000000000000E+00   0.000000000000000E+00   0.000000000000000E+00
   0.000000000000000E+00   0.000000000000000E+00   0.000000000000000E+00
   0.000000000000000E+00   0.000000000000000E+00   0.000000000000000E+00
   0.000000000000000E+00   0.000000000000000E+00   0.000000000000000E+00
   0.000000000000000E+00   0.000000000000000E+00   0.000000000000000E+00
      </PP_QIJL.1.3.1>
      <PP_QIJL.1.4.1 first_index="1" second_index="4" composite_index="7" angular_momentum="1" size="1095">
   4.230084553590046E-12   4.391724517666486E-12   4.559541066640694E-12
   4.733770220096262E-12   4.914657016392557E-12   5.102455857289833E-12
   5.297430865743246E-12   5.499856257368856E-12   5.710016726104001E-12
   5.928207844604647E-12   6.154736479942505E-12   6.389921225186905E-12
   6.634092847478180E-12   6.887594753222800E-12   7.150783471064609E-12
   7.424029153311133E-12   7.707716096520547E-12   8.002243281981207E-12
   8.308024936843904E-12   8.625491116696216E-12   8.955088310397911E-12
   9.297280068028497E-12   9.652547652829739E-12   1.002139071806020E-11
   1.040432800971375E-11   1.080189809609007E-11   1.121466012524378E-11
   1.164319461137687E-11   1.208810425128084E-11   1.255001477197666E-11
   1.302957581074456E-11   1.352746182878152E-11   1.404437305977137E-11
   1.458103649470154E-11   1.513820690431154E-11   1.571666790061106E-11
   1.631723303896079E-11   1.694074696226582E-11   1.758808658889075E-11
   1.826016234596754E-11   1.895791944982993E-11   1.968233923537606E-11
   2.043444053622841E-11   2.121528111763216E-11   2.202595916410765E-11
   2.286761482394808E-11   2.374143181273614E-11   2.464863907813358E-11
   2.559051252828555E-11   2.656837682627073E-11   2.758360725312017E-11
   2.863763164202611E-11   2.973193238646026E-11   3.086804852502579E-11
   3.204757790597601E-11   3.327217943444220E-11   3.454357540553320E-11
   3.586355392658642E-11   3.723397143197753E-11   3.865675529402606E-11
   4.013390653366754E-11   4.166750263470623E-11   4.325970046560508E-11
   4.491273931292248E-11   4.662894403066279E-11   4.841072830996782E-11
   5.026059807375047E-11   5.218115500104258E-11   5.417510018601438E-11
   5.624523793681239E-11   5.839447971955610E-11   6.062584825304308E-11
   6.294248175991931E-11   6.534763838029404E-11   6.784470075400751E-11
   7.043718077799330E-11   7.312872454542935E-11   7.592311747362169E-11
   7.882428962783332E-11   8.183632124854662E-11   8.496344848992983E-11
   8.821006937758226E-11   9.158074999393360E-11   9.508023089999792E-11
   9.871343380251463E-11   1.024854684758498E-10   1.064016399483968E-10
   1.104674559635803E-10   1.146886347259566E-10   1.190711129433077E-10
   1.236210541760329E-10   1.283448575055866E-10   1.332491665341509E-10
   1.383408787281988E-10   1.436271551190910E-10   1.491154303743457E-10
   1.548134232537491E-10   1.607291474650090E-10   1.668709229342198E-10
   1.732473875069903E-10   1.798675090966855E-10   1.867405982968749E-10
   1.938763214757189E-10   2.012847143707112E-10   2.089761962028981E-10
   2.169615843304176E-10   2.252521094619759E-10   2.338594314516500E-10
   2.427956556972316E-10   2.520733501651778E-10   2.617055630661007E-10
   2.717058412056694E-10   2.820882490367196E-10   2.928673884393715E-10
   3.040584192569720E-10   3.156770806167371E-10   3.277397130650888E-10
   3.402632815488077E-10   3.532653992743231E-10   3.667643524786989E-10
   3.807791261471416E-10   3.953294307132102E-10   4.104357297792690E-10
   4.261192688961697E-10   4.424021054426416E-10   4.593071396463937E-10
   4.768581467905793E-10   4.950798106508937E-10   5.139977582103404E-10
   5.336385957004856E-10   5.540299460198730E-10   5.752004875822419E-10
   5.971799946491654E-10   6.199993792038325E-10   6.436907344248728E-10
   6.682873798213320E-10   6.938239080923083E-10   7.203362337771234E-10
   7.478616437644493E-10   7.764388497314343E-10   8.061080425865435E-10
   8.369109489927122E-10   8.688908900502735E-10   9.020928422221925E-10
   9.365635005872933E-10   9.723513445104062E-10   1.009506705821815E-09
   1.048081839601862E-09   1.088130997670255E-09   1.129710504883437E-09
   1.172878838347277E-09   1.217696709656517E-09   1.264227150276593E-09
   1.312535600187905E-09   1.362689999917216E-09   1.414760886085526E-09
   1.468821490606885E-09   1.524947843677551E-09   1.583218880700362E-09
   1.643716553294689E-09   1.706525944548014E-09   1.771735388671283E-09
   1.839436595226226E-09   1.909724778099355E-09   1.982698789404035E-09
   2.058461258498798E-09   2.137118736317601E-09   2.218781845214713E-09
   2.303565434535154E-09   2.391588742129365E-09   2.482975562039122E-09
   2.577854418590725E-09   2.676358747139974E-09   2.778627081723295E-09
   2.884803249878815E-09   2.995036574911197E-09   3.109482085884950E-09
   3.228300735641079E-09   3.351659627143966E-09   3.479732248476605E-09
   3.612698716814492E-09   3.750746031721548E-09   3.894068338123787E-09
   4.042867199330850E-09   4.197351880489121E-09   4.357739642864833E-09
   4.524256049371340E-09   4.697135281769609E-09   4.876620469988285E-09
   5.062964034026293E-09   5.256428038918375E-09   5.457284563263237E-09
   5.665816081831698E-09   5.882315862793375E-09   6.107088380120105E-09
   6.340449741745741E-09   6.582728134084815E-09   6.834264283534295E-09
   7.095411935607816E-09   7.366538352375850E-09   7.648024828910690E-09
   7.940267229463197E-09   8.243676544124026E-09   8.558679466752666E-09
   8.885718994986502E-09   9.225255053172948E-09   9.577765139101325E-09
   9.943744995442408E-09   1.032370930684045E-08   1.071819242363726E-08
   1.112774911324518E-08   1.155295534022632E-08   1.199440907617313E-08
   1.245273114052975E-08   1.292856607353574E-08   1.342258304251857E-08
   1.393547678281004E-08   1.446796857460748E-08   1.502080725715414E-08
   1.559477028166356E-08   1.619066480446727E-08   1.680932882192379E-08
   1.745163234868180E-08   1.811847864095524E-08   1.881080546652878E-08
   1.952958642327762E-08   2.027583230805681E-08   2.105059253788094E-08
   2.185495662539360E-08   2.269005571069913E-08   2.355706415170838E-08
   2.445720117523539E-08   2.539173259116227E-08   2.636197257208293E-08
   2.736928550092584E-08   2.841508788915009E-08   2.950085036821320E-08
   3.062809975710473E-08   3.179842120885343E-08   3.301346043902258E-08
   3.427492603932279E-08   3.558459187959595E-08   3.694429960154033E-08
   3.835596120768318E-08   3.982156174923624E-08   4.134316211660918E-08
   4.292290193650183E-08   4.456300257964293E-08   4.626577028340100E-08
   4.803359939365253E-08   4.986897573045956E-08   5.177448008228517E-08
   5.375279183365165E-08   5.580669273133739E-08   5.793907079440004E-08
   6.015292437351605E-08   6.245136636533730E-08   6.483762858778038E-08
   6.731506632239291E-08   6.988716303017317E-08   7.255753524746266E-08
   7.532993766878636E-08   7.820826842377283E-08   8.119657455556380E-08
   8.429905770840116E-08   8.752008003237315E-08   9.086417031360936E-08
   9.433603033852387E-08   9.794054150104047E-08   1.016827716620698E-07
   1.055679822708618E-07   1.096016357582288E-07   1.137894032120068E-07
   1.181371723455255E-07   1.226510557702660E-07   1.273373995843058E-07
   1.322027922886024E-07   1.372540740436152E-07   1.424983462792519E-07
   1.479429816716129E-07   1.535956345005210E-07   1.594642514023641E-07
   1.655570825333186E-07   1.718826931586094E-07   1.784499756840480E-07
   1.852681621467115E-07   1.923468371822729E-07   1.996959514871473E-07
   2.073258357943252E-07   2.152472153824711E-07   2.234712251386116E-07
   2.320094251955213E-07   2.408738171656992E-07   2.500768609946664E-07
   2.596314924572761E-07   2.695511413212873E-07   2.798497502039888E-07
   2.905417941480320E-07   3.016423009437587E-07   3.131668722268817E-07
   3.251317053808029E-07   3.375536162737538E-07   3.504500628638791E-07
   3.638391697033709E-07   3.777397533780506E-07   3.921713489159216E-07
   4.071542372036234E-07   4.227094734469421E-07   4.388589167175447E-07
   4.556252606251210E-07   4.730320651590111E-07   4.911037897434647E-07
   5.098658275528942E-07   5.293445411343189E-07   5.495672993883789E-07
   5.705625159581340E-07   5.923596890817518E-07   6.149894429628190E-07
   6.384835707172751E-07   6.628750789556980E-07   6.881982340646831E-07
   7.144886102499654E-07   7.417831394099207E-07   7.701201629080910E-07
   7.995394853172411E-07   8.300824302094432E-07   8.617918980704729E-07
   8.947124264182577E-07   9.288902522107309E-07   9.643733766281965E-07
   1.001211632320507E-06   1.039456753214795E-06   1.079162446977591E-06
   1.120384470234742E-06   1.163180706652156E-06   1.207611247986877E-06
   1.253738478219887E-06   1.301627160888884E-06   1.351344529741366E-06
   1.402960382833657E-06   1.456547180207190E-06   1.512180145277588E-06
   1.569937370075664E-06   1.629899924487550E-06   1.692151969645976E-06
   1.756780875626206E-06   1.823877343615759E-06   1.893535532719120E-06
   1.965853191579770E-06   2.040931794998118E-06   2.118876685733825E-06
   2.199797221689992E-06   2.283806928681951E-06   2.371023659000461E-06
   2.461569755989019E-06   2.555572224862339E-06   2.653162910001566E-06
   2.754478678967095E-06   2.859661613488864E-06   2.968859207690160E-06
   3.082224573821121E-06   3.199916655785149E-06   3.322100450747509E-06
   3.448947239135942E-06   3.580634823343048E-06   3.717347775463109E-06
   3.859277694396818E-06   4.006623472681574E-06   4.159591573408432E-06
   4.318396317605987E-06   4.483260182483002E-06   4.654414110936865E-06
   4.832097832750951E-06   5.016560197918063E-06   5.208059522541787E-06
   5.406863947790206E-06   5.613251812386838E-06   5.827512039146116E-06
   6.049944536077284E-06   6.280860612599986E-06   6.520583411436316E-06
   6.769448356764454E-06   7.027803619234631E-06   7.296010598483644E-06
   7.574444423789772E-06   7.863494473548623E-06   8.163564914268116E-06
   8.475075259803556E-06   8.798460951587595E-06   9.134173960631586E-06
   9.482683412104170E-06   9.844476233322864E-06   1.022005782602438E-05
   1.060995276380930E-05   1.101470551569197E-05   1.143488119671699E-05
   1.187106634663777E-05   1.232386973769278E-05   1.279392321254590E-05
   1.328188255350272E-05   1.378842838414352E-05   1.431426710456688E-05
   1.486013186147143E-05   1.542678355434873E-05   1.601501187910750E-05
   1.662563641049033E-05   1.725950772470339E-05   1.791750856371109E-05
   1.860055504272011E-05   1.930959790241027E-05   2.004562380753899E-05
   2.080965669359446E-05   2.160275916323191E-05   2.242603393428912E-05
   2.328062534123811E-05   2.416772089199180E-05   2.508855288205543E-05
   2.604440006807077E-05   2.703658940288130E-05   2.806649783431331E-05
   2.913555416993613E-05   3.024524101015731E-05   3.139709675206666E-05
   3.259271766653770E-05   3.383376005117332E-05   3.512194246177129E-05
   3.645904802506520E-05   3.784692683559111E-05   3.928749843963288E-05
   4.078275440927139E-05   4.233476100968319E-05   4.394566196292312E-05
   4.561768131152885E-05   4.735312638539270E-05   4.915439087545823E-05
   5.102395801789952E-05   5.296440389256587E-05   5.497840083958092E-05
   5.706872099811523E-05   5.923823997146257E-05   6.148994062267444E-05
   6.382691700515015E-05   6.625237843268015E-05   6.876965369360358E-05
   7.138219541385224E-05   7.409358457380233E-05   7.690753518398589E-05
   7.982789912486723E-05   8.285867115601768E-05   8.600399410018112E-05
   8.926816420786360E-05   9.265563670823293E-05   9.617103155225287E-05
   9.981913935415617E-05   1.036049275374814E-04   1.075335466920771E-04
   1.116103371486186E-04   1.158408357773442E-04   1.202307830178747E-04
   1.247861301471260E-04   1.295130467924890E-04   1.344179286976035E-04
   1.395074057481922E-04   1.447883502655941E-04   1.502678855757557E-04
   1.559533948616066E-04   1.618525303068728E-04   1.679732225395154E-04
   1.743236903831228E-04   1.809124509246998E-04   1.877483299074092E-04
   1.948404724569482E-04   2.021983541503181E-04   2.098317924358525E-04
   2.177509584134391E-04   2.259663889839331E-04   2.344889993768250E-04
   2.433300960652217E-04   2.525013900772839E-04   2.620150107131847E-04
   2.718835196766894E-04   2.821199256303838E-04   2.927376991835007E-04
   3.037507883212326E-04   3.151736342842353E-04   3.270211879069147E-04
   3.393089264228637E-04   3.520528707455911E-04   3.652696032324102E-04
   3.789762859390118E-04   3.931906793719196E-04   4.079311617455516E-04
   4.232167487501611E-04   4.390671138363881E-04   4.555026090215336E-04
   4.725442862220105E-04   4.902139191156352E-04   5.085340255366365E-04
   5.275278904052964E-04   5.472195891931427E-04   5.676340119234818E-04
   5.887968877058580E-04   6.107348098016422E-04   6.334752612165563E-04
   6.570466408142767E-04   6.814782899435765E-04   7.068005195695647E-04
   7.330446378975263E-04   7.602429784756853E-04   7.884289287608053E-04
   8.176369591279332E-04   8.479026523028836E-04   8.792627331929297E-04
   9.117550990880865E-04   9.454188502017642E-04   9.802943205159053E-04
   1.016423108891717E-03   1.053848110402731E-03   1.092613547842436E-03
   1.132765003353714E-03   1.174349450122064E-03   1.217415284068979E-03
   1.262012355475797E-03   1.308192000461991E-03   1.356007072234968E-03
   1.405511972021157E-03   1.456762679580522E-03   1.509816783198217E-03
   1.564733509038518E-03   1.621573749736753E-03   1.680400092095114E-03
   1.741276843737809E-03   1.804270058569827E-03   1.869447560872000E-03
   1.936878967852510E-03   2.006635710461918E-03   2.078791052264971E-03
   2.153420106147717E-03   2.230599848623228E-03   2.310409131482757E-03
   2.392928690522288E-03   2.478241151056325E-03   2.566431029911874E-03
   2.657584733575907E-03   2.751790552148587E-03   2.849138648732941E-03
   2.949721043868814E-03   3.053631594595001E-03   3.160965967698849E-03
   3.271821606686390E-03   3.386297691979196E-03   3.504495093816058E-03
   3.626516317308183E-03   3.752465439066607E-03   3.882448034788873E-03
   4.016571097159660E-03   4.154942943386631E-03   4.297673111658008E-03
   4.444872245773171E-03   4.596651967160926E-03   4.753124733462821E-03
   4.914403682820917E-03   5.080602462970360E-03   5.251835044198077E-03
   5.428215515188696E-03   5.609857860738759E-03   5.796875720280050E-03
   5.989382126112087E-03   6.187489220204399E-03   6.391307948388896E-03
   6.600947730724197E-03   6.816516106775874E-03   7.038118354519863E-03
   7.265857081542127E-03   7.499831787174711E-03   7.740138394178709E-03
   7.986868748558165E-03   8.240110086065438E-03   8.499944463940845E-03
   8.766448156415023E-03   9.039691012495065E-03   9.319735774554336E-03
   9.606637356251618E-03   9.900442078320592E-03   1.020118686079395E-02
   1.050889837026156E-02   1.082359212080824E-02   1.114527152733571E-02
   1.147392691004793E-02   1.180953444896761E-02   1.215205508745955E-02
   1.250143338386255E-02   1.285759631047844E-02   1.322045199933767E-02
   1.358988843435491E-02   1.396577208971048E-02   1.434794651454451E-02
   1.473623086433261E-02   1.513041837962907E-02   1.553027481321600E-02
   1.593553680708847E-02   1.634591022114003E-02   1.676106841588969E-02
   1.718065049211840E-02   1.760425949085655E-02   1.803146055779341E-02
   1.846177907686256E-02   1.889469877849976E-02   1.932965982887324E-02
   1.976605690725307E-02   2.020323727961969E-02   2.064049887761278E-02
   2.107708839299273E-02   2.151219939893098E-02   2.194497051066007E-02
   2.237448359930407E-02   2.279976207407231E-02   2.321976924943407E-02
   2.363340681539872E-02   2.403951343059946E-02   2.443686345951966E-02
   2.482416587690005E-02   2.520006336411931E-02   2.556313162414150E-02
   2.591187894346042E-02   2.624474603133445E-02   2.656010616847956E-02
   2.685626569925919E-02   2.713146490325767E-02   2.738387928392811E-02
   2.761162131374105E-02   2.781274267690087E-02   2.798523705220785E-02
   2.812704347999526E-02   2.823605035821782E-02   2.831010011367185E-02
   2.834699459493747E-02   2.834450123389860E-02   2.830036002255854E-02
   2.821229135126733E-02   2.807800475334278E-02   2.789520859932997E-02
   2.766162078172680E-02   2.737498042782398E-02   2.703306067428395E-02
   2.663368253212232E-02   2.617472986476712E-02   2.565416549476462E-02
   2.507004844637060E-02   2.442055232163163E-02   2.370398479651431E-02
   2.291880821109941E-02   2.206366121373955E-02   2.113738140329421E-02
   2.013902889605811E-02   1.906791072471705E-02   1.792360595557596E-02
   1.670599138740053E-02   1.541526767048865E-02   1.405198565812084E-02
   1.261707277437953E-02   1.111185915262279E-02   9.538103267827464E-03
   7.898016753786374E-03   6.194288063090312E-03   4.430104594275249E-03
   2.609172876938756E-03   7.357363725588456E-04  -1.185409583220358E-03
  -3.148906201168460E-03  -5.148823553689810E-03  -7.178657340278772E-03
  -9.231330677939881E-03  -1.129920150462167E-02  -1.337407618987279E-02
  -1.544722994458446E-02  -1.750943460930144E-02  -1.955099437655813E-02
  -2.156178996540332E-02  -2.353133171391436E-02  -2.544882198638778E-02
  -2.730322720423643E-02  -2.908335970174103E-02  -3.077796947815002E-02
  -3.237584576473073E-02  -3.386592814814353E-02  -3.523742678907620E-02
  -3.647995104704183E-02  -3.758364556877836E-02  -3.853933261954441E-02
  -3.933865913541167E-02  -3.997424665288782E-02  -4.043984193345144E-02
  -4.073046574964691E-02  -4.084255694240577E-02  -4.077410850391848E-02
  -4.052479209594802E-02  -4.009606709100235E-02  -3.949126993611143E-02
  -3.871567940080392E-02  -3.777655309880097E-02  -3.668313058525977E-02
  -3.544659834804147E-02  -3.408001215368933E-02  -3.259817249884556E-02
  -3.101744937836168E-02  -2.935555323487056E-02  -2.763124982253446E-02
  -2.586401781943641E-02  -2.407364937484147E-02  -2.227979539077789E-02
  -2.050145921736880E-02  -1.875644458532457E-02  -1.706076599422610E-02
  -1.542803239698983E-02  -1.386881783024429E-02  -1.239003558208888E-02
  -1.099433548934554E-02  -9.679546922293725E-03  -8.440867449206857E-03
  -7.280203135027918E-03  -6.200936067475238E-03  -5.205626434074462E-03
  -4.295983221725808E-03  -3.472843991410957E-03  -2.736164580481870E-03
  -2.085019521929687E-03  -1.517613889820690E-03  -1.031307182384478E-03
  -6.226497385420915E-04  -2.874320502149752E-04  -2.074718164662981E-05
   1.829336612473309E-04   3.296725529354227E-04   4.259636030023994E-04
   4.786195986537511E-04   4.946473166549947E-04   4.811125242492054E-04
   4.449959361796929E-04   3.930416511584989E-04   3.315998545759813E-04
   2.664658442722012E-04   2.027177124740986E-04   1.445552994487342E-04
   9.514332414450877E-05   5.646189516234079E-05   2.916791398244190E-05
   1.247120399622270E-05   4.029536074201534E-06   5.722300956412241E-07
   2.775557561562891E-17   0.000000000000000E+00   0.000000000000000E+00
   0.000000000000000E+00   0.000000000000000E+00   0.000000000000000E+00
   0.000000000000000E+00   0.000000000000000E+00   0.000000000000000E+00
   0.000000000000000E+00   0.000000000000000E+00   0.000000000000000E+00
   0.000000000000000E+00   0.000000000000000E+00   0.000000000000000E+00
   0.000000000000000E+00   0.000000000000000E+00   0.000000000000000E+00
   0.000000000000000E+00   0.000000000000000E+00   0.000000000000000E+00
   0.000000000000000E+00   0.000000000000000E+00   0.000000000000000E+00
   0.000000000000000E+00   0.000000000000000E+00   0.000000000000000E+00
   0.000000000000000E+00   0.000000000000000E+00   0.000000000000000E+00
   0.000000000000000E+00   0.000000000000000E+00   0.000000000000000E+00
   0.000000000000000E+00   0.000000000000000E+00   0.000000000000000E+00
   0.000000000000000E+00   0.000000000000000E+00   0.000000000000000E+00
   0.000000000000000E+00   0.000000000000000E+00   0.000000000000000E+00
   0.000000000000000E+00   0.000000000000000E+00   0.000000000000000E+00
   0.000000000000000E+00   0.000000000000000E+00   0.000000000000000E+00
   0.000000000000000E+00   0.000000000000000E+00   0.000000000000000E+00
   0.000000000000000E+00   0.000000000000000E+00   0.000000000000000E+00
   0.000000000000000E+00   0.000000000000000E+00   0.000000000000000E+00
   0.000000000000000E+00   0.000000000000000E+00   0.000000000000000E+00
   0.000000000000000E+00   0.000000000000000E+00   0.000000000000000E+00
   0.000000000000000E+00   0.000000000000000E+00   0.000000000000000E+00
   0.000000000000000E+00   0.000000000000000E+00   0.000000000000000E+00
   0.000000000000000E+00   0.000000000000000E+00   0.000000000000000E+00
   0.000000000000000E+00   0.000000000000000E+00   0.000000000000000E+00
   0.000000000000000E+00   0.000000000000000E+00   0.000000000000000E+00
   0.000000000000000E+00   0.000000000000000E+00   0.000000000000000E+00
   0.000000000000000E+00   0.000000000000000E+00   0.000000000000000E+00
   0.000000000000000E+00   0.000000000000000E+00   0.000000000000000E+00
   0.000000000000000E+00   0.000000000000000E+00   0.000000000000000E+00
   0.000000000000000E+00   0.000000000000000E+00   0.000000000000000E+00
   0.000000000000000E+00   0.000000000000000E+00   0.000000000000000E+00
   0.000000000000000E+00   0.000000000000000E+00   0.000000000000000E+00
   0.000000000000000E+00   0.000000000000000E+00   0.000000000000000E+00
   0.000000000000000E+00   0.000000000000000E+00   0.000000000000000E+00
   0.000000000000000E+00   0.000000000000000E+00   0.000000000000000E+00
   0.000000000000000E+00   0.000000000000000E+00   0.000000000000000E+00
   0.000000000000000E+00   0.000000000000000E+00   0.000000000000000E+00
   0.000000000000000E+00   0.000000000000000E+00   0.000000000000000E+00
   0.000000000000000E+00   0.000000000000000E+00   0.000000000000000E+00
   0.000000000000000E+00   0.000000000000000E+00   0.000000000000000E+00
   0.000000000000000E+00   0.000000000000000E+00   0.000000000000000E+00
   0.000000000000000E+00   0.000000000000000E+00   0.000000000000000E+00
   0.000000000000000E+00   0.000000000000000E+00   0.000000000000000E+00
   0.000000000000000E+00   0.000000000000000E+00   0.000000000000000E+00
   0.000000000000000E+00   0.000000000000000E+00   0.000000000000000E+00
   0.000000000000000E+00   0.000000000000000E+00   0.000000000000000E+00
   0.000000000000000E+00   0.000000000000000E+00   0.000000000000000E+00
   0.000000000000000E+00   0.000000000000000E+00   0.000000000000000E+00
   0.000000000000000E+00   0.000000000000000E+00   0.000000000000000E+00
   0.000000000000000E+00   0.000000000000000E+00   0.000000000000000E+00
   0.000000000000000E+00   0.000000000000000E+00   0.000000000000000E+00
   0.000000000000000E+00   0.000000000000000E+00   0.000000000000000E+00
   0.000000000000000E+00   0.000000000000000E+00   0.000000000000000E+00
   0.000000000000000E+00   0.000000000000000E+00   0.000000000000000E+00
   0.000000000000000E+00   0.000000000000000E+00   0.000000000000000E+00
   0.000000000000000E+00   0.000000000000000E+00   0.000000000000000E+00
   0.000000000000000E+00   0.000000000000000E+00   0.000000000000000E+00
   0.000000000000000E+00   0.000000000000000E+00   0.000000000000000E+00
   0.000000000000000E+00   0.000000000000000E+00   0.000000000000000E+00
   0.000000000000000E+00   0.000000000000000E+00   0.000000000000000E+00
   0.000000000000000E+00   0.000000000000000E+00   0.000000000000000E+00
   0.000000000000000E+00   0.000000000000000E+00   0.000000000000000E+00
   0.000000000000000E+00   0.000000000000000E+00   0.000000000000000E+00
   0.000000000000000E+00   0.000000000000000E+00   0.000000000000000E+00
   0.000000000000000E+00   0.000000000000000E+00   0.000000000000000E+00
   0.000000000000000E+00   0.000000000000000E+00   0.000000000000000E+00
   0.000000000000000E+00   0.000000000000000E+00   0.000000000000000E+00
   0.000000000000000E+00   0.000000000000000E+00   0.000000000000000E+00
   0.000000000000000E+00   0.000000000000000E+00   0.000000000000000E+00
   0.000000000000000E+00   0.000000000000000E+00   0.000000000000000E+00
   0.000000000000000E+00   0.000000000000000E+00   0.000000000000000E+00
   0.000000000000000E+00   0.000000000000000E+00   0.000000000000000E+00
   0.000000000000000E+00   0.000000000000000E+00   0.000000000000000E+00
   0.000000000000000E+00   0.000000000000000E+00   0.000000000000000E+00
   0.000000000000000E+00   0.000000000000000E+00   0.000000000000000E+00
   0.000000000000000E+00   0.000000000000000E+00   0.000000000000000E+00
   0.000000000000000E+00   0.000000000000000E+00   0.000000000000000E+00
   0.000000000000000E+00   0.000000000000000E+00   0.000000000000000E+00
   0.000000000000000E+00   0.000000000000000E+00   0.000000000000000E+00
   0.000000000000000E+00   0.000000000000000E+00   0.000000000000000E+00
   0.000000000000000E+00   0.000000000000000E+00   0.000000000000000E+00
   0.000000000000000E+00   0.000000000000000E+00   0.000000000000000E+00
   0.000000000000000E+00   0.000000000000000E+00   0.000000000000000E+00
   0.000000000000000E+00   0.000000000000000E+00   0.000000000000000E+00
   0.000000000000000E+00   0.000000000000000E+00   0.000000000000000E+00
   0.000000000000000E+00   0.000000000000000E+00   0.000000000000000E+00
   0.000000000000000E+00   0.000000000000000E+00   0.000000000000000E+00
   0.000000000000000E+00   0.000000000000000E+00   0.000000000000000E+00
   0.000000000000000E+00   0.000000000000000E+00   0.000000000000000E+00
   0.000000000000000E+00   0.000000000000000E+00   0.000000000000000E+00
   0.000000000000000E+00   0.000000000000000E+00   0.000000000000000E+00
   0.000000000000000E+00   0.000000000000000E+00   0.000000000000000E+00
   0.000000000000000E+00   0.000000000000000E+00   0.000000000000000E+00
   0.000000000000000E+00   0.000000000000000E+00   0.000000000000000E+00
   0.000000000000000E+00   0.000000000000000E+00   0.000000000000000E+00
   0.000000000000000E+00   0.000000000000000E+00   0.000000000000000E+00
   0.000000000000000E+00   0.000000000000000E+00   0.000000000000000E+00
   0.000000000000000E+00   0.000000000000000E+00   0.000000000000000E+00
   0.000000000000000E+00   0.000000000000000E+00   0.000000000000000E+00
   0.000000000000000E+00   0.000000000000000E+00   0.000000000000000E+00
   0.000000000000000E+00   0.000000000000000E+00   0.000000000000000E+00
   0.000000000000000E+00   0.000000000000000E+00   0.000000000000000E+00
   0.000000000000000E+00   0.000000000000000E+00   0.000000000000000E+00
   0.000000000000000E+00   0.000000000000000E+00   0.000000000000000E+00
   0.000000000000000E+00   0.000000000000000E+00   0.000000000000000E+00
   0.000000000000000E+00   0.000000000000000E+00   0.000000000000000E+00
   0.000000000000000E+00   0.000000000000000E+00   0.000000000000000E+00
   0.000000000000000E+00   0.000000000000000E+00   0.000000000000000E+00
   0.000000000000000E+00   0.000000000000000E+00   0.000000000000000E+00
   0.000000000000000E+00   0.000000000000000E+00   0.000000000000000E+00
   0.000000000000000E+00   0.000000000000000E+00   0.000000000000000E+00
   0.000000000000000E+00   0.000000000000000E+00   0.000000000000000E+00
   0.000000000000000E+00   0.000000000000000E+00   0.000000000000000E+00
   0.000000000000000E+00   0.000000000000000E+00   0.000000000000000E+00
      </PP_QIJL.1.4.1>
      <PP_QIJL.2.2.0 first_index="2" second_index="2" composite_index="3" angular_momentum="0" size="1095">
  -4.074151241309601E-08  -4.177288863861396E-08  -4.283037427391762E-08
  -4.391463028167430E-08  -4.502633435689153E-08  -4.616618135049723E-08
  -4.733488370364375E-08  -4.853317189300587E-08  -4.976179488735150E-08
  -5.102152061567116E-08  -5.231313644715699E-08  -5.363744968333349E-08
  -5.499528806264620E-08  -5.638750027782393E-08  -5.781495650633862E-08
  -5.927854895429279E-08  -6.077919241407645E-08  -6.231782483614078E-08
  -6.389540791524608E-08  -6.551292769155146E-08  -6.717139516691957E-08
  -6.887184693682468E-08  -7.061534583825661E-08  -7.240298161402676E-08
  -7.423587159389122E-08  -7.611516139291549E-08  -7.804202562751982E-08
  -8.001766864965019E-08  -8.204332529953506E-08  -8.412026167749886E-08
  -8.624977593531253E-08  -8.843319908757854E-08  -9.067189584365519E-08
  -9.296726546064153E-08  -9.532074261795583E-08  -9.773379831405300E-08
  -1.002079407858433E-07  -1.027447164513861E-07  -1.053457108764473E-07
  -1.080125497655262E-07  -1.107468999779687E-07  -1.135504705698047E-07
  -1.164250138619588E-07  -1.193723265355035E-07  -1.223942507546379E-07
  -1.254926753180948E-07  -1.286695368396958E-07  -1.319268209587920E-07
  -1.352665635813467E-07  -1.386908521524372E-07  -1.422018269609677E-07
  -1.458016824774130E-07  -1.494926687254262E-07  -1.532770926881681E-07
  -1.571573197502399E-07  -1.611357751761145E-07  -1.652149456259976E-07
  -1.693973807100613E-07  -1.736856945820226E-07  -1.780825675730652E-07
  -1.825907478671198E-07  -1.872130532185583E-07  -1.919523727133689E-07
  -1.968116685749150E-07  -2.017939780154090E-07  -2.069024151342515E-07
  -2.121401728644311E-07  -2.175105249681951E-07  -2.230168280832391E-07
  -2.286625238206991E-07  -2.344511409162492E-07  -2.403862974356579E-07
  -2.464717030361756E-07  -2.527111612851685E-07  -2.591085720374518E-07
  -2.656679338727974E-07  -2.723933465951540E-07  -2.792890137951299E-07
  -2.863592454773462E-07  -2.936084607543012E-07  -3.010411906084264E-07
  -3.086620807240668E-07  -3.164758943911498E-07  -3.244875154823603E-07
  -3.327019515056835E-07  -3.411243367342176E-07  -3.497599354152216E-07
  -3.586141450603966E-07  -3.676924998194589E-07  -3.770006739391178E-07
  -3.865444853096089E-07  -3.963298991010136E-07  -4.063630314916274E-07
  -4.166501534907098E-07  -4.271976948580094E-07  -4.380122481225027E-07
  -4.491005727028734E-07  -4.604695991322942E-07  -4.721264333901598E-07
  -4.840783613434771E-07  -4.963328533006795E-07  -5.088975686807287E-07
  -5.217803608004032E-07  -5.349892817827811E-07  -5.485325875899779E-07
  -5.624187431832770E-07  -5.766564278138957E-07  -5.912545404476787E-07
  -6.062222053271146E-07  -6.215687776741547E-07  -6.373038495373863E-07
  -6.534372557872325E-07  -6.699790802629102E-07  -6.869396620749961E-07
  -7.043296020675402E-07  -7.221597694437523E-07  -7.404413085594244E-07
  -7.591856458883163E-07  -7.784044971638646E-07  -7.981098747016826E-07
  -8.183140949074116E-07  -8.390297859746383E-07  -8.602698957776704E-07
  -8.820476999641116E-07  -9.043768102522986E-07  -9.272711829387621E-07
  -9.507451276210622E-07  -9.748133161414257E-07  -9.994907917567793E-07
  -1.024792978540919E-06  -1.050735691024673E-06  -1.077335144080099E-06
  -1.104607963054892E-06  -1.132571194163325E-06  -1.161242315140227E-06
  -1.190639246164641E-06  -1.220780361060014E-06  -1.251684498777895E-06
  -1.283370975172322E-06  -1.315859595072277E-06  -1.349170664659705E-06
  -1.383325004160893E-06  -1.418343960859096E-06  -1.454249422436555E-06
  -1.491063830654248E-06  -1.528810195377917E-06  -1.567512108959136E-06
  -1.607193760980415E-06  -1.647879953373539E-06  -1.689596115920610E-06
  -1.732368322147443E-06  -1.776223305619294E-06  -1.821188476649065E-06
  -1.867291939428441E-06  -1.914562509592678E-06  -1.963029732229966E-06
  -2.012723900346691E-06  -2.063676073800091E-06  -2.115918098710125E-06
  -2.169482627362736E-06  -2.224403138616867E-06  -2.280713958828070E-06
  -2.338450283301707E-06  -2.397648198289178E-06  -2.458344703540956E-06
  -2.520577735430397E-06  -2.584386190662975E-06  -2.649809950585527E-06
  -2.716889906110872E-06  -2.785667983273318E-06  -2.856187169430933E-06
  -2.928491540131174E-06  -3.002626286656375E-06  -3.078637744266538E-06
  -3.156573421156973E-06  -3.236482028148802E-06  -3.318413509131107E-06
  -3.402419072273440E-06  -3.488551222028436E-06  -3.576863791944430E-06
  -3.667411978308490E-06  -3.760252374641115E-06  -3.855443007063848E-06
  -3.953043370562153E-06  -4.053114466166085E-06  -4.155718839071915E-06
  -4.260920617728765E-06  -4.368785553914346E-06  -4.479381063825080E-06
  -4.592776270206200E-06  -4.709042045548013E-06  -4.828251056375604E-06
  -4.950477808659263E-06  -5.075798694374329E-06  -5.204292039239374E-06
  -5.336038151662453E-06  -5.471119372926294E-06  -5.609620128643377E-06
  -5.751626981513340E-06  -5.897228685415586E-06  -6.046516240870652E-06
  -6.199582951905435E-06  -6.356524484357240E-06  -6.517438925653480E-06
  -6.682426846104211E-06  -6.851591361745587E-06  -7.025038198773922E-06
  -7.202875759610054E-06  -7.385215190635682E-06  -7.572170451643814E-06
  -7.763858387046474E-06  -7.960398798884676E-06  -8.161914521685546E-06
  -8.368531499213876E-06  -8.580378863165835E-06  -8.797589013853703E-06
  -9.020297702932627E-06  -9.248644118220238E-06  -9.482770970662737E-06
  -9.722824583501424E-06  -9.968954983695162E-06  -1.022131599565643E-05
  -1.048006533735864E-05  -1.074536471887536E-05  -1.101737994341276E-05
  -1.129628101089793E-05  -1.158224222418848E-05  -1.187544229796887E-05
  -1.217606447040198E-05  -1.248429661760542E-05  -1.280033137102371E-05
  -1.312436623777025E-05  -1.345660372401324E-05  -1.379725146148322E-05
  -1.414652233718103E-05  -1.450463462636647E-05  -1.487181212891182E-05
  -1.524828430910375E-05  -1.563428643898216E-05  -1.603005974530454E-05
  -1.643585156022744E-05  -1.685191547579987E-05  -1.727851150236363E-05
  -1.771590623096049E-05  -1.816437299984691E-05  -1.862419206521996E-05
  -1.909565077626135E-05  -1.957904375460819E-05  -2.007467307836252E-05
  -2.058284847075447E-05  -2.110388749357611E-05  -2.163811574550709E-05
  -2.218586706545508E-05  -2.274748374103819E-05  -2.332331672233885E-05
  -2.391372584106241E-05  -2.451908003523713E-05  -2.513975757959504E-05
  -2.577614632177767E-05  -2.642864392451342E-05  -2.709765811391713E-05
  -2.778360693406701E-05  -2.848691900801666E-05  -2.920803380540533E-05
  -2.994740191683244E-05  -3.070548533516718E-05  -3.148275774396854E-05
  -3.227970481319465E-05  -3.309682450238582E-05  -3.393462737150972E-05
  -3.479363689966166E-05  -3.567438981181882E-05  -3.657743641385079E-05
  -3.750334093599517E-05  -3.845268188501178E-05  -3.942605240523364E-05
  -4.042406064874009E-05  -4.144733015488088E-05  -4.249650023938785E-05
  -4.357222639331575E-05  -4.467518069205905E-05  -4.580605221470007E-05
  -4.696554747394742E-05  -4.815439085693251E-05  -4.937332507713727E-05
  -5.062311163773313E-05  -5.190453130661965E-05  -5.321838460345605E-05
  -5.456549229898873E-05  -5.594669592698422E-05  -5.736285830908359E-05
  -5.881486409290568E-05  -6.030362030373029E-05  -6.183005691010470E-05
  -6.339512740372308E-05  -6.499980939393736E-05  -6.664510521726866E-05
  -6.833204256229507E-05  -7.006167511030354E-05  -7.183508319210149E-05
  -7.365337446139395E-05  -7.551768458514343E-05  -7.742917795133794E-05
  -7.938904839460525E-05  -8.139851994012151E-05  -8.345884756627246E-05
  -8.557131798653958E-05  -8.773725045109188E-05  -8.995799756857929E-05
  -9.223494614863333E-05  -9.456951806559427E-05  -9.696317114399835E-05
  -9.941740006636814E-05  -1.019337373038671E-04  -1.045137540703906E-04
  -1.071590613006783E-04  -1.098713106530534E-04  -1.126521955374011E-04
  -1.155034521690199E-04  -1.184268606489940E-04  -1.214242460717465E-04
  -1.244974796604576E-04  -1.276484799310399E-04  -1.308792138853870E-04
  -1.341916982346262E-04  -1.375880006531239E-04  -1.410702410640094E-04
  -1.446405929570084E-04  -1.483012847393868E-04  -1.520546011208332E-04
  -1.559028845331263E-04  -1.598485365854492E-04  -1.638940195562454E-04
  -1.680418579225195E-04  -1.722946399275180E-04  -1.766550191877444E-04
  -1.811257163402816E-04  -1.857095207314312E-04  -1.904092921476886E-04
  -1.952279625901074E-04  -2.001685380931311E-04  -2.052341005889896E-04
  -2.104278098187958E-04  -2.157529052914943E-04  -2.212127082918485E-04
  -2.268106239386805E-04  -2.325501432946009E-04  -2.384348455285086E-04
  -2.444684001321567E-04  -2.506545691921221E-04  -2.569972097185465E-04
  -2.635002760320400E-04  -2.701678222101909E-04  -2.770040045951396E-04
  -2.840130843637214E-04  -2.911994301617168E-04  -2.985675208037790E-04
  -3.061219480406536E-04  -3.138674193953395E-04  -3.218087610698763E-04
  -3.299509209244919E-04  -3.382989715308694E-04  -3.468581133013566E-04
  -3.556336776959601E-04  -3.646311305090248E-04  -3.738560752375426E-04
  -3.833142565330642E-04  -3.930115637392613E-04  -4.029540345172068E-04
  -4.131478585605040E-04  -4.235993814024428E-04  -4.343151083174008E-04
  -4.453017083187798E-04  -4.565660182557931E-04  -4.681150470114951E-04
  -4.799559798044901E-04  -4.920961825967991E-04  -5.045432066104526E-04
  -5.173047929553986E-04  -5.303888773713971E-04  -5.438035950866261E-04
  -5.575572857957718E-04  -5.716584987604666E-04  -5.861159980349685E-04
  -6.009387678200630E-04  -6.161360179482208E-04  -6.317171895031233E-04
  -6.476919605767122E-04  -6.640702521670231E-04  -6.808622342200989E-04
  -6.980783318193680E-04  -7.157292315259473E-04  -7.338258878733755E-04
  -7.523795300204063E-04  -7.714016685655113E-04  -7.909041025268594E-04
  -8.108989264916009E-04  -8.313985379383534E-04  -8.524156447368919E-04
  -8.739632728291089E-04  -8.960547740953828E-04  -9.187038344106120E-04
  -9.419244818941986E-04  -9.657310953584190E-04  -9.901384129596415E-04
  -1.015161541056979E-03  -1.040815963283041E-03  -1.067117549831505E-03
  -1.094082566966392E-03  -1.121727686757935E-03  -1.150069997050066E-03
  -1.179127011664656E-03  -1.208916680847648E-03  -1.239457401962442E-03
  -1.270768030435859E-03  -1.302867890962189E-03  -1.335776788970876E-03
  -1.369515022363480E-03  -1.404103393525707E-03  -1.439563221620302E-03
  -1.475916355166757E-03  -1.513185184913867E-03  -1.551392657011201E-03
  -1.590562286485738E-03  -1.630718171029926E-03  -1.671885005107537E-03
  -1.714088094383802E-03  -1.757353370486313E-03  -1.801707406103389E-03
  -1.847177430426542E-03  -1.893791344943861E-03  -1.941577739591165E-03
  -1.990565909267806E-03  -2.040785870724184E-03  -2.092268379827975E-03
  -2.145044949216200E-03  -2.199147866340343E-03  -2.254610211911668E-03
  -2.311465878754074E-03  -2.369749591071765E-03  -2.429496924139071E-03
  -2.490744324419821E-03  -2.553529130123593E-03  -2.617889592206329E-03
  -2.683864895822655E-03  -2.751495182237325E-03  -2.820821571203201E-03
  -2.891886183813069E-03  -2.964732165832682E-03  -3.039403711522274E-03
  -3.115946087953746E-03  -3.194405659830721E-03  -3.274829914818422E-03
  -3.357267489390434E-03  -3.441768195199104E-03  -3.528383045976276E-03
  -3.617164284970934E-03  -3.708165412930018E-03  -3.801441216628682E-03
  -3.897047797955837E-03  -3.995042603560699E-03  -4.095484455065800E-03
  -4.198433579851468E-03  -4.303951642416724E-03  -4.412101776320920E-03
  -4.522948616710192E-03  -4.636558333432426E-03  -4.752998664743754E-03
  -4.872338951609442E-03  -4.994650172601153E-03  -5.120004979392213E-03
  -5.248477732851836E-03  -5.380144539738446E-03  -5.515083289991809E-03
  -5.653373694622603E-03  -5.795097324197417E-03  -5.940337647916262E-03
  -6.089180073278521E-03  -6.241711986332677E-03  -6.398022792503576E-03
  -6.558203957990176E-03  -6.722349051725396E-03  -6.890553787888219E-03
  -7.062916068957124E-03  -7.239536029292083E-03  -7.420516079231033E-03
  -7.605960949684974E-03  -7.795977737213878E-03  -7.990675949564161E-03
  -8.190167551645913E-03  -8.394567011926365E-03  -8.603991349213715E-03
  -8.818560179802797E-03  -9.038395764952092E-03  -9.263623058658382E-03
  -9.494369755692851E-03  -9.730766339859446E-03  -9.972946132432835E-03
  -1.022104534073066E-02  -1.047520310677056E-02  -1.073556155595921E-02
  -1.100226584575672E-02  -1.127546421425530E-02  -1.155530802860727E-02
  -1.184195183323266E-02  -1.213555339773193E-02  -1.243627376442443E-02
  -1.274427729542765E-02  -1.305973171918734E-02  -1.338280817636220E-02
  -1.371368126496084E-02  -1.405252908462286E-02  -1.439953327992805E-02
  -1.475487908261198E-02  -1.511875535255787E-02  -1.549135461742721E-02
  -1.587287311078379E-02  -1.626351080855650E-02  -1.666347146367852E-02
  -1.707296263873006E-02  -1.749219573640292E-02  -1.792138602759471E-02
  -1.836075267692946E-02  -1.881051876549144E-02  -1.927091131054622E-02
  -1.974216128201152E-02  -2.022450361542813E-02  -2.071817722116688E-02
  -2.122342498959578E-02  -2.174049379191549E-02  -2.226963447635759E-02
  -2.281110185942435E-02  -2.336515471183256E-02  -2.393205573880791E-02
  -2.451207155435855E-02  -2.510547264913903E-02  -2.571253335149720E-02
  -2.633353178127694E-02  -2.696874979593092E-02  -2.761847292847559E-02
  -2.828299031680048E-02  -2.896259462382149E-02  -2.965758194794480E-02
  -3.036825172328597E-02  -3.109490660906327E-02  -3.183785236756051E-02
  -3.259739773002938E-02  -3.337385424987380E-02  -3.416753614243434E-02
  -3.497876011066138E-02  -3.580784515593858E-02  -3.665511237328990E-02
  -3.752088473017307E-02  -3.840548682803464E-02  -3.930924464576976E-02
  -4.023248526420025E-02  -4.117553657065385E-02  -4.213872694269499E-02
  -4.312238491002795E-02  -4.412683879355990E-02  -4.515241632058087E-02
  -4.619944421498589E-02  -4.726824776143236E-02  -4.835915034229653E-02
  -4.947247294626082E-02  -5.060853364733399E-02  -5.176764705307873E-02
  -5.295012372078969E-02  -5.415626954034303E-02  -5.538638508240820E-02
  -5.664076491069224E-02  -5.791969685686444E-02  -5.922346125678794E-02
  -6.055233014667170E-02  -6.190656641773836E-02  -6.328642292799598E-02
  -6.469214156969366E-02  -6.612395229103731E-02  -6.758207207074721E-02
  -6.906670384404254E-02  -7.057803537865306E-02  -7.211623809947762E-02
  -7.368146586053291E-02  -7.527385366287384E-02  -7.689351631720422E-02
  -7.854054704995120E-02  -8.021501605163615E-02  -8.191696896644539E-02
  -8.364642532199036E-02  -8.540337689833945E-02  -8.718778603551412E-02
  -8.899958387876679E-02  -9.083866856109411E-02  -9.270490332260058E-02
  -9.459811456649662E-02  -9.651808985171180E-02  -9.846457582231753E-02
  -1.004372760741874E-01  -1.024358489595871E-01  -1.044599053306643E-01
  -1.065090062231246E-01  -1.085826604817136E-01  -1.106803223294933E-01
  -1.128013888833026E-01  -1.149451976182175E-01  -1.171110237842931E-01
  -1.192980777793726E-01  -1.215055024822797E-01  -1.237323705512936E-01
  -1.259776816934179E-01  -1.282403599106132E-01  -1.305192507298659E-01
  -1.328131184247070E-01  -1.351206432365902E-01  -1.374404186053692E-01
  -1.397709484190015E-01  -1.421106442935354E-01  -1.444578228954123E-01
  -1.468107033191492E-01  -1.491674045345305E-01  -1.515259429185641E-01
  -1.538842298886189E-01  -1.562400696543666E-01  -1.585911571074010E-01
  -1.609350758686953E-01  -1.632692965153750E-01  -1.655911750096371E-01
  -1.678979513540175E-01  -1.701867484986048E-01  -1.724545715271985E-01
  -1.746983071508143E-01  -1.769147235383402E-01  -1.791004705155205E-01
  -1.812520801647981E-01  -1.833659678598449E-01  -1.854384337698519E-01
  -1.874656648698194E-01  -1.894437374941462E-01  -1.913686204717781E-01
  -1.932361788819718E-01  -1.950421784703820E-01  -1.967822907656224E-01
  -1.984520989366782E-01  -2.000471044315243E-01  -2.015627344369771E-01
  -2.029943501991742E-01  -2.043372562430735E-01  -2.055867105279471E-01
  -2.067379355740057E-01  -2.077861305929379E-01  -2.087264846522792E-01
  -2.095541909000657E-01  -2.102644618721353E-01  -2.108525458996829E-01
  -2.113137446291749E-01  -2.116434316604668E-01  -2.118370723018838E-01
  -2.118902444330704E-01  -2.117986604575634E-01  -2.115581903172490E-01
  -2.111648855300923E-01  -2.106150042007715E-01  -2.099050369410687E-01
  -2.090317336230800E-01  -2.079921308735072E-01  -2.067835802014991E-01
  -2.054037766357654E-01  -2.038507877290465E-01  -2.021230827695503E-01
  -2.002195620197839E-01  -1.981395857834199E-01  -1.958830030805964E-01
  -1.934501796915783E-01  -1.908420253081534E-01  -1.880600195118415E-01
  -1.851062362781798E-01  -1.819833666873842E-01  -1.786947395039633E-01
  -1.752443392717483E-01  -1.716368215568376E-01  -1.678775249595779E-01
  -1.639724795085010E-01  -1.599284110447258E-01  -1.557527412052538E-01
  -1.514535826186152E-01  -1.470397289370336E-01  -1.425206393464148E-01
  -1.379064172197473E-01  -1.332077826115254E-01  -1.284360383313328E-01
  -1.236030293842441E-01  -1.187210956248076E-01  -1.138030175404674E-01
  -1.088619551595909E-01  -1.039113801690022E-01  -9.896500142585817E-02
  -9.403668415856926E-02  -8.914036327059466E-02  -8.428995128824271E-02
  -7.949924162781209E-02  -7.478180799651794E-02  -7.015090088338664E-02
  -6.561934223774542E-02  -6.119941957051311E-02  -5.690278084315825E-02
  -5.274033162602758E-02  -4.872213610633719E-02  -4.485732360027837E-02
  -4.115400226656298E-02  -3.761918172296612E-02  -3.425870622501147E-02
  -3.107719996858869E-02  -2.807802591744647E-02  -2.526325932352940E-02
  -2.263367679482981E-02  -2.018876136401663E-02  -1.792672351499235E-02
  -1.584453752855797E-02  -1.393799180943592E-02  -1.220175105472639E-02
  -1.062942722151168E-02  -9.213655256135968E-03  -7.946168472112033E-03
  -6.817867326011029E-03  -5.818874166428512E-03  -4.938565353248409E-03
  -4.165571004714708E-03  -3.487731579422310E-03  -2.893314601169122E-03
  -2.375181174981866E-03  -1.927415887160278E-03  -1.544128157793173E-03
  -1.219485561731848E-03  -9.477476930970785E-04  -7.233005955494254E-04
  -5.406917384925547E-04  -3.946654566969882E-04  -2.801986841579340E-04
  -1.925366988660276E-04  -1.272284506182719E-04  -8.016086561149494E-05
  -4.759130675419110E-05  -2.617711508223070E-05  -1.300086349932672E-05
  -5.589618772040839E-06  -1.926131371787765E-06  -4.494573099186883E-07
  -4.206509817035464E-08   0.000000000000000E+00   0.000000000000000E+00
   0.000000000000000E+00   0.000000000000000E+00   0.000000000000000E+00
   0.000000000000000E+00   0.000000000000000E+00   0.000000000000000E+00
   0.000000000000000E+00   0.000000000000000E+00   0.000000000000000E+00
   0.000000000000000E+00   0.000000000000000E+00   0.000000000000000E+00
   0.000000000000000E+00   0.000000000000000E+00   0.000000000000000E+00
   0.000000000000000E+00   0.000000000000000E+00   0.000000000000000E+00
   0.000000000000000E+00   0.000000000000000E+00   0.000000000000000E+00
   0.000000000000000E+00   0.000000000000000E+00   0.000000000000000E+00
   0.000000000000000E+00   0.000000000000000E+00   0.000000000000000E+00
   0.000000000000000E+00   0.000000000000000E+00   0.000000000000000E+00
   0.000000000000000E+00   0.000000000000000E+00   0.000000000000000E+00
   0.000000000000000E+00   0.000000000000000E+00   0.000000000000000E+00
   0.000000000000000E+00   0.000000000000000E+00   0.000000000000000E+00
   0.000000000000000E+00   0.000000000000000E+00   0.000000000000000E+00
   0.000000000000000E+00   0.000000000000000E+00   0.000000000000000E+00
   0.000000000000000E+00   0.000000000000000E+00   0.000000000000000E+00
   0.000000000000000E+00   0.000000000000000E+00   0.000000000000000E+00
   0.000000000000000E+00   0.000000000000000E+00   0.000000000000000E+00
   0.000000000000000E+00   0.000000000000000E+00   0.000000000000000E+00
   0.000000000000000E+00   0.000000000000000E+00   0.000000000000000E+00
   0.000000000000000E+00   0.000000000000000E+00   0.000000000000000E+00
   0.000000000000000E+00   0.000000000000000E+00   0.000000000000000E+00
   0.000000000000000E+00   0.000000000000000E+00   0.000000000000000E+00
   0.000000000000000E+00   0.000000000000000E+00   0.000000000000000E+00
   0.000000000000000E+00   0.000000000000000E+00   0.000000000000000E+00
   0.000000000000000E+00   0.000000000000000E+00   0.000000000000000E+00
   0.000000000000000E+00   0.000000000000000E+00   0.000000000000000E+00
   0.000000000000000E+00   0.000000000000000E+00   0.000000000000000E+00
   0.000000000000000E+00   0.000000000000000E+00   0.000000000000000E+00
   0.000000000000000E+00   0.000000000000000E+00   0.000000000000000E+00
   0.000000000000000E+00   0.000000000000000E+00   0.000000000000000E+00
   0.000000000000000E+00   0.000000000000000E+00   0.000000000000000E+00
   0.000000000000000E+00   0.000000000000000E+00   0.000000000000000E+00
   0.000000000000000E+00   0.000000000000000E+00   0.000000000000000E+00
   0.000000000000000E+00   0.000000000000000E+00   0.000000000000000E+00
   0.000000000000000E+00   0.000000000000000E+00   0.000000000000000E+00
   0.000000000000000E+00   0.000000000000000E+00   0.000000000000000E+00
   0.000000000000000E+00   0.000000000000000E+00   0.000000000000000E+00
   0.000000000000000E+00   0.000000000000000E+00   0.000000000000000E+00
   0.000000000000000E+00   0.000000000000000E+00   0.000000000000000E+00
   0.000000000000000E+00   0.000000000000000E+00   0.000000000000000E+00
   0.000000000000000E+00   0.000000000000000E+00   0.000000000000000E+00
   0.000000000000000E+00   0.000000000000000E+00   0.000000000000000E+00
   0.000000000000000E+00   0.000000000000000E+00   0.000000000000000E+00
   0.000000000000000E+00   0.000000000000000E+00   0.000000000000000E+00
   0.000000000000000E+00   0.000000000000000E+00   0.000000000000000E+00
   0.000000000000000E+00   0.000000000000000E+00   0.000000000000000E+00
   0.000000000000000E+00   0.000000000000000E+00   0.000000000000000E+00
   0.000000000000000E+00   0.000000000000000E+00   0.000000000000000E+00
   0.000000000000000E+00   0.000000000000000E+00   0.000000000000000E+00
   0.000000000000000E+00   0.000000000000000E+00   0.000000000000000E+00
   0.000000000000000E+00   0.000000000000000E+00   0.000000000000000E+00
   0.000000000000000E+00   0.000000000000000E+00   0.000000000000000E+00
   0.000000000000000E+00   0.000000000000000E+00   0.000000000000000E+00
   0.000000000000000E+00   0.000000000000000E+00   0.000000000000000E+00
   0.000000000000000E+00   0.000000000000000E+00   0.000000000000000E+00
   0.000000000000000E+00   0.000000000000000E+00   0.000000000000000E+00
   0.000000000000000E+00   0.000000000000000E+00   0.000000000000000E+00
   0.000000000000000E+00   0.000000000000000E+00   0.000000000000000E+00
   0.000000000000000E+00   0.000000000000000E+00   0.000000000000000E+00
   0.000000000000000E+00   0.000000000000000E+00   0.000000000000000E+00
   0.000000000000000E+00   0.000000000000000E+00   0.000000000000000E+00
   0.000000000000000E+00   0.000000000000000E+00   0.000000000000000E+00
   0.000000000000000E+00   0.000000000000000E+00   0.000000000000000E+00
   0.000000000000000E+00   0.000000000000000E+00   0.000000000000000E+00
   0.000000000000000E+00   0.000000000000000E+00   0.000000000000000E+00
   0.000000000000000E+00   0.000000000000000E+00   0.000000000000000E+00
   0.000000000000000E+00   0.000000000000000E+00   0.000000000000000E+00
   0.000000000000000E+00   0.000000000000000E+00   0.000000000000000E+00
   0.000000000000000E+00   0.000000000000000E+00   0.000000000000000E+00
   0.000000000000000E+00   0.000000000000000E+00   0.000000000000000E+00
   0.000000000000000E+00   0.000000000000000E+00   0.000000000000000E+00
   0.000000000000000E+00   0.000000000000000E+00   0.000000000000000E+00
   0.000000000000000E+00   0.000000000000000E+00   0.000000000000000E+00
   0.000000000000000E+00   0.000000000000000E+00   0.000000000000000E+00
   0.000000000000000E+00   0.000000000000000E+00   0.000000000000000E+00
   0.000000000000000E+00   0.000000000000000E+00   0.000000000000000E+00
   0.000000000000000E+00   0.000000000000000E+00   0.000000000000000E+00
   0.000000000000000E+00   0.000000000000000E+00   0.000000000000000E+00
   0.000000000000000E+00   0.000000000000000E+00   0.000000000000000E+00
   0.000000000000000E+00   0.000000000000000E+00   0.000000000000000E+00
   0.000000000000000E+00   0.000000000000000E+00   0.000000000000000E+00
   0.000000000000000E+00   0.000000000000000E+00   0.000000000000000E+00
   0.000000000000000E+00   0.000000000000000E+00   0.000000000000000E+00
   0.000000000000000E+00   0.000000000000000E+00   0.000000000000000E+00
   0.000000000000000E+00   0.000000000000000E+00   0.000000000000000E+00
   0.000000000000000E+00   0.000000000000000E+00   0.000000000000000E+00
   0.000000000000000E+00   0.000000000000000E+00   0.000000000000000E+00
   0.000000000000000E+00   0.000000000000000E+00   0.000000000000000E+00
   0.000000000000000E+00   0.000000000000000E+00   0.000000000000000E+00
   0.000000000000000E+00   0.000000000000000E+00   0.000000000000000E+00
   0.000000000000000E+00   0.000000000000000E+00   0.000000000000000E+00
   0.000000000000000E+00   0.000000000000000E+00   0.000000000000000E+00
   0.000000000000000E+00   0.000000000000000E+00   0.000000000000000E+00
   0.000000000000000E+00   0.000000000000000E+00   0.000000000000000E+00
   0.000000000000000E+00   0.000000000000000E+00   0.000000000000000E+00
   0.000000000000000E+00   0.000000000000000E+00   0.000000000000000E+00
   0.000000000000000E+00   0.000000000000000E+00   0.000000000000000E+00
   0.000000000000000E+00   0.000000000000000E+00   0.000000000000000E+00
   0.000000000000000E+00   0.000000000000000E+00   0.000000000000000E+00
   0.000000000000000E+00   0.000000000000000E+00   0.000000000000000E+00
   0.000000000000000E+00   0.000000000000000E+00   0.000000000000000E+00
   0.000000000000000E+00   0.000000000000000E+00   0.000000000000000E+00
   0.000000000000000E+00   0.000000000000000E+00   0.000000000000000E+00
   0.000000000000000E+00   0.000000000000000E+00   0.000000000000000E+00
   0.000000000000000E+00   0.000000000000000E+00   0.000000000000000E+00
   0.000000000000000E+00   0.000000000000000E+00   0.000000000000000E+00
   0.000000000000000E+00   0.000000000000000E+00   0.000000000000000E+00
   0.000000000000000E+00   0.000000000000000E+00   0.000000000000000E+00
   0.000000000000000E+00   0.000000000000000E+00   0.000000000000000E+00
   0.000000000000000E+00   0.000000000000000E+00   0.000000000000000E+00
   0.000000000000000E+00   0.000000000000000E+00   0.000000000000000E+00
   0.000000000000000E+00   0.000000000000000E+00   0.000000000000000E+00
   0.000000000000000E+00   0.000000000000000E+00   0.000000000000000E+00
   0.000000000000000E+00   0.000000000000000E+00   0.000000000000000E+00
      </PP_QIJL.2.2.0>
      <PP_QIJL.2.3.1 first_index="2" second_index="3" composite_index="5" angular_momentum="1" size="1095">
   4.813620141534726E-12   4.997558163913439E-12   5.188524824407358E-12
   5.386788701247304E-12   5.592628635570308E-12   5.806334123585387E-12
   6.028205723724864E-12   6.258555479353707E-12   6.497707357631333E-12
   6.745997705143362E-12   7.003775720943698E-12   7.271403947672654E-12
   7.549258781441606E-12   7.837731001201276E-12   8.137226318338354E-12
   8.448165947273023E-12   8.770987197860354E-12   9.106144090428399E-12
   9.454107994318064E-12   9.815368290822958E-12   1.019043306146121E-11
   1.057982980254772E-11   1.098410616707142E-11   1.140383073492124E-11
   1.183959381254385E-11   1.229200826315767E-11   1.276171036869126E-11
   1.324936072465783E-11   1.375564516922460E-11   1.428127574778396E-11
   1.482699171438225E-11   1.539356057141551E-11   1.598177914905373E-11
   1.659247472591202E-11   1.722650619254488E-11   1.788476525939951E-11
   1.856817771092756E-11   1.927770470761882E-11   2.001434413778796E-11
   2.077913202101592E-11   2.157314396521888E-11   2.239749667939511E-11
   2.325334954417653E-11   2.414190624239388E-11   2.506441645194925E-11
   2.602217760337575E-11   2.701653670455746E-11   2.804889223517508E-11
   2.912069611354179E-11   3.023345573859599E-11   3.138873610992156E-11
   3.258816202877891E-11   3.383342038324096E-11   3.512626252064843E-11
   3.646850671072158E-11   3.786204070279085E-11   3.930882438074506E-11
   4.081089251942955E-11   4.237035764637122E-11   4.398941301285595E-11
   4.567033567853512E-11   4.741548971390169E-11   4.922732952513807E-11
   5.110840330601242E-11   5.306135662167879E-11   5.508893612941940E-11
   5.719399344156436E-11   5.937948913601989E-11   6.164849692004575E-11
   6.400420795313895E-11   6.644993533510098E-11   6.898911876560315E-11
   7.162532938180181E-11   7.436227478080685E-11   7.720380423406875E-11
   8.015391410101428E-11   8.321675344954856E-11   8.639662989132526E-11
   8.969801563999236E-11   9.312555380093498E-11   9.668406490135782E-11
   1.003785536698952E-10   1.042142160752804E-10   1.081964466339743E-10
   1.123308459970318E-10   1.166232288268730E-10   1.210796319750407E-10
   1.257063229724423E-10   1.305098088440183E-10   1.354968452602346E-10
   1.406744460382647E-10   1.460498930062311E-10   1.516307462443731E-10
   1.574248547175466E-10   1.634403673140088E-10   1.696857443060097E-10
   1.761697692483145E-10   1.829015613313833E-10   1.898905882065869E-10
   1.971466793014944E-10   2.046800396439534E-10   2.125012642144148E-10
   2.206213528466769E-10   2.290517256980109E-10   2.378042393104242E-10
   2.468912032856412E-10   2.563253975972662E-10   2.661200905644645E-10
   2.762890575124440E-10   2.868466001459816E-10   2.978075666632331E-10
   3.091873726381247E-10   3.210020227006855E-10   3.332681330458151E-10
   3.460029548021424E-10   3.592243982938322E-10   3.729510582294735E-10
   3.872022398534625E-10   4.019979860966628E-10   4.173591057645280E-10
   4.333072028023195E-10   4.498647066785887E-10   4.670549039296442E-10
   4.849019709093678E-10   5.034310077904442E-10   5.226680738647996E-10
   5.426402241929225E-10   5.633755476535860E-10   5.849032064474869E-10
   6.072534771103675E-10   6.304577930932706E-10   6.545487889698430E-10
   6.795603463328313E-10   7.055276414443233E-10   7.324871947067559E-10
   7.604769220242299E-10   7.895361881264010E-10   8.197058619299105E-10
   8.510283740152113E-10   8.835477762996395E-10   9.173098039906083E-10
   9.523619399060964E-10   9.887534812528489E-10   1.026535608956212E-09
   1.065761459639104E-09   1.106486200351322E-09   1.148767106154309E-09
   1.192663640670450E-09   1.238237539710193E-09   1.285552898094604E-09
   1.334676259795402E-09   1.385676711519302E-09   1.438625979868217E-09
   1.493598532211961E-09   1.550671681415339E-09   1.609925694566817E-09
   1.671443905861756E-09   1.735312833798894E-09   1.801622302854894E-09
   1.870465569808075E-09   1.941939454888907E-09   2.016144477941784E-09
   2.093184999789463E-09   2.173169368998987E-09   2.256210074255513E-09
   2.342423902558168E-09   2.431932103460629E-09   2.524860559587092E-09
   2.621339963663615E-09   2.721506002313719E-09   2.825499546876543E-09
   2.933466851516180E-09   3.045559758900397E-09   3.161935913738227E-09
   3.282758984476609E-09   3.408198893467645E-09   3.538432055930503E-09
   3.673641628043466E-09   3.814017764515388E-09   3.959757885998539E-09
   4.111066956718735E-09   4.268157772713471E-09   4.431251261082862E-09
   4.600576790674554E-09   4.776372494639284E-09   4.958885605310409E-09
   5.148372801878796E-09   5.345100571351201E-09   5.549345583300211E-09
   5.761395078932430E-09   5.981547275021704E-09   6.210111783275903E-09
   6.447410045726087E-09   6.693775786750852E-09   6.949555482371070E-09
   7.215108847474626E-09   7.490809341656754E-09   7.777044694386322E-09
   8.074217450237038E-09   8.382745534949912E-09   8.703062843122307E-09
   9.035619848350821E-09   9.380884236684444E-09   9.739341564279593E-09
   1.011149594018109E-08   1.049787073518849E-08   1.089900931780550E-08
   1.131547581830543E-08   1.174785592198806E-08   1.219675769274244E-08
   1.266281242807299E-08   1.314667554679177E-08   1.364902751062347E-08
   1.417057478101950E-08   1.471205081252579E-08   1.527421708410006E-08
   1.585786416982942E-08   1.646381285055158E-08   1.709291526794344E-08
   1.774605612269868E-08   1.842415391847766E-08   1.912816225337967E-08
   1.985907116075042E-08   2.061790850121090E-08   2.140574140786342E-08
   2.222367778670478E-08   2.307286787435755E-08   2.395450585530573E-08
   2.486983154090944E-08   2.582013211255766E-08   2.680674393140719E-08
   2.783105441725359E-08   2.889450399917078E-08   2.999858814066305E-08
   3.114485944217393E-08   3.233492982390462E-08   3.357047279201248E-08
   3.485322579136910E-08   3.618499264818706E-08   3.756764610594553E-08
   3.900313045817614E-08   4.049346428181159E-08   4.204074327493151E-08
   4.364714320289657E-08   4.531492295700676E-08   4.704642772998051E-08
   4.884409231271605E-08   5.071044451696409E-08   5.264810872872024E-08
   5.465980959732759E-08   5.674837586546964E-08   5.891674434543402E-08
   6.116796404722903E-08   6.350520046435177E-08   6.593174002322513E-08
   6.845099470255104E-08   7.106650682906757E-08   7.378195405644102E-08
   7.660115453428579E-08   7.952807227456772E-08   8.256682272292382E-08
   8.572167854272178E-08   8.899707561997563E-08   9.239761929754909E-08
   9.592809084739571E-08   9.959345418991894E-08   1.033988628698847E-07
   1.073496672986738E-07   1.114514222730390E-07   1.157098947809177E-07
   1.201310721052488E-07   1.247211702371718E-07   1.294866426104017E-07
   1.344341891690419E-07   1.395707657815505E-07   1.449035940140657E-07
   1.504401712768003E-07   1.561882813577330E-07   1.621560053583716E-07
   1.683517330469241E-07   1.747841746447918E-07   1.814623730629191E-07
   1.883957166051462E-07   1.955939521563806E-07   2.030671988740709E-07
   2.108259624021718E-07   2.188811496275274E-07   2.272440839993453E-07
   2.359265214332339E-07   2.449406668220868E-07   2.542991911769393E-07
   2.640152494218215E-07   2.741024988675207E-07   2.845751183901028E-07
   2.954478283412766E-07   3.067359112178382E-07   3.184552331201262E-07
   3.306222660286249E-07   3.432541109303455E-07   3.563685218274402E-07
   3.699839306612000E-07   3.841194731866827E-07   3.987950158343024E-07
   4.140311835953838E-07   4.298493889713057E-07   4.462718620264448E-07
   4.633216815866463E-07   4.810228076276245E-07   4.994001148977217E-07
   5.184794278225328E-07   5.382875567400444E-07   5.588523355169292E-07
   5.802026605985250E-07   6.023685315468379E-07   6.253810931239962E-07
   6.492726789783127E-07   6.740768569961252E-07   6.998284763806644E-07
   7.265637165248280E-07   7.543201377456937E-07   7.831367339519284E-07
   8.130539873164923E-07   8.441139250326888E-07   8.763601782301896E-07
   9.098380431356766E-07   9.445945445621416E-07   9.806785018144951E-07
   1.018140597105169E-06   1.057033446573078E-06   1.097411674006299E-06
   1.139331987370094E-06   1.182853258247301E-06   1.228036604300907E-06
   1.274945474875133E-06   1.323645739851164E-06   1.374205781884214E-06
   1.426696592147328E-06   1.481191869717303E-06   1.537768124738761E-06
   1.596504785510296E-06   1.657484309642178E-06   1.720792299437591E-06
   1.786517621659947E-06   1.854752531851038E-06   1.925592803370880E-06
   1.999137861341412E-06   2.075490921675870E-06   2.154759135388823E-06
   2.237053738384843E-06   2.322490206933921E-06   2.411188419048627E-06
   2.503272821984482E-06   2.598872606096574E-06   2.698121885292028E-06
   2.801159884325978E-06   2.908131133200421E-06   3.019185668935174E-06
   3.134479244984809E-06   3.254173548594925E-06   3.378436426392293E-06
   3.507442118523768E-06   3.641371501658737E-06   3.780412341199066E-06
   3.924759553031914E-06   4.074615475192938E-06   4.230190149806362E-06
   4.391701615692867E-06   4.559376212043587E-06   4.733448893574058E-06
   4.914163557593971E-06   5.101773383433045E-06   5.296541184693206E-06
   5.498739774802567E-06   5.708652346369505E-06   5.926572864859384E-06
   6.152806477121580E-06   6.387669935327888E-06   6.631492036895818E-06
   6.884614080994960E-06   7.147390342253748E-06   7.420188562311400E-06
   7.703390459876407E-06   7.997392259984190E-06   8.302605243166987E-06
   8.619456315278859E-06   8.948388598739677E-06   9.289862046000672E-06
   9.644354076047908E-06   1.001236023480728E-05   1.039439488032993E-05
   1.079099189368004E-05   1.120270541647526E-05   1.163011061606316E-05
   1.207380447935856E-05   1.253440663639747E-05   1.301256021470247E-05
   1.350893272559735E-05   1.402421698364486E-05   1.455913206042607E-05
   1.511442427392349E-05   1.569086821481393E-05   1.628926781102267E-05
   1.691045743194194E-05   1.755530303376291E-05   1.822470334742146E-05
   1.891959111071799E-05   1.964093434621031E-05   2.038973768655939E-05
   2.116704374903565E-05   2.197393456098826E-05   2.281153303810414E-05
   2.368100451738619E-05   2.458355834681457E-05   2.552044953373873E-05
   2.649298045412217E-05   2.750250262481541E-05   2.855041854113491E-05
   2.963818358207430E-05   3.076730798557453E-05   3.193935889635596E-05
   3.315596248889214E-05   3.441880616820126E-05   3.572964085121870E-05
   3.709028333160042E-05   3.850261873091163E-05   3.996860303924305E-05
   4.149026574839981E-05   4.306971258091978E-05   4.470912831826722E-05
   4.641077973167317E-05   4.817701861919306E-05   5.001028495267772E-05
   5.191311013845459E-05   5.388812039566627E-05   5.593804025629623E-05
   5.806569619107450E-05   6.027402036557305E-05   6.256605453092198E-05
   6.494495405373043E-05   6.741399208992920E-05   6.997656390738808E-05
   7.263619136231778E-05   7.539652753460000E-05   7.826136152735187E-05
   8.123462343618507E-05   8.432038949375980E-05   8.752288739542194E-05
   9.084650181183870E-05   9.429578009475159E-05   9.787543818209495E-05
   1.015903667089255E-04   1.054456373307644E-04   1.094465092661342E-04
   1.135984360652421E-04   1.179070726119396E-04   1.223782823662744E-04
   1.270181448551119E-04   1.318329634184940E-04   1.368292732195882E-04
   1.420138495262384E-04   1.473937162723299E-04   1.529761549073470E-04
   1.587687135426693E-04   1.647792164033492E-04   1.710157735942632E-04
   1.774867911896991E-04   1.842009816556223E-04   1.911673746139920E-04
   1.983953279586863E-04   2.058945393327019E-04   2.136750579764632E-04
   2.217472969571969E-04   2.301220457894199E-04   2.388104834567419E-04
   2.478241918452395E-04   2.571751695987585E-04   2.668758464065545E-04
   2.769390977337378E-04   2.873782600050163E-04   2.982071462522210E-04
   3.094400622361062E-04   3.210918230528489E-04   3.331777702356133E-04
   3.457137893614549E-04   3.587163281736734E-04   3.722024152295854E-04
   3.861896790834580E-04   4.006963680140789E-04   4.157413703061887E-04
   4.313442350945644E-04   4.475251937792386E-04   4.643051820197900E-04
   4.817058623161490E-04   4.997496471827785E-04   5.184597229223976E-04
   5.378600740046687E-04   5.579755080544495E-04   5.788316814532627E-04
   6.004551255566487E-04   6.228732735288880E-04   6.461144877953910E-04
   6.702080881116573E-04   6.951843802462129E-04   7.210746852733386E-04
   7.479113694696025E-04   7.757278748062692E-04   8.045587500275983E-04
   8.344396823026954E-04   8.654075294362138E-04   8.975003526204433E-04
   9.307574497084616E-04   9.652193889849789E-04   1.000928043408000E-03
   1.037926625291016E-03   1.076259721391352E-03   1.115973328366271E-03
   1.157114888553874E-03   1.199733326031019E-03   1.243879082895409E-03
   1.289604155713404E-03   1.336962132069241E-03   1.386008227145068E-03
   1.436799320254396E-03   1.489393991244520E-03   1.543852556675647E-03
   1.600237105676441E-03   1.658611535366970E-03   1.719041585730764E-03
   1.781594873807991E-03   1.846340927071236E-03   1.913351215834379E-03
   1.982699184533331E-03   2.054460281704941E-03   2.128711988477326E-03
   2.205533845370887E-03   2.285007477194630E-03   2.367216615806894E-03
   2.452247120493167E-03   2.540186995696496E-03   2.631126405817735E-03
   2.725157686783765E-03   2.822375354061723E-03   2.922876106776035E-03
   3.026758827563020E-03   3.134124577774412E-03   3.245076587616835E-03
   3.359720240788820E-03   3.478163053150094E-03   3.600514644930364E-03
   3.726886705955470E-03   3.857392953338753E-03   3.992149081054019E-03
   4.131272700773665E-03   4.274883273321960E-03   4.423102030058114E-03
   4.576051883467640E-03   4.733857326203150E-03   4.896644317776921E-03
   5.064540158068336E-03   5.237673346768263E-03   5.416173427841044E-03
   5.600170818042324E-03   5.789796618487440E-03   5.985182408221692E-03
   6.186460018698964E-03   6.393761288030741E-03   6.607217793822754E-03
   6.826960563371256E-03   7.053119759947206E-03   7.285824343851960E-03
   7.525201706885505E-03   7.771377278826483E-03   8.024474104482662E-03
   8.284612389833107E-03   8.551909015746945E-03   8.826477017731595E-03
   9.108425030134197E-03   9.397856693195046E-03   9.694870021332739E-03
   9.999556731026045E-03   1.031200152665038E-02   1.063228134262694E-02
   1.096046454025026E-02   1.129661005757902E-02   1.164076651080244E-02
   1.199297124553581E-02   1.235324933655248E-02   1.272161253452739E-02
   1.309805815845320E-02   1.348256793249185E-02   1.387510676614672E-02
   1.427562147678533E-02   1.468403945370869E-02   1.510026726315810E-02
   1.552418919386989E-02   1.595566574304087E-02   1.639453204285095E-02
   1.684059622800857E-02   1.729363774514273E-02   1.775340560526262E-02
   1.821961658094819E-02   1.869195335042350E-02   1.917006259120217E-02
   1.965355302658574E-02   2.014199342894159E-02   2.063491058439293E-02
   2.113178722432042E-02   2.163205992990711E-02   2.213511701685914E-02
   2.264029640840427E-02   2.314688350571483E-02   2.365410906602046E-02
   2.416114709987190E-02   2.466711280029336E-02   2.517106051791469E-02
   2.567198179761078E-02   2.616880349369032E-02   2.666038598227028E-02
   2.714552149114391E-02   2.762293256919422E-02   2.809127071921970E-02
   2.854911521991672E-02   2.899497216469722E-02   2.942727374700204E-02
   2.984437782378790E-02   3.024456779090613E-02   3.062605280613934E-02
   3.098696839769805E-02   3.132537749798372E-02   3.163927194437038E-02
   3.192657449061952E-02   3.218514137428694E-02   3.241276548707360E-02
   3.260718019647204E-02   3.276606386822419E-02   3.288704513998406E-02
   3.296770899711712E-02   3.300560370170746E-02   3.299824862552046E-02
   3.294314303681130E-02   3.283777588940596E-02   3.267963666032818E-02
   3.246622727932059E-02   3.219507518981860E-02   3.186374757618925E-02
   3.146986678624450E-02   3.101112697107841E-02   3.048531195605981E-02
   2.989031434722620E-02   2.922415586627783E-02   2.848500889475111E-02
   2.767121919366932E-02   2.678132974893882E-02   2.581410567488867E-02
   2.476856008859668E-02   2.364398084593371E-02   2.243995800657761E-02
   2.115641186959896E-02   1.979362139361136E-02   1.835225278600960E-02
   1.683338801456290E-02   1.523855296177075E-02   1.356974490813953E-02
   1.182945899515706E-02   1.002071328262009E-02   8.147071978499126E-03
   6.212666383252271E-03   4.222213055044503E-03   2.181028668380096E-03
   9.504100709780208E-05  -2.029204495592352E-03  -4.184543281231566E-03
  -6.363195883886008E-03  -8.556778482479798E-03  -1.075632043163680E-02
  -1.295228940813619E-02  -1.513462479165694E-02  -1.729277986669493E-02
  -1.941577338559395E-02  -2.149225096858091E-02  -2.351055673371304E-02
  -2.545881544581677E-02  -2.732502534705257E-02  -2.909716168107853E-02
  -3.076329074643599E-02  -3.231169411170235E-02  -3.373100239440765E-02
  -3.501033774751850E-02  -3.613946391193479E-02  -3.710894238210359E-02
  -3.791029289672013E-02  -3.853615611073405E-02  -3.898045593296134E-02
  -3.923855863134219E-02  -3.930742542263037E-02  -3.918575488411533E-02
  -3.887411116271376E-02  -3.837503362421549E-02  -3.769312329739014E-02
  -3.683510124083002E-02  -3.580983381353825E-02  -3.462831978391816E-02
  -3.330363428814239E-02  -3.185082487127509E-02  -3.028675523722618E-02
  -2.862989292098651E-02  -2.690003790238764E-02  -2.511799022699397E-02
  -2.330515600597247E-02  -2.148309274807476E-02  -1.967299684249370E-02
  -1.789513816305464E-02  -1.616824919405317E-02  -1.450887876631773E-02
  -1.293072340506365E-02  -1.144395237865203E-02  -1.005454573082467E-02
  -8.763667788977553E-03  -7.567101755771910E-03  -6.457693415322319E-03
  -5.435565984248103E-03  -4.502375944282544E-03  -3.658820133289720E-03
  -2.904631806824431E-03  -2.238590000957719E-03  -1.658542942294672E-03
  -1.161446076106742E-03  -7.434150738297451E-04  -3.997939355575575E-04
  -1.252380201454129E-04   8.618848516728228E-05   2.409015023135952E-04
   3.456736497891022E-04   4.075001541110068E-04   4.334562248971552E-04
   4.305485284109567E-04   4.055639154638135E-04   3.649191004961583E-04
   3.145155420102852E-04   2.596043317383834E-04   2.046664498573103E-04
   1.533142736725168E-04   1.082207224681053E-04   7.108286382892515E-05
   4.262717683246875E-05   2.266394139695260E-05   1.019837444658778E-05
   3.606132419356478E-06   8.806119953796987E-07   8.422565739296672E-08
   0.000000000000000E+00   0.000000000000000E+00   0.000000000000000E+00
   0.000000000000000E+00   0.000000000000000E+00   0.000000000000000E+00
   0.000000000000000E+00   0.000000000000000E+00   0.000000000000000E+00
   0.000000000000000E+00   0.000000000000000E+00   0.000000000000000E+00
   0.000000000000000E+00   0.000000000000000E+00   0.000000000000000E+00
   0.000000000000000E+00   0.000000000000000E+00   0.000000000000000E+00
   0.000000000000000E+00   0.000000000000000E+00   0.000000000000000E+00
   0.000000000000000E+00   0.000000000000000E+00   0.000000000000000E+00
   0.000000000000000E+00   0.000000000000000E+00   0.000000000000000E+00
   0.000000000000000E+00   0.000000000000000E+00   0.000000000000000E+00
   0.000000000000000E+00   0.000000000000000E+00   0.000000000000000E+00
   0.000000000000000E+00   0.000000000000000E+00   0.000000000000000E+00
   0.000000000000000E+00   0.000000000000000E+00   0.000000000000000E+00
   0.000000000000000E+00   0.000000000000000E+00   0.000000000000000E+00
   0.000000000000000E+00   0.000000000000000E+00   0.000000000000000E+00
   0.000000000000000E+00   0.000000000000000E+00   0.000000000000000E+00
   0.000000000000000E+00   0.000000000000000E+00   0.000000000000000E+00
   0.000000000000000E+00   0.000000000000000E+00   0.000000000000000E+00
   0.000000000000000E+00   0.000000000000000E+00   0.000000000000000E+00
   0.000000000000000E+00   0.000000000000000E+00   0.000000000000000E+00
   0.000000000000000E+00   0.000000000000000E+00   0.000000000000000E+00
   0.000000000000000E+00   0.000000000000000E+00   0.000000000000000E+00
   0.000000000000000E+00   0.000000000000000E+00   0.000000000000000E+00
   0.000000000000000E+00   0.000000000000000E+00   0.000000000000000E+00
   0.000000000000000E+00   0.000000000000000E+00   0.000000000000000E+00
   0.000000000000000E+00   0.000000000000000E+00   0.000000000000000E+00
   0.000000000000000E+00   0.000000000000000E+00   0.000000000000000E+00
   0.000000000000000E+00   0.000000000000000E+00   0.000000000000000E+00
   0.000000000000000E+00   0.000000000000000E+00   0.000000000000000E+00
   0.000000000000000E+00   0.000000000000000E+00   0.000000000000000E+00
   0.000000000000000E+00   0.000000000000000E+00   0.000000000000000E+00
   0.000000000000000E+00   0.000000000000000E+00   0.000000000000000E+00
   0.000000000000000E+00   0.000000000000000E+00   0.000000000000000E+00
   0.000000000000000E+00   0.000000000000000E+00   0.000000000000000E+00
   0.000000000000000E+00   0.000000000000000E+00   0.000000000000000E+00
   0.000000000000000E+00   0.000000000000000E+00   0.000000000000000E+00
   0.000000000000000E+00   0.000000000000000E+00   0.000000000000000E+00
   0.000000000000000E+00   0.000000000000000E+00   0.000000000000000E+00
   0.000000000000000E+00   0.000000000000000E+00   0.000000000000000E+00
   0.000000000000000E+00   0.000000000000000E+00   0.000000000000000E+00
   0.000000000000000E+00   0.000000000000000E+00   0.000000000000000E+00
   0.000000000000000E+00   0.000000000000000E+00   0.000000000000000E+00
   0.000000000000000E+00   0.000000000000000E+00   0.000000000000000E+00
   0.000000000000000E+00   0.000000000000000E+00   0.000000000000000E+00
   0.000000000000000E+00   0.000000000000000E+00   0.000000000000000E+00
   0.000000000000000E+00   0.000000000000000E+00   0.000000000000000E+00
   0.000000000000000E+00   0.000000000000000E+00   0.000000000000000E+00
   0.000000000000000E+00   0.000000000000000E+00   0.000000000000000E+00
   0.000000000000000E+00   0.000000000000000E+00   0.000000000000000E+00
   0.000000000000000E+00   0.000000000000000E+00   0.000000000000000E+00
   0.000000000000000E+00   0.000000000000000E+00   0.000000000000000E+00
   0.000000000000000E+00   0.000000000000000E+00   0.000000000000000E+00
   0.000000000000000E+00   0.000000000000000E+00   0.000000000000000E+00
   0.000000000000000E+00   0.000000000000000E+00   0.000000000000000E+00
   0.000000000000000E+00   0.000000000000000E+00   0.000000000000000E+00
   0.000000000000000E+00   0.000000000000000E+00   0.000000000000000E+00
   0.000000000000000E+00   0.000000000000000E+00   0.000000000000000E+00
   0.000000000000000E+00   0.000000000000000E+00   0.000000000000000E+00
   0.000000000000000E+00   0.000000000000000E+00   0.000000000000000E+00
   0.000000000000000E+00   0.000000000000000E+00   0.000000000000000E+00
   0.000000000000000E+00   0.000000000000000E+00   0.000000000000000E+00
   0.000000000000000E+00   0.000000000000000E+00   0.000000000000000E+00
   0.000000000000000E+00   0.000000000000000E+00   0.000000000000000E+00
   0.000000000000000E+00   0.000000000000000E+00   0.000000000000000E+00
   0.000000000000000E+00   0.000000000000000E+00   0.000000000000000E+00
   0.000000000000000E+00   0.000000000000000E+00   0.000000000000000E+00
   0.000000000000000E+00   0.000000000000000E+00   0.000000000000000E+00
   0.000000000000000E+00   0.000000000000000E+00   0.000000000000000E+00
   0.000000000000000E+00   0.000000000000000E+00   0.000000000000000E+00
   0.000000000000000E+00   0.000000000000000E+00   0.000000000000000E+00
   0.000000000000000E+00   0.000000000000000E+00   0.000000000000000E+00
   0.000000000000000E+00   0.000000000000000E+00   0.000000000000000E+00
   0.000000000000000E+00   0.000000000000000E+00   0.000000000000000E+00
   0.000000000000000E+00   0.000000000000000E+00   0.000000000000000E+00
   0.000000000000000E+00   0.000000000000000E+00   0.000000000000000E+00
   0.000000000000000E+00   0.000000000000000E+00   0.000000000000000E+00
   0.000000000000000E+00   0.000000000000000E+00   0.000000000000000E+00
   0.000000000000000E+00   0.000000000000000E+00   0.000000000000000E+00
   0.000000000000000E+00   0.000000000000000E+00   0.000000000000000E+00
   0.000000000000000E+00   0.000000000000000E+00   0.000000000000000E+00
   0.000000000000000E+00   0.000000000000000E+00   0.000000000000000E+00
   0.000000000000000E+00   0.000000000000000E+00   0.000000000000000E+00
   0.000000000000000E+00   0.000000000000000E+00   0.000000000000000E+00
   0.000000000000000E+00   0.000000000000000E+00   0.000000000000000E+00
   0.000000000000000E+00   0.000000000000000E+00   0.000000000000000E+00
   0.000000000000000E+00   0.000000000000000E+00   0.000000000000000E+00
   0.000000000000000E+00   0.000000000000000E+00   0.000000000000000E+00
   0.000000000000000E+00   0.000000000000000E+00   0.000000000000000E+00
   0.000000000000000E+00   0.000000000000000E+00   0.000000000000000E+00
   0.000000000000000E+00   0.000000000000000E+00   0.000000000000000E+00
   0.000000000000000E+00   0.000000000000000E+00   0.000000000000000E+00
   0.000000000000000E+00   0.000000000000000E+00   0.000000000000000E+00
   0.000000000000000E+00   0.000000000000000E+00   0.000000000000000E+00
   0.000000000000000E+00   0.000000000000000E+00   0.000000000000000E+00
   0.000000000000000E+00   0.000000000000000E+00   0.000000000000000E+00
   0.000000000000000E+00   0.000000000000000E+00   0.000000000000000E+00
   0.000000000000000E+00   0.000000000000000E+00   0.000000000000000E+00
   0.000000000000000E+00   0.000000000000000E+00   0.000000000000000E+00
   0.000000000000000E+00   0.000000000000000E+00   0.000000000000000E+00
   0.000000000000000E+00   0.000000000000000E+00   0.000000000000000E+00
   0.000000000000000E+00   0.000000000000000E+00   0.000000000000000E+00
   0.000000000000000E+00   0.000000000000000E+00   0.000000000000000E+00
   0.000000000000000E+00   0.000000000000000E+00   0.000000000000000E+00
   0.000000000000000E+00   0.000000000000000E+00   0.000000000000000E+00
   0.000000000000000E+00   0.000000000000000E+00   0.000000000000000E+00
   0.000000000000000E+00   0.000000000000000E+00   0.000000000000000E+00
   0.000000000000000E+00   0.000000000000000E+00   0.000000000000000E+00
   0.000000000000000E+00   0.000000000000000E+00   0.000000000000000E+00
   0.000000000000000E+00   0.000000000000000E+00   0.000000000000000E+00
   0.000000000000000E+00   0.000000000000000E+00   0.000000000000000E+00
   0.000000000000000E+00   0.000000000000000E+00   0.000000000000000E+00
   0.000000000000000E+00   0.000000000000000E+00   0.000000000000000E+00
   0.000000000000000E+00   0.000000000000000E+00   0.000000000000000E+00
   0.000000000000000E+00   0.000000000000000E+00   0.000000000000000E+00
   0.000000000000000E+00   0.000000000000000E+00   0.000000000000000E+00
      </PP_QIJL.2.3.1>
      <PP_QIJL.2.4.1 first_index="2" second_index="4" composite_index="8" angular_momentum="1" size="1095">
   3.001227805106384E-12   3.115910702802232E-12   3.234975862377185E-12
   3.358590738765967E-12   3.486929185688003E-12   3.620171700157535E-12
   3.758505676337022E-12   3.902125669090739E-12   4.051233667609251E-12
   4.206039379489702E-12   4.366760525671215E-12   4.533623146640479E-12
   4.706861920337985E-12   4.886720492212073E-12   5.073451817885061E-12
   5.267318518913156E-12   5.468593252140794E-12   5.677559093168648E-12
   5.894509934474677E-12   6.119750898748261E-12   6.353598768018437E-12
   6.596382429180125E-12   6.848443336544687E-12   7.110135992065448E-12
   7.381828443913618E-12   7.663902804105588E-12   7.956755785909966E-12
   8.260799261789828E-12   8.576460842665039E-12   8.904184479309397E-12
   9.244431086728091E-12   9.597679192394044E-12   9.964425609254447E-12
   1.034518613445423E-11   1.074049627475912E-11   1.115091199969833E-11
   1.157701052348641E-11   1.201939111682381E-11   1.247867594971774E-11
   1.295551096650907E-11   1.345056679433527E-11   1.396453968630781E-11
   1.449815250072991E-11   1.505215571773209E-11   1.562732849475546E-11
   1.622447976236655E-11   1.684444936194575E-11   1.748810922684870E-11
   1.815636460870201E-11   1.885015535055838E-11   1.957045720870071E-11
   2.031828322495536E-11   2.109468515144379E-11   2.190075492977654E-11
   2.273762622677024E-11   2.360647602884663E-11   2.450852629735701E-11
   2.544504568715945E-11   2.641735133086582E-11   2.742681069126870E-11
   2.847484348455196E-11   2.956292367699154E-11   3.069258155795339E-11
   3.186540589210432E-11   3.308304615386320E-11   3.434721484723359E-11
   3.565968991428229E-11   3.702231723564958E-11   3.843701322660838E-11
   3.990576753232410E-11   4.143064582610389E-11   4.301379271457305E-11
   4.465743475386276E-11   4.636388358105145E-11   4.813553916526499E-11
   4.997489318300530E-11   5.188453252245768E-11   5.386714292170296E-11
   5.592551274595207E-11   5.806253690911566E-11   6.028122094522229E-11
   6.258468523541381E-11   6.497616939646050E-11   6.745903683696883E-11
   7.003677948769003E-11   7.271302271258035E-11   7.549153040752239E-11
   7.837621029387599E-11   8.137111941430465E-11   8.448046983860696E-11
   8.770863458757537E-11   9.106015378321666E-11   9.453974103398166E-11
   9.815229006398419E-11   1.019028815955341E-10   1.057967904946603E-10
   1.098394931896781E-10   1.140366753732289E-10   1.183942399986280E-10
   1.229183155817658E-10   1.276152648202334E-10   1.324916935418020E-10
   1.375544599948348E-10   1.428106844936985E-10   1.482677594327430E-10
   1.539333596829246E-10   1.598154533857036E-10   1.659223131593892E-10
   1.722625277336950E-10   1.788450140288687E-10   1.856790296963774E-10
   1.927741861387934E-10   2.001404620271853E-10   2.077882173350260E-10
   2.157282079083573E-10   2.239716005926927E-10   2.325299889379449E-10
   2.414154095034541E-10   2.506403587860520E-10   2.602178107949694E-10
   2.701612352982967E-10   2.804846167666679E-10   2.912024740408011E-10
   3.023298807505590E-10   3.138824865142452E-10   3.258765389479421E-10
   3.383289065158568E-10   3.512571022537954E-10   3.646793083991384E-10
   3.786144019619527E-10   3.930819812731916E-10   4.081023935473361E-10
   4.236967634982220E-10   4.398870230483058E-10   4.566959421731485E-10
   4.741471609244817E-10   4.922652226769107E-10   5.110756086449955E-10
   5.306047737192485E-10   5.508801836714615E-10   5.719303537816563E-10
   5.937848889410069E-10   6.164745252871141E-10   6.400311734301818E-10
   6.644879633308965E-10   6.898792908930981E-10   7.162408663367855E-10
   7.436097644194741E-10   7.720244765765182E-10   8.015249650537488E-10
   8.321527191085099E-10   8.639508133581659E-10   8.969639683581102E-10
   9.312386134944616E-10   9.668229522799111E-10   1.003767030144495E-09
   1.042122804816683E-09   1.081944219393703E-09   1.123287278203878E-09
   1.166210125567660E-09   1.210773127568074E-09   1.257038956945625E-09
   1.305072681236978E-09   1.354941854281396E-09   1.406716611223606E-09
   1.460469767146621E-09   1.516276919473354E-09   1.574216554280830E-09
   1.634370156676653E-09   1.696822325392861E-09   1.761660891758250E-09
   1.828977043216631E-09   1.898865451564479E-09   1.971424406088466E-09
   2.046755951790029E-09   2.124966032891240E-09   2.206164641823992E-09
   2.290465973911691E-09   2.377988587961200E-09   2.468855572990740E-09
   2.563194721328092E-09   2.661138708322731E-09   2.762825278924244E-09
   2.868397441389677E-09   2.978003668391991E-09   3.091798105812361E-09
   3.209940789510117E-09   3.332597870374764E-09   3.459941847976783E-09
   3.592151813145626E-09   3.729413699815810E-09   3.871920546495575E-09
   4.019872767725218E-09   4.173478435907174E-09   4.332953573903904E-09
   4.498522458814802E-09   4.670417937359621E-09   4.848881753311281E-09
   5.034164887438793E-09   5.226527910438116E-09   5.426241349346789E-09
   5.633586067958123E-09   5.848853661768948E-09   6.072346868016755E-09
   6.304379991382408E-09   6.545279345956638E-09   6.795383714092238E-09
   7.055044822786188E-09   7.324627838261981E-09   7.604511879447208E-09
   7.895090551067793E-09   8.196772497109081E-09   8.509981975420741E-09
   8.835159454273891E-09   9.172762231708765E-09   9.523265078543046E-09
   9.887160905945580E-09   1.026496145851259E-08   1.065719803382151E-08
   1.106442222947333E-08   1.148720671867302E-08   1.192614605543922E-08
   1.238185751057327E-08   1.285498193956382E-08   1.334618468364610E-08
   1.385615650528175E-08   1.438561455937515E-08   1.493530340158944E-08
   1.550599603518036E-08   1.609849499781870E-08   1.671363348992773E-08
   1.735227654612277E-08   1.801532225139695E-08   1.870370300376351E-08
   1.941838682512839E-08   2.016037872223382E-08   2.093072209958729E-08
   2.173050022635834E-08   2.256083775930617E-08   2.342290232387667E-08
   2.431790615568944E-08   2.524710780472292E-08   2.621181390458854E-08
   2.721338100938203E-08   2.825321750069042E-08   2.933278556743376E-08
   3.045360326132289E-08   3.161724663081928E-08   3.282535193659507E-08
   3.407961795160436E-08   3.538180834899548E-08   3.673375418121887E-08
   3.813735645381046E-08   3.959458879746616E-08   4.110750024215871E-08
   4.267821809719197E-08   4.430895094123744E-08   4.600199172654956E-08
   4.775972100171922E-08   4.958461025748958E-08   5.147922540033013E-08
   5.344623035864668E-08   5.548839082668757E-08   5.760857815140260E-08
   5.980977336770923E-08   6.209507138782905E-08   6.446768535057544E-08
   6.693095113669352E-08   6.948833205659085E-08   7.214342371703524E-08
   7.489995907364757E-08   7.776181367628034E-08   8.073301111463769E-08
   8.381772867177914E-08   8.702030319343570E-08   9.034523718137045E-08
   9.379720511933210E-08   9.738106004046980E-08   1.011018403454224E-07
   1.049647768806413E-07   1.089753002868700E-07   1.131390486280868E-07
   1.174618753116024E-07   1.219498573104157E-07   1.266093036993551E-07
   1.314467645169652E-07   1.364690399655626E-07   1.416831899623486E-07
   1.470965440549659E-07   1.527167117153897E-07   1.585515930265706E-07
   1.646093897768080E-07   1.708986169773809E-07   1.774281148195591E-07
   1.842070610878479E-07   1.912449840465352E-07   1.985517758180670E-07
   2.061377062715364E-07   2.140134374408260E-07   2.221900384930328E-07
   2.306790012672659E-07   2.394922564063238E-07   2.486421901034894E-07
   2.581416614879420E-07   2.680040206728634E-07   2.782431274920115E-07
   2.888733709503853E-07   2.999096894164942E-07   3.113675915844697E-07
   3.232631782350368E-07   3.356131648260901E-07   3.484349049443169E-07
   3.617464146504705E-07   3.755663977525124E-07   3.899142720418534E-07
   4.048101965291508E-07   4.202750997179449E-07   4.363307089554511E-07
   4.529995809016431E-07   4.703051331585153E-07   4.882716771045664E-07
   5.069244519796356E-07   5.262896602678457E-07   5.463945044276269E-07
   5.672672250209595E-07   5.889371402935467E-07   6.114346872623910E-07
   6.347914643668925E-07   6.590402757437732E-07   6.842151771869656E-07
   7.103515238562747E-07   7.374860198012167E-07   7.656567693698501E-07
   7.949033305724374E-07   8.252667704752337E-07   8.567897227014498E-07
   8.895164471183847E-07   9.234928917943727E-07   9.587667573112573E-07
   9.953875635218088E-07   1.033406718844354E-06   1.072877592190942E-06
   1.113855587628717E-06   1.156398221878131E-06   1.200565204754835E-06
   1.246418522667384E-06   1.294022525285389E-06   1.343444015498896E-06
   1.394752342792863E-06   1.448019500165915E-06   1.503320224727507E-06
   1.560732102111804E-06   1.620335674853649E-06   1.682214554874316E-06
   1.746455540234182E-06   1.813148736311449E-06   1.882387681575082E-06
   1.954269478125057E-06   2.028894927177884E-06   2.106368669687022E-06
   2.186799332287832E-06   2.270299678770343E-06   2.356986767285949E-06
   2.446982113505368E-06   2.540411859949693E-06   2.637406951728500E-06
   2.738103318924179E-06   2.842642065873073E-06   2.951169667601321E-06
   3.063838173684837E-06   3.180805419810864E-06   3.302235247330441E-06
   3.428297731101038E-06   3.559169415928564E-06   3.695033561932712E-06
   3.836080399167749E-06   3.982507391844113E-06   4.134519512512299E-06
   4.292329526577035E-06   4.456158287531764E-06   4.626235043307370E-06
   4.802797754155766E-06   4.986093422492972E-06   5.176378435148885E-06
   5.373918918484364E-06   5.578991106854867E-06   5.791881724915005E-06
   6.012888384277972E-06   6.242319995062820E-06   6.480497192879614E-06
   6.727752781825375E-06   6.984432194083049E-06   7.250893966734001E-06
   7.527510236425282E-06   7.814667252544247E-06   8.112765909586273E-06
   8.422222299420970E-06   8.743468284188933E-06   9.076952090586592E-06
   9.423138926324777E-06   9.782511619573616E-06   1.015557128223582E-05
   1.054283799791862E-05   1.094485153550879E-05   1.136217208928458E-05
   1.179538104652936E-05   1.224508178365183E-05   1.271190049184530E-05
   1.319648703336122E-05   1.369951582950569E-05   1.422168678150507E-05
   1.476372622543315E-05   1.532638792242472E-05   1.591045408544984E-05
   1.651673644396277E-05   1.714607734778348E-05   1.779935091162603E-05
   1.847746420171593E-05   1.918135846601164E-05   1.991201040957809E-05
   2.067043351672094E-05   2.145767942154175E-05   2.227483932863032E-05
   2.312304548566470E-05   2.400347270975649E-05   2.491733996942440E-05
   2.586591202415831E-05   2.685050112358560E-05   2.787246876832474E-05
   2.893322753467859E-05   3.003424296537930E-05   3.117703552868639E-05
   3.236318264818651E-05   3.359432080574554E-05   3.487214772011487E-05
   3.619842460379241E-05   3.757497850080251E-05   3.900370470815323E-05
   4.048656928380493E-05   4.202561164407373E-05   4.362294725348099E-05
   4.528077041014634E-05   4.700135712991336E-05   4.878706813249503E-05
   5.064035193301224E-05   5.256374804240032E-05   5.455989028025491E-05
   5.663151020378770E-05   5.878144065666574E-05   6.101261944159911E-05
   6.332809312066770E-05   6.573102094745580E-05   6.822467893518839E-05
   7.081246406516062E-05   7.349789863986217E-05   7.628463478530635E-05
   7.917645910717674E-05   8.217729750552134E-05   8.529122015282710E-05
   8.852244664041235E-05   9.187535129819377E-05   9.535446869297626E-05
   9.896449931052906E-05   1.027103154268162E-04   1.065969671738383E-04
   1.106296888056584E-04   1.148139051702719E-04   1.191552383930664E-04
   1.236595147777240E-04   1.283327719304832E-04   1.331812661137724E-04
   1.382114798352849E-04   1.434301296786403E-04   1.488441743818414E-04
   1.544608231697629E-04   1.602875443469794E-04   1.663320741572389E-04
   1.726024259159343E-04   1.791068994219105E-04   1.858540906549458E-04
   1.928529017652231E-04   2.001125513610644E-04   2.076425851011348E-04
   2.154528865972622E-04   2.235536886339014E-04   2.319555847101544E-04
   2.406695409101047E-04   2.497069081070483E-04   2.590794345069997E-04
   2.687992785366051E-04   2.788790220803095E-04   2.893316840713372E-04
   3.001707344406593E-04   3.114101084277446E-04   3.230642212564281E-04
   3.351479831787467E-04   3.476768148890319E-04   3.606666633099211E-04
   3.741340177513159E-04   3.880959264425227E-04   4.025700134370368E-04
   4.175744958885125E-04   4.331282016954841E-04   4.492505875113722E-04
   4.659617571151067E-04   4.832824801364592E-04   5.012342111288240E-04
   5.198391089806611E-04   5.391200566552638E-04   5.591006812467474E-04
   5.798053743382777E-04   6.012593126465766E-04   6.234884789345033E-04
   6.465196831712612E-04   6.703805839171726E-04   6.950997099073189E-04
   7.207064818054473E-04   7.472312340963928E-04   7.747052370819929E-04
   8.031607189418996E-04   8.326308878168506E-04   8.631499538679666E-04
   8.947531512612225E-04   9.274767600217023E-04   9.613581276972494E-04
   9.964356907658999E-04   1.032748995715925E-03   1.070338719721307E-03
   1.109246690829255E-03   1.149515907569586E-03   1.191190557888742E-03
   1.234316037303693E-03   1.278938966162905E-03   1.325107205893302E-03
   1.372869874103003E-03   1.422277358400346E-03   1.473381328779698E-03
   1.526234748413993E-03   1.580891882682992E-03   1.637408306254442E-03
   1.695840908023170E-03   1.756247893700176E-03   1.818688785830196E-03
   1.883224421002113E-03   1.949916944001551E-03   2.018829798639409E-03
   2.090027714973813E-03   2.163576692625759E-03   2.239543979871036E-03
   2.317998048172338E-03   2.399008561796116E-03   2.482646342138694E-03
   2.568983326365075E-03   2.658092519942420E-03   2.750047942627528E-03
   2.844924567444570E-03   2.942798252165341E-03   3.043745662779561E-03
   3.147844188417567E-03   3.255171847161591E-03   3.365807182155246E-03
   3.479829147393762E-03   3.597316982549702E-03   3.718350076161108E-03
   3.843007816480419E-03   3.971369429254025E-03   4.103513801673817E-03
   4.239519291713127E-03   4.379463522031515E-03   4.523423157604426E-03
   4.671473666206551E-03   4.823689060851006E-03   4.980141623260742E-03
   5.140901607424587E-03   5.306036922267362E-03   5.475612792443053E-03
   5.649691396241606E-03   5.828331479584164E-03   6.011587945069488E-03
   6.199511415025206E-03   6.392147767513241E-03   6.589537644239129E-03
   6.791715929320272E-03   6.998711197880714E-03   7.210545133458078E-03
   7.427231913235187E-03   7.648777560143693E-03   7.875179260931304E-03
   8.106424649339632E-03   8.342491053605537E-03   8.583344707578456E-03
   8.828939924839151E-03   9.079218235313328E-03   9.334107483998998E-03
   9.593520891568683E-03   9.857356076770359E-03   1.012549404073451E-02
   1.039779811350070E-02   1.067411286330853E-02   1.095426296945462E-02
   1.123805205980284E-02   1.152526151435102E-02   1.181564923660451E-02
   1.210894839488957E-02   1.240486613615716E-02   1.270308227528421E-02
   1.300324796337575E-02   1.330498433911000E-02   1.360788116775130E-02
   1.391149547308436E-02   1.421535016819937E-02   1.451893269178335E-02
   1.482169365734825E-02   1.512304552365468E-02   1.542236129546882E-02
   1.571897326472317E-02   1.601217180313647E-02   1.630120421838483E-02
   1.658527368700506E-02   1.686353827834666E-02   1.713511008507360E-02
   1.739905447694228E-02   1.765438949584675E-02   1.790008541141964E-02
   1.813506445779926E-02   1.835820077351392E-02   1.856832056778143E-02
   1.876420253786473E-02   1.894457856345018E-02   1.910813470530608E-02
   1.925351253672031E-02   1.937931083738432E-02   1.948408768046575E-02
   1.956636294456720E-02   1.962462128307463E-02   1.965731558402635E-02
   1.966287095404474E-02   1.963968926003268E-02   1.958615426220080E-02
   1.950063737151660E-02   1.938150406380347E-02   1.922712098141305E-02
   1.903586375159519E-02   1.880612554833346E-02   1.853632642144349E-02
   1.822492341307696E-02   1.787042147737248E-02   1.747138521377754E-02
   1.702645141845998E-02   1.653434245117107E-02   1.599388040683970E-02
   1.540400207200795E-02   1.476377463590194E-02   1.407241211440555E-02
   1.332929243243301E-02   1.253397509612993E-02   1.168621937095390E-02
   1.078600286499085E-02   9.833540398848125E-03   8.829303024187489E-03
   7.774037032457636E-03   6.668782773766635E-03   5.514893083227395E-03
   4.314051088668009E-03   3.068287149568588E-03   1.779994652704725E-03
   4.519443655910671E-04  -9.127029751872726E-04  -2.310386186856101E-03
  -3.737135642455728E-03  -5.188568139735813E-03  -6.659885041910370E-03
  -8.145874109013535E-03  -9.640915448108052E-03  -1.113899201487211E-02
  -1.263370509714502E-02  -1.411829520172599E-02  -1.558566874792492E-02
  -1.702843094386791E-02  -1.843892518305231E-02  -1.980927924789232E-02
  -2.113145854269051E-02  -2.239732649937866E-02  -2.359871220436235E-02
  -2.472748518280089E-02  -2.577563714684891E-02  -2.673537036613399E-02
  -2.759919215175657E-02  -2.836001475947440E-02  -2.901125981402053E-02
  -2.954696613586675E-02  -2.996189961598042E-02  -3.025166353582948E-02
  -3.041280747255520E-02  -3.044293266731422E-02  -3.034079147387722E-02
  -3.010637825141267E-02  -2.974100882802622E-02  -2.924738544943118E-02
  -2.862964395082902E-02  -2.789337976176234E-02  -2.704564928674960E-02
  -2.609494321349526E-02  -2.505112840093972E-02  -2.392535520768175E-02
  -2.272992745400138E-02  -2.147813268437615E-02  -2.018403102783297E-02
  -1.886220175505500E-02  -1.752744761593568E-02  -1.619445821790714E-02
  -1.487743507808456E-02  -1.358968254946321E-02  -1.234317057424209E-02
  -1.114807713832990E-02  -1.001232036236544E-02  -8.941092326507249E-03
  -7.936408935833996E-03  -6.996692322756792E-03  -6.118224419459806E-03
  -5.301563671958498E-03  -4.548136266310454E-03  -3.858707990020971E-03
  -3.233381521250356E-03  -2.671602659266914E-03  -2.172175931859033E-03
  -1.733289889582074E-03  -1.352552249110683E-03  -1.027034878415795E-03
  -7.533284247626670E-04  -5.276061733863746E-04  -3.456964909581972E-04
  -2.031629551687009E-04  -9.539100231809039E-05  -1.767964137969202E-05
   3.466351038761140E-05   6.622591412153156E-05   8.139486102407001E-05
   8.426592371031660E-05   7.855801963158049E-05   6.753825314878559E-05
   5.395992348146417E-05   4.001726136000638E-05   2.732057465774929E-05
   1.689552850955151E-05   9.210242379618927E-06   4.233738142303545E-06
   1.529000908551126E-06   3.834980638536822E-07   3.763213638624530E-08
   1.734723475976807E-18   0.000000000000000E+00   0.000000000000000E+00
   0.000000000000000E+00   0.000000000000000E+00   0.000000000000000E+00
   0.000000000000000E+00   0.000000000000000E+00   0.000000000000000E+00
   0.000000000000000E+00   0.000000000000000E+00   0.000000000000000E+00
   0.000000000000000E+00   0.000000000000000E+00   0.000000000000000E+00
   0.000000000000000E+00   0.000000000000000E+00   0.000000000000000E+00
   0.000000000000000E+00   0.000000000000000E+00   0.000000000000000E+00
   0.000000000000000E+00   0.000000000000000E+00   0.000000000000000E+00
   0.000000000000000E+00   0.000000000000000E+00   0.000000000000000E+00
   0.000000000000000E+00   0.000000000000000E+00   0.000000000000000E+00
   0.000000000000000E+00   0.000000000000000E+00   0.000000000000000E+00
   0.000000000000000E+00   0.000000000000000E+00   0.000000000000000E+00
   0.000000000000000E+00   0.000000000000000E+00   0.000000000000000E+00
   0.000000000000000E+00   0.000000000000000E+00   0.000000000000000E+00
   0.000000000000000E+00   0.000000000000000E+00   0.000000000000000E+00
   0.000000000000000E+00   0.000000000000000E+00   0.000000000000000E+00
   0.000000000000000E+00   0.000000000000000E+00   0.000000000000000E+00
   0.000000000000000E+00   0.000000000000000E+00   0.000000000000000E+00
   0.000000000000000E+00   0.000000000000000E+00   0.000000000000000E+00
   0.000000000000000E+00   0.000000000000000E+00   0.000000000000000E+00
   0.000000000000000E+00   0.000000000000000E+00   0.000000000000000E+00
   0.000000000000000E+00   0.000000000000000E+00   0.000000000000000E+00
   0.000000000000000E+00   0.000000000000000E+00   0.000000000000000E+00
   0.000000000000000E+00   0.000000000000000E+00   0.000000000000000E+00
   0.000000000000000E+00   0.000000000000000E+00   0.000000000000000E+00
   0.000000000000000E+00   0.000000000000000E+00   0.000000000000000E+00
   0.000000000000000E+00   0.000000000000000E+00   0.000000000000000E+00
   0.000000000000000E+00   0.000000000000000E+00   0.000000000000000E+00
   0.000000000000000E+00   0.000000000000000E+00   0.000000000000000E+00
   0.000000000000000E+00   0.000000000000000E+00   0.000000000000000E+00
   0.000000000000000E+00   0.000000000000000E+00   0.000000000000000E+00
   0.000000000000000E+00   0.000000000000000E+00   0.000000000000000E+00
   0.000000000000000E+00   0.000000000000000E+00   0.000000000000000E+00
   0.000000000000000E+00   0.000000000000000E+00   0.000000000000000E+00
   0.000000000000000E+00   0.000000000000000E+00   0.000000000000000E+00
   0.000000000000000E+00   0.000000000000000E+00   0.000000000000000E+00
   0.000000000000000E+00   0.000000000000000E+00   0.000000000000000E+00
   0.000000000000000E+00   0.000000000000000E+00   0.000000000000000E+00
   0.000000000000000E+00   0.000000000000000E+00   0.000000000000000E+00
   0.000000000000000E+00   0.000000000000000E+00   0.000000000000000E+00
   0.000000000000000E+00   0.000000000000000E+00   0.000000000000000E+00
   0.000000000000000E+00   0.000000000000000E+00   0.000000000000000E+00
   0.000000000000000E+00   0.000000000000000E+00   0.000000000000000E+00
   0.000000000000000E+00   0.000000000000000E+00   0.000000000000000E+00
   0.000000000000000E+00   0.000000000000000E+00   0.000000000000000E+00
   0.000000000000000E+00   0.000000000000000E+00   0.000000000000000E+00
   0.000000000000000E+00   0.000000000000000E+00   0.000000000000000E+00
   0.000000000000000E+00   0.000000000000000E+00   0.000000000000000E+00
   0.000000000000000E+00   0.000000000000000E+00   0.000000000000000E+00
   0.000000000000000E+00   0.000000000000000E+00   0.000000000000000E+00
   0.000000000000000E+00   0.000000000000000E+00   0.000000000000000E+00
   0.000000000000000E+00   0.000000000000000E+00   0.000000000000000E+00
   0.000000000000000E+00   0.000000000000000E+00   0.000000000000000E+00
   0.000000000000000E+00   0.000000000000000E+00   0.000000000000000E+00
   0.000000000000000E+00   0.000000000000000E+00   0.000000000000000E+00
   0.000000000000000E+00   0.000000000000000E+00   0.000000000000000E+00
   0.000000000000000E+00   0.000000000000000E+00   0.000000000000000E+00
   0.000000000000000E+00   0.000000000000000E+00   0.000000000000000E+00
   0.000000000000000E+00   0.000000000000000E+00   0.000000000000000E+00
   0.000000000000000E+00   0.000000000000000E+00   0.000000000000000E+00
   0.000000000000000E+00   0.000000000000000E+00   0.000000000000000E+00
   0.000000000000000E+00   0.000000000000000E+00   0.000000000000000E+00
   0.000000000000000E+00   0.000000000000000E+00   0.000000000000000E+00
   0.000000000000000E+00   0.000000000000000E+00   0.000000000000000E+00
   0.000000000000000E+00   0.000000000000000E+00   0.000000000000000E+00
   0.000000000000000E+00   0.000000000000000E+00   0.000000000000000E+00
   0.000000000000000E+00   0.000000000000000E+00   0.000000000000000E+00
   0.000000000000000E+00   0.000000000000000E+00   0.000000000000000E+00
   0.000000000000000E+00   0.000000000000000E+00   0.000000000000000E+00
   0.000000000000000E+00   0.000000000000000E+00   0.000000000000000E+00
   0.000000000000000E+00   0.000000000000000E+00   0.000000000000000E+00
   0.000000000000000E+00   0.000000000000000E+00   0.000000000000000E+00
   0.000000000000000E+00   0.000000000000000E+00   0.000000000000000E+00
   0.000000000000000E+00   0.000000000000000E+00   0.000000000000000E+00
   0.000000000000000E+00   0.000000000000000E+00   0.000000000000000E+00
   0.000000000000000E+00   0.000000000000000E+00   0.000000000000000E+00
   0.000000000000000E+00   0.000000000000000E+00   0.000000000000000E+00
   0.000000000000000E+00   0.000000000000000E+00   0.000000000000000E+00
   0.000000000000000E+00   0.000000000000000E+00   0.000000000000000E+00
   0.000000000000000E+00   0.000000000000000E+00   0.000000000000000E+00
   0.000000000000000E+00   0.000000000000000E+00   0.000000000000000E+00
   0.000000000000000E+00   0.000000000000000E+00   0.000000000000000E+00
   0.000000000000000E+00   0.000000000000000E+00   0.000000000000000E+00
   0.000000000000000E+00   0.000000000000000E+00   0.000000000000000E+00
   0.000000000000000E+00   0.000000000000000E+00   0.000000000000000E+00
   0.000000000000000E+00   0.000000000000000E+00   0.000000000000000E+00
   0.000000000000000E+00   0.000000000000000E+00   0.000000000000000E+00
   0.000000000000000E+00   0.000000000000000E+00   0.000000000000000E+00
   0.000000000000000E+00   0.000000000000000E+00   0.000000000000000E+00
   0.000000000000000E+00   0.000000000000000E+00   0.000000000000000E+00
   0.000000000000000E+00   0.000000000000000E+00   0.000000000000000E+00
   0.000000000000000E+00   0.000000000000000E+00   0.000000000000000E+00
   0.000000000000000E+00   0.000000000000000E+00   0.000000000000000E+00
   0.000000000000000E+00   0.000000000000000E+00   0.000000000000000E+00
   0.000000000000000E+00   0.000000000000000E+00   0.000000000000000E+00
   0.000000000000000E+00   0.000000000000000E+00   0.000000000000000E+00
   0.000000000000000E+00   0.000000000000000E+00   0.000000000000000E+00
   0.000000000000000E+00   0.000000000000000E+00   0.000000000000000E+00
   0.000000000000000E+00   0.000000000000000E+00   0.000000000000000E+00
   0.000000000000000E+00   0.000000000000000E+00   0.000000000000000E+00
   0.000000000000000E+00   0.000000000000000E+00   0.000000000000000E+00
   0.000000000000000E+00   0.000000000000000E+00   0.000000000000000E+00
   0.000000000000000E+00   0.000000000000000E+00   0.000000000000000E+00
   0.000000000000000E+00   0.000000000000000E+00   0.000000000000000E+00
   0.000000000000000E+00   0.000000000000000E+00   0.000000000000000E+00
   0.000000000000000E+00   0.000000000000000E+00   0.000000000000000E+00
   0.000000000000000E+00   0.000000000000000E+00   0.000000000000000E+00
   0.000000000000000E+00   0.000000000000000E+00   0.000000000000000E+00
   0.000000000000000E+00   0.000000000000000E+00   0.000000000000000E+00
   0.000000000000000E+00   0.000000000000000E+00   0.000000000000000E+00
   0.000000000000000E+00   0.000000000000000E+00   0.000000000000000E+00
   0.000000000000000E+00   0.000000000000000E+00   0.000000000000000E+00
   0.000000000000000E+00   0.000000000000000E+00   0.000000000000000E+00
   0.000000000000000E+00   0.000000000000000E+00   0.000000000000000E+00
   0.000000000000000E+00   0.000000000000000E+00   0.000000000000000E+00
      </PP_QIJL.2.4.1>
      <PP_QIJL.3.3.0 first_index="3" second_index="3" composite_index="6" angular_momentum="0" size="1095">
   2.463920472219829E-08   2.526294915967214E-08   2.590248376277275E-08
   2.655820826144679E-08   2.723053250485293E-08   2.791987671753060E-08
   2.862667176205412E-08   2.935135940833594E-08   3.009439260974701E-08
   3.085623578622771E-08   3.163736511456512E-08   3.243826882601909E-08
   3.325944751148279E-08   3.410141443436816E-08   3.496469585141255E-08
   3.584983134160590E-08   3.675737414344548E-08   3.768789150072783E-08
   3.864196501709464E-08   3.962019101955411E-08   4.062318093120450E-08
   4.165156165339357E-08   4.270597595755239E-08   4.378708288694836E-08
   4.489555816860887E-08   4.603209463567241E-08   4.719740266043204E-08
   4.839221059834120E-08   4.961726524325941E-08   5.087333229422322E-08
   5.216119683403239E-08   5.348166381995275E-08   5.483555858684031E-08
   5.622372736300271E-08   5.764703779911952E-08   5.910637951055186E-08
   6.060266463338109E-08   6.213682839452372E-08   6.370982969627849E-08
   6.532265171567195E-08   6.697630251897546E-08   6.867181569177992E-08
   7.041025098502037E-08   7.219269497735457E-08   7.402026175431073E-08
   7.589409360462634E-08   7.781536173421649E-08   7.978526699821549E-08
   8.180504065155027E-08   8.387594511851562E-08   8.599927478182931E-08
   8.817635679166429E-08   9.040855189516047E-08   9.269725528693601E-08
   9.504389748112996E-08   9.744994520551918E-08   9.991690231827177E-08
   1.024463107479071E-07   1.050397514570515E-07   1.076988454305915E-07
   1.104252546888421E-07   1.132206833263632E-07   1.160868785770750E-07
   1.190256319063354E-07   1.220387801306653E-07   1.251282065658173E-07
   1.282958422039106E-07   1.315436669203634E-07   1.348737107113796E-07
   1.382880549627634E-07   1.417888337508518E-07   1.453782351763832E-07
   1.490585027321308E-07   1.528319367051589E-07   1.567008956145784E-07
   1.606677976856961E-07   1.647351223614859E-07   1.689054118523208E-07
   1.731812727249375E-07   1.775653775316259E-07   1.820604664806607E-07
   1.866693491490212E-07   1.913949062384688E-07   1.962400913760790E-07
   2.012079329603556E-07   2.063015360540775E-07   2.115240843250643E-07
   2.168788420360731E-07   2.223691560850684E-07   2.279984580971440E-07
   2.337702665693987E-07   2.396881890701126E-07   2.457559244935953E-07
   2.519772653721145E-07   2.583561002463546E-07   2.648964160958783E-07
   2.716023008311216E-07   2.784779458484696E-07   2.855276486500161E-07
   2.927558155296452E-07   3.001669643271044E-07   3.077657272518057E-07
   3.155568537781051E-07   3.235452136138801E-07   3.317357997442581E-07
   3.401337315523911E-07   3.487442580192401E-07   3.575727610043587E-07
   3.666247586097305E-07   3.759059086287660E-07   3.854220120826040E-07
   3.951790168459418E-07   4.051830213646503E-07   4.154402784675020E-07
   4.259571992743956E-07   4.367403572035108E-07   4.477964920799129E-07
   4.591325143481624E-07   4.707555093915688E-07   4.826727419607888E-07
   4.948916607145291E-07   5.074199028752042E-07   5.202652990024495E-07
   5.334358778874763E-07   5.469398715713325E-07   5.607857204901916E-07
   5.749820787509057E-07   5.895378195401042E-07   6.044620406702245E-07
   6.197640702659469E-07   6.354534725945714E-07   6.515400540440024E-07
   6.680338692520598E-07   6.849452273909574E-07   7.022846986108772E-07
   7.200631206466516E-07   7.382916055917080E-07   7.569815468434904E-07
   7.761446262247037E-07   7.957928212848419E-07   8.159384127865415E-07
   8.365939923814640E-07   8.577724704804927E-07   8.794870843231595E-07
   9.017514062513587E-07   9.245793521925000E-07   9.479851903574226E-07
   9.719835501584968E-07   9.965894313534819E-07   1.021818213420876E-06
   1.047685665172586E-06   1.074207954609959E-06   1.101401659029307E-06
   1.129283775383271E-06   1.157871730904473E-06   1.187183393998104E-06
   1.217237085410268E-06   1.248051589679052E-06   1.279646166875477E-06
   1.312040564641685E-06   1.345255030533853E-06   1.379310324677590E-06
   1.414227732743699E-06   1.450029079252416E-06   1.486736741214473E-06
   1.524373662117434E-06   1.562963366266171E-06   1.602529973486302E-06
   1.643098214199881E-06   1.684693444882753E-06   1.727341663913145E-06
   1.771069527821559E-06   1.815904367951949E-06   1.861874207544728E-06
   1.909007779252231E-06   1.957334543097539E-06   2.006884704888016E-06
   2.057689235094899E-06   2.109779888210886E-06   2.163189222597752E-06
   2.217950620836379E-06   2.274098310592014E-06   2.331667386007663E-06
   2.390693829639109E-06   2.451214534945220E-06   2.513267329347537E-06
   2.576890997873740E-06   2.642125307399524E-06   2.709011031504246E-06
   2.777589975955778E-06   2.847905004840461E-06   2.920000067354657E-06
   2.993920225274403E-06   3.069711681120548E-06   3.147421807036896E-06
   3.227099174399320E-06   3.308793584174566E-06   3.392556098047473E-06
   3.478439070336251E-06   3.566496180715717E-06   3.656782467768816E-06
   3.749354363387680E-06   3.844269728045380E-06   3.941587886960692E-06
   4.041369667178386E-06   4.143677435588102E-06   4.248575137905855E-06
   4.356128338642182E-06   4.466404262082212E-06   4.579471834303141E-06
   4.695401726255278E-06   4.814266397933890E-06   4.936140143669068E-06
   5.061099138562242E-06   5.189221486098227E-06   5.320587266962476E-06
   5.455278589094344E-06   5.593379639007257E-06   5.734976734408186E-06
   5.880158378149203E-06   6.029015313544678E-06   6.181640581089101E-06
   6.338129576610455E-06   6.498580110895940E-06   6.663092470827109E-06
   6.831769482062495E-06   7.004716573307347E-06   7.182041842210098E-06
   7.363856122927146E-06   7.550273055398109E-06   7.741409156374572E-06
   7.937383892247296E-06   8.138319753716701E-06   8.344342332353864E-06
   8.555580399099717E-06   8.772165984751192E-06   8.994234462485308E-06
   9.221924632471981E-06   9.455378808629054E-06   9.694742907573587E-06
   9.940166539824670E-06   1.019180310331554E-05   1.044980987927252E-05
   1.071434813052141E-05   1.098558320228253E-05   1.126368462551728E-05
   1.154882622289112E-05   1.184118621741889E-05   1.214094734386057E-05
   1.244829696293712E-05   1.276342717843758E-05   1.308653495729097E-05
   1.341782225267766E-05   1.375749613025743E-05   1.410576889759307E-05
   1.446285823685032E-05   1.482898734085717E-05   1.520438505260748E-05
   1.558928600829638E-05   1.598393078397644E-05   1.638856604592659E-05
   1.680344470482772E-05   1.722882607384116E-05   1.766497603068916E-05
   1.811216718383837E-05   1.857067904289028E-05   1.904079819328534E-05
   1.952281847542957E-05   2.001704116835598E-05   2.052377517803545E-05
   2.104333723045461E-05   2.157605206958185E-05   2.212225266034463E-05
   2.268228039674544E-05   2.325648531524630E-05   2.384522631355502E-05
   2.444887137495041E-05   2.506779779828607E-05   2.570239243381705E-05
   2.635305192499661E-05   2.702018295639395E-05   2.770420250788836E-05
   2.840553811529820E-05   2.912462813760802E-05   2.986192203096062E-05
   3.061788062958522E-05   3.139297643383780E-05   3.218769390553298E-05
   3.300252977075255E-05   3.383799333031998E-05   3.469460677813433E-05
   3.557290552756342E-05   3.647343854609947E-05   3.739676869848698E-05
   3.834347309853720E-05   3.931414346984857E-05   4.030938651565962E-05
   4.132982429806437E-05   4.237609462682827E-05   4.344885145804714E-05
   4.454876530289817E-05   4.567652364673933E-05   4.683283137881791E-05
   4.801841123285789E-05   4.923400423880120E-05   5.048037018598453E-05
   5.175828809804270E-05   5.306855671983372E-05   5.441199501669141E-05
   5.578944268631676E-05   5.720176068362801E-05   5.864983175889830E-05
   6.013456100951625E-05   6.165687644571495E-05   6.321772957062318E-05
   6.481809597500072E-05   6.645897594703042E-05   6.814139509754704E-05
   6.986640500109517E-05   7.163508385321566E-05   7.344853714437178E-05
   7.530789835093721E-05   7.721432964367605E-05   7.916902261415972E-05
   8.117319901957314E-05   8.322811154637744E-05   8.533504459330410E-05
   8.749531507417285E-05   8.971027324103331E-05   9.198130352814501E-05
   9.430982541732501E-05   9.669729432520073E-05   9.914520251292662E-05
   1.016550800189306E-04   1.042284956152734E-04   1.068670577882217E-04
   1.095724157436422E-04   1.123462604378518E-04   1.151903256345628E-04
   1.181063889885875E-04   1.210962731569781E-04   1.241618469382949E-04
   1.273050264407192E-04   1.305277762797363E-04   1.338321108061412E-04
   1.372200953651324E-04   1.406938475872804E-04   1.442555387121806E-04
   1.479073949456155E-04   1.516516988510749E-04   1.554907907765067E-04
   1.594270703171845E-04   1.634629978156129E-04   1.676010958994034E-04
   1.718439510580846E-04   1.761942152598329E-04   1.806546076091293E-04
   1.852279160463870E-04   1.899169990906045E-04   1.947247876261372E-04
   1.996542867347062E-04   2.047085775737816E-04   2.098908193025259E-04
   2.152042510564922E-04   2.206521939723144E-04   2.262380532636590E-04
   2.319653203497264E-04   2.378375750376447E-04   2.438584877601087E-04
   2.500318218696709E-04   2.563614359911151E-04   2.628512864333808E-04
   2.695054296625520E-04   2.763280248374495E-04   2.833233364094166E-04
   2.904957367879224E-04   2.978497090736423E-04   3.053898498607350E-04
   3.131208721100582E-04   3.210476080951224E-04   3.291750124226265E-04
   3.375081651294543E-04   3.460522748580785E-04   3.548126821123486E-04
   3.637948625957013E-04   3.730044306338756E-04   3.824471426842792E-04
   3.921289009341866E-04   4.020557569900307E-04   4.122339156600842E-04
   4.226697388328965E-04   4.333697494539141E-04   4.443406356027569E-04
   4.555892546737126E-04   4.671226376620502E-04   4.789479935588342E-04
   4.910727138569871E-04   5.035043771714047E-04   5.162507539760233E-04
   5.293198114607905E-04   5.427197185115698E-04   5.564588508160977E-04
   5.705457960991692E-04   5.849893594903344E-04   5.997985690274451E-04
   6.149826812994967E-04   6.305511872322824E-04   6.465138180204681E-04
   6.628805512097994E-04   6.796616169332295E-04   6.968675043048560E-04
   7.145089679756724E-04   7.325970348551930E-04   7.511430110031797E-04
   7.701584886957408E-04   7.896553536702233E-04   8.096457925534109E-04
   8.301423004776525E-04   8.511576888896768E-04   8.727050935569564E-04
   8.947979827766053E-04   9.174501657919314E-04   9.406758014218676E-04
   9.644894069086799E-04   9.889058669894373E-04   1.013940443196900E-03
   1.039608783395615E-03   1.065926931559132E-03   1.092911337794441E-03
   1.120578868619848E-03   1.148946817502685E-03   1.178032915663390E-03
   1.207855343152665E-03   1.238432740208600E-03   1.269784218900795E-03
   1.301929375068705E-03   1.334888300561624E-03   1.368681595787849E-03
   1.403330382580845E-03   1.438856317390343E-03   1.475281604806540E-03
   1.512629011425762E-03   1.550921880066138E-03   1.590184144342102E-03
   1.630440343606670E-03   1.671715638270723E-03   1.714035825508758E-03
   1.757427355360708E-03   1.801917347239803E-03   1.847533606856581E-03
   1.894304643569423E-03   1.942259688172307E-03   1.991428711130587E-03
   2.041842441276042E-03   2.093532384972586E-03   2.146530845764307E-03
   2.200870944517879E-03   2.256586640071514E-03   2.313712750403118E-03
   2.372284974330393E-03   2.432339913756102E-03   2.493915096471934E-03
   2.557048999534692E-03   2.621781073228978E-03   2.688151765630714E-03
   2.756202547786262E-03   2.825975939522255E-03   2.897515535901465E-03
   2.970866034340597E-03   3.046073262406025E-03   3.123184206304005E-03
   3.202247040082179E-03   3.283311155559548E-03   3.366427193002569E-03
   3.451647072565240E-03   3.539024026511579E-03   3.628612632239187E-03
   3.720468846122960E-03   3.814650038198553E-03   3.911215027705398E-03
   4.010224119509601E-03   4.111739141427433E-03   4.215823482470417E-03
   4.322542132033639E-03   4.431961720049020E-03   4.544150558125968E-03
   4.659178681702028E-03   4.777117893226563E-03   4.898041806401091E-03
   5.022025891499948E-03   5.149147521795667E-03   5.279486021113607E-03
   5.413122712540747E-03   5.550140968314124E-03   5.690626260914426E-03
   5.834666215390796E-03   5.982350662943194E-03   6.133771695788708E-03
   6.289023723338948E-03   6.448203529715398E-03   6.611410332630125E-03
   6.778745843659431E-03   6.950314329937889E-03   7.126222677300817E-03
   7.306580454902839E-03   7.491499981340501E-03   7.681096392306897E-03
   7.875487709805819E-03   8.074794912953492E-03   8.279142010395053E-03
   8.488656114363075E-03   8.703467516405078E-03   8.923709764806144E-03
   9.149519743732921E-03   9.381037754123899E-03   9.618407596350645E-03
   9.861776654673679E-03   1.011129598351535E-02   1.036712039557155E-02
   1.062940855178224E-02   1.089832305317958E-02   1.117403053463087E-02
   1.145670176049115E-02   1.174651172217926E-02   1.204363973768769E-02
   1.234826955303489E-02   1.266058944566559E-02   1.298079232980138E-02
   1.330907586374084E-02   1.364564255910451E-02   1.399069989201572E-02
   1.434446041620432E-02   1.470714187801472E-02   1.507896733329501E-02
   1.546016526613764E-02   1.585096970943582E-02   1.625162036721306E-02
   1.666236273867533E-02   1.708344824392786E-02   1.751513435128895E-02
   1.795768470612397E-02   1.841136926111254E-02   1.887646440784978E-02
   1.935325310967163E-02   1.984202503557995E-02   2.034307669512958E-02
   2.085671157412427E-02   2.138324027095125E-02   2.192298063336762E-02
   2.247625789553162E-02   2.304340481505175E-02   2.362476180980485E-02
   2.422067709424982E-02   2.483150681493918E-02   2.545761518490258E-02
   2.609937461654748E-02   2.675716585269071E-02   2.743137809530069E-02
   2.812240913149495E-02   2.883066545629817E-02   2.955656239162507E-02
   3.030052420090895E-02   3.106298419874847E-02   3.184438485489683E-02
   3.264517789186224E-02   3.346582437533254E-02   3.430679479657600E-02
   3.516856914590438E-02   3.605163697621755E-02   3.695649745557358E-02
   3.788365940765135E-02   3.883364133889028E-02   3.980697145100245E-02
   4.080418763746171E-02   4.182583746247324E-02   4.287247812082393E-02
   4.394467637690343E-02   4.504300848106727E-02   4.616806006139266E-02
   4.732042598874447E-02   4.850071021293334E-02   4.970952556760273E-02
   5.094749354132824E-02   5.221524401225515E-02   5.351341494342907E-02
   5.484265203580042E-02   5.620360833569867E-02   5.759694379337741E-02
   5.902332476903348E-02   6.048342348248923E-02   6.197791740251078E-02
   6.350748857150709E-02   6.507282286111749E-02   6.667460915395433E-02
   6.831353844651115E-02   6.999030286799007E-02   7.170559460953380E-02
   7.346010475807235E-02   7.525452202871848E-02   7.708953138935727E-02
   7.896581257078811E-02   8.088403845548608E-02   8.284487333775448E-02
   8.484897104774995E-02   8.689697293156841E-02   8.898950567929458E-02
   9.112717899263761E-02   9.331058308350366E-02   9.554028599460172E-02
   9.781683073293321E-02   1.001407322067980E-01   1.025124739567509E-01
   1.049325046707744E-01   1.074012344738058E-01   1.099190309816606E-01
   1.124862151093532E-01   1.151030566238297E-01   1.177697694311969E-01
   1.204865065886876E-01   1.232533550318216E-01   1.260703300075489E-01
   1.289373692045851E-01   1.318543265726836E-01   1.348209658232649E-01
   1.378369536046313E-01   1.409018523459622E-01   1.440151127654370E-01
   1.471760660391579E-01   1.503839156291020E-01   1.536377287700982E-01
   1.569364276178544E-01   1.602787800623545E-01   1.636633902135326E-01
   1.670886885690425E-01   1.705529218771779E-01   1.740541427116158E-01
   1.775901987786511E-01   1.811587219819975E-01   1.847571172750930E-01
   1.883825513361458E-01   1.920319411069646E-01   1.957019422429231E-01
   1.993889375282326E-01   2.030890253180953E-01   2.067980080772300E-01
   2.105113810927894E-01   2.142243214487791E-01   2.179316773587414E-01
   2.216279579637346E-01   2.253073237134144E-01   2.289635774593767E-01
   2.325901564017572E-01   2.361801250423621E-01   2.397261693103161E-01
   2.432205920391941E-01   2.466553099878485E-01   2.500218526104832E-01
   2.533113627948193E-01   2.565145998003442E-01   2.596219446413513E-01
   2.626234081716409E-01   2.655086421390427E-01   2.682669534880666E-01
   2.708873221977111E-01   2.733584229483066E-01   2.756686509159309E-01
   2.778061519948939E-01   2.797588577475618E-01   2.815145253758661E-01
   2.830607829995840E-01   2.843851805122755E-01   2.854752462659322E-01
   2.863185498091875E-01   2.869027708706149E-01   2.872157747373782E-01
   2.872456941294799E-01   2.869810176102255E-01   2.864106845034350E-01
   2.855241862065392E-01   2.843116736951883E-01   2.827640709085917E-01
   2.808731935848113E-01   2.786318729810572E-01   2.760340837651902E-01
   2.730750752008925E-01   2.697515045701859E-01   2.660615715834005E-01
   2.620051523188326E-01   2.575839310130211E-01   2.528015277892346E-01
   2.476636201681361E-01   2.421780559531605E-01   2.363549548269830E-01
   2.302067957382840E-01   2.237484869045847E-01   2.169974150125735E-01
   2.099734699685976E-01   2.026990413463295E-01   1.951989825043949E-01
   1.875005382138094E-01   1.796332315539022E-01   1.716287058179533E-01
   1.635205172289345E-01   1.553438744151669E-01   1.471353208503436E-01
   1.389323568372440E-01   1.307729981254830E-01   1.226952689165336E-01
   1.147366278393503E-01   1.069333264920033E-01   9.931970135175822E-02
   9.192740126915687E-02   8.478455438895055E-02   7.791488018630666E-02
   7.133675437009598E-02   6.506223667941391E-02   5.909607407104624E-02
   5.343469444201555E-02   4.806520882038432E-02   4.297164008097198E-02
   3.815888565626802E-02   3.363634218267320E-02   2.941137443585340E-02
   2.548921162245976E-02   2.187286218180284E-02   1.856304950557286E-02
   1.555817090556744E-02   1.285428204064898E-02   1.044510885392436E-02
   8.322088869387234E-03   6.474443455016576E-03   4.889282378859328E-03
   3.551741669199804E-03   2.445155444168789E-03   1.551262005577758E-03
   8.504441028643894E-04   3.220028728233570E-04  -5.553544346814654E-05
  -3.040813065546821E-04  -4.456139001344228E-04  -5.017854408537747E-04
  -4.935002146342349E-04  -4.404711313836795E-04  -3.607569384097564E-04
  -2.702835891390531E-04  -1.823536472747023E-04  -1.071480446794837E-04
  -5.122503951793256E-05  -1.702188329033572E-05  -2.365553375294205E-06
   0.000000000000000E+00   0.000000000000000E+00   0.000000000000000E+00
   0.000000000000000E+00   0.000000000000000E+00   0.000000000000000E+00
   0.000000000000000E+00   0.000000000000000E+00   0.000000000000000E+00
   0.000000000000000E+00   0.000000000000000E+00   0.000000000000000E+00
   0.000000000000000E+00   0.000000000000000E+00   0.000000000000000E+00
   0.000000000000000E+00   0.000000000000000E+00   0.000000000000000E+00
   0.000000000000000E+00   0.000000000000000E+00   0.000000000000000E+00
   0.000000000000000E+00   0.000000000000000E+00   0.000000000000000E+00
   0.000000000000000E+00   0.000000000000000E+00   0.000000000000000E+00
   0.000000000000000E+00   0.000000000000000E+00   0.000000000000000E+00
   0.000000000000000E+00   0.000000000000000E+00   0.000000000000000E+00
   0.000000000000000E+00   0.000000000000000E+00   0.000000000000000E+00
   0.000000000000000E+00   0.000000000000000E+00   0.000000000000000E+00
   0.000000000000000E+00   0.000000000000000E+00   0.000000000000000E+00
   0.000000000000000E+00   0.000000000000000E+00   0.000000000000000E+00
   0.000000000000000E+00   0.000000000000000E+00   0.000000000000000E+00
   0.000000000000000E+00   0.000000000000000E+00   0.000000000000000E+00
   0.000000000000000E+00   0.000000000000000E+00   0.000000000000000E+00
   0.000000000000000E+00   0.000000000000000E+00   0.000000000000000E+00
   0.000000000000000E+00   0.000000000000000E+00   0.000000000000000E+00
   0.000000000000000E+00   0.000000000000000E+00   0.000000000000000E+00
   0.000000000000000E+00   0.000000000000000E+00   0.000000000000000E+00
   0.000000000000000E+00   0.000000000000000E+00   0.000000000000000E+00
   0.000000000000000E+00   0.000000000000000E+00   0.000000000000000E+00
   0.000000000000000E+00   0.000000000000000E+00   0.000000000000000E+00
   0.000000000000000E+00   0.000000000000000E+00   0.000000000000000E+00
   0.000000000000000E+00   0.000000000000000E+00   0.000000000000000E+00
   0.000000000000000E+00   0.000000000000000E+00   0.000000000000000E+00
   0.000000000000000E+00   0.000000000000000E+00   0.000000000000000E+00
   0.000000000000000E+00   0.000000000000000E+00   0.000000000000000E+00
   0.000000000000000E+00   0.000000000000000E+00   0.000000000000000E+00
   0.000000000000000E+00   0.000000000000000E+00   0.000000000000000E+00
   0.000000000000000E+00   0.000000000000000E+00   0.000000000000000E+00
   0.000000000000000E+00   0.000000000000000E+00   0.000000000000000E+00
   0.000000000000000E+00   0.000000000000000E+00   0.000000000000000E+00
   0.000000000000000E+00   0.000000000000000E+00   0.000000000000000E+00
   0.000000000000000E+00   0.000000000000000E+00   0.000000000000000E+00
   0.000000000000000E+00   0.000000000000000E+00   0.000000000000000E+00
   0.000000000000000E+00   0.000000000000000E+00   0.000000000000000E+00
   0.000000000000000E+00   0.000000000000000E+00   0.000000000000000E+00
   0.000000000000000E+00   0.000000000000000E+00   0.000000000000000E+00
   0.000000000000000E+00   0.000000000000000E+00   0.000000000000000E+00
   0.000000000000000E+00   0.000000000000000E+00   0.000000000000000E+00
   0.000000000000000E+00   0.000000000000000E+00   0.000000000000000E+00
   0.000000000000000E+00   0.000000000000000E+00   0.000000000000000E+00
   0.000000000000000E+00   0.000000000000000E+00   0.000000000000000E+00
   0.000000000000000E+00   0.000000000000000E+00   0.000000000000000E+00
   0.000000000000000E+00   0.000000000000000E+00   0.000000000000000E+00
   0.000000000000000E+00   0.000000000000000E+00   0.000000000000000E+00
   0.000000000000000E+00   0.000000000000000E+00   0.000000000000000E+00
   0.000000000000000E+00   0.000000000000000E+00   0.000000000000000E+00
   0.000000000000000E+00   0.000000000000000E+00   0.000000000000000E+00
   0.000000000000000E+00   0.000000000000000E+00   0.000000000000000E+00
   0.000000000000000E+00   0.000000000000000E+00   0.000000000000000E+00
   0.000000000000000E+00   0.000000000000000E+00   0.000000000000000E+00
   0.000000000000000E+00   0.000000000000000E+00   0.000000000000000E+00
   0.000000000000000E+00   0.000000000000000E+00   0.000000000000000E+00
   0.000000000000000E+00   0.000000000000000E+00   0.000000000000000E+00
   0.000000000000000E+00   0.000000000000000E+00   0.000000000000000E+00
   0.000000000000000E+00   0.000000000000000E+00   0.000000000000000E+00
   0.000000000000000E+00   0.000000000000000E+00   0.000000000000000E+00
   0.000000000000000E+00   0.000000000000000E+00   0.000000000000000E+00
   0.000000000000000E+00   0.000000000000000E+00   0.000000000000000E+00
   0.000000000000000E+00   0.000000000000000E+00   0.000000000000000E+00
   0.000000000000000E+00   0.000000000000000E+00   0.000000000000000E+00
   0.000000000000000E+00   0.000000000000000E+00   0.000000000000000E+00
   0.000000000000000E+00   0.000000000000000E+00   0.000000000000000E+00
   0.000000000000000E+00   0.000000000000000E+00   0.000000000000000E+00
   0.000000000000000E+00   0.000000000000000E+00   0.000000000000000E+00
   0.000000000000000E+00   0.000000000000000E+00   0.000000000000000E+00
   0.000000000000000E+00   0.000000000000000E+00   0.000000000000000E+00
   0.000000000000000E+00   0.000000000000000E+00   0.000000000000000E+00
   0.000000000000000E+00   0.000000000000000E+00   0.000000000000000E+00
   0.000000000000000E+00   0.000000000000000E+00   0.000000000000000E+00
   0.000000000000000E+00   0.000000000000000E+00   0.000000000000000E+00
   0.000000000000000E+00   0.000000000000000E+00   0.000000000000000E+00
   0.000000000000000E+00   0.000000000000000E+00   0.000000000000000E+00
   0.000000000000000E+00   0.000000000000000E+00   0.000000000000000E+00
   0.000000000000000E+00   0.000000000000000E+00   0.000000000000000E+00
   0.000000000000000E+00   0.000000000000000E+00   0.000000000000000E+00
   0.000000000000000E+00   0.000000000000000E+00   0.000000000000000E+00
   0.000000000000000E+00   0.000000000000000E+00   0.000000000000000E+00
   0.000000000000000E+00   0.000000000000000E+00   0.000000000000000E+00
   0.000000000000000E+00   0.000000000000000E+00   0.000000000000000E+00
   0.000000000000000E+00   0.000000000000000E+00   0.000000000000000E+00
   0.000000000000000E+00   0.000000000000000E+00   0.000000000000000E+00
   0.000000000000000E+00   0.000000000000000E+00   0.000000000000000E+00
   0.000000000000000E+00   0.000000000000000E+00   0.000000000000000E+00
   0.000000000000000E+00   0.000000000000000E+00   0.000000000000000E+00
   0.000000000000000E+00   0.000000000000000E+00   0.000000000000000E+00
   0.000000000000000E+00   0.000000000000000E+00   0.000000000000000E+00
   0.000000000000000E+00   0.000000000000000E+00   0.000000000000000E+00
   0.000000000000000E+00   0.000000000000000E+00   0.000000000000000E+00
   0.000000000000000E+00   0.000000000000000E+00   0.000000000000000E+00
   0.000000000000000E+00   0.000000000000000E+00   0.000000000000000E+00
   0.000000000000000E+00   0.000000000000000E+00   0.000000000000000E+00
   0.000000000000000E+00   0.000000000000000E+00   0.000000000000000E+00
   0.000000000000000E+00   0.000000000000000E+00   0.000000000000000E+00
   0.000000000000000E+00   0.000000000000000E+00   0.000000000000000E+00
   0.000000000000000E+00   0.000000000000000E+00   0.000000000000000E+00
   0.000000000000000E+00   0.000000000000000E+00   0.000000000000000E+00
   0.000000000000000E+00   0.000000000000000E+00   0.000000000000000E+00
   0.000000000000000E+00   0.000000000000000E+00   0.000000000000000E+00
   0.000000000000000E+00   0.000000000000000E+00   0.000000000000000E+00
   0.000000000000000E+00   0.000000000000000E+00   0.000000000000000E+00
   0.000000000000000E+00   0.000000000000000E+00   0.000000000000000E+00
   0.000000000000000E+00   0.000000000000000E+00   0.000000000000000E+00
   0.000000000000000E+00   0.000000000000000E+00   0.000000000000000E+00
   0.000000000000000E+00   0.000000000000000E+00   0.000000000000000E+00
   0.000000000000000E+00   0.000000000000000E+00   0.000000000000000E+00
   0.000000000000000E+00   0.000000000000000E+00   0.000000000000000E+00
   0.000000000000000E+00   0.000000000000000E+00   0.000000000000000E+00
   0.000000000000000E+00   0.000000000000000E+00   0.000000000000000E+00
   0.000000000000000E+00   0.000000000000000E+00   0.000000000000000E+00
   0.000000000000000E+00   0.000000000000000E+00   0.000000000000000E+00
      </PP_QIJL.3.3.0>
      <PP_QIJL.3.3.2 first_index="3" second_index="3" composite_index="6" angular_momentum="2" size="1095">
   3.838545012075409E-15   4.035351415096305E-15   4.242248297532380E-15
   4.459753009276227E-15   4.688409425312800E-15   4.928789305689585E-15
   5.181493725214051E-15   5.447154576453195E-15   5.726436149793417E-15
   6.020036794511961E-15   6.328690665012999E-15   6.653169556595350E-15
   6.994284835341894E-15   7.352889466956468E-15   7.729880149621572E-15
   8.126199556209670E-15   8.542838691455377E-15   8.980839369982254E-15
   9.441296821380665E-15   9.925362428850982E-15   1.043424660825960E-14
   1.096922183480753E-14   1.153162582487945E-14   1.212286488102954E-14
   1.274441740846839E-14   1.339783761184374E-14   1.408475938155938E-14
   1.480690037934964E-14   1.556606633332552E-14   1.636415555323289E-14
   1.720316367721197E-14   1.808518866192902E-14   1.901243602855693E-14
   1.998722437772290E-14   2.101199118721357E-14   2.208929890693418E-14
   2.322184136636312E-14   2.441245051052338E-14   2.566410348131423E-14
   2.697993006191074E-14   2.836322050284458E-14   2.981743374933723E-14
   3.134620609045670E-14   3.295336025172561E-14   3.464291495391751E-14
   3.641909496194137E-14   3.828634164894432E-14   4.024932410204627E-14
   4.231295079747718E-14   4.448238187431160E-14   4.676304203748880E-14
   4.916063412238586E-14   5.168115335485971E-14   5.433090234241620E-14
   5.711650683399323E-14   6.004493228776205E-14   6.312350128837909E-14
   6.635991185723719E-14   6.976225670150232E-14   7.333904345006951E-14
   7.709921592703454E-14   8.105217651588086E-14   8.520780967030022E-14
   8.957650663043688E-14   9.416919140636065E-14   9.899734809373597E-14
   1.040730495899961E-13   1.094089877828238E-13   1.150185052864245E-13
   1.209156288049546E-13   1.271151042065203E-13   1.336324333954607E-13
   1.404839130751085E-13   1.476866754979545E-13   1.552587313051184E-13
   1.632190145622357E-13   1.715874301043844E-13   1.803849033084319E-13
   1.896334324172578E-13   1.993561435466955E-13   2.095773485127268E-13
   2.203226056235415E-13   2.316187835884599E-13   2.434941287035304E-13
   2.559783354818007E-13   2.691026209048642E-13   2.828998024813632E-13
   2.974043803076221E-13   3.126526233356087E-13   3.286826600639418E-13
   3.455345738787021E-13   3.632505032824680E-13   3.818747472621845E-13
   4.014538760593409E-13   4.220368476194468E-13   4.436751300119670E-13
   4.664228301268579E-13   4.903368289694812E-13   5.154769238922200E-13
   5.419059781184435E-13   5.696900779326867E-13   5.988986979301329E-13
   6.296048747385731E-13   6.618853896472520E-13   6.958209605992665E-13
   7.314964440275613E-13   7.690010470392613E-13   8.084285504788663E-13
   8.498775434280935E-13   8.934516697287405E-13   9.392598871449643E-13
   9.874167398130577E-13   1.038042644659944E-12   1.091264192506590E-12
   1.147214464609261E-12   1.206033365430071E-12   1.267867972468994E-12
   1.332872904032024E-12   1.401210705855116E-12   1.473052257550658E-12
   1.548577199892739E-12   1.627974384009718E-12   1.711442343607212E-12
   1.799189791402335E-12   1.891436141010520E-12   1.988412055589816E-12
   2.090360024614649E-12   2.197534970221168E-12   2.310204884640364E-12
   2.428651500312872E-12   2.553170994360967E-12   2.684074729179410E-12
   2.821690030996848E-12   2.966361008354609E-12   3.118449412549484E-12
   3.278335542191877E-12   3.446419194141351E-12   3.623120663197189E-12
   3.808881793043713E-12   4.004167081078276E-12   4.209464839884330E-12
   4.425288418254014E-12   4.652177484813238E-12   4.890699377458916E-12
   5.141450521982674E-12   5.405057923428013E-12   5.682180733910273E-12
   5.973511900819454E-12   6.279779899527178E-12   6.601750554930505E-12
   6.940228956386904E-12   7.296061470829012E-12   7.670137859092526E-12
   8.063393500749127E-12   8.476811733007583E-12   8.911426309530886E-12
   9.368323985318159E-12   9.848647234114167E-12   1.035359710514128E-11
   1.088443622629709E-11   1.144249196132653E-11   1.202915972886332E-11
   1.264590649163931E-11   1.329427442458631E-11   1.397588477100254E-11
   1.469244189642460E-11   1.544573755034328E-11   1.623765534641682E-11
   1.707017547238596E-11   1.794537964146664E-11   1.886545629760001E-11
   1.983270608757725E-11   2.084954761371861E-11   2.191852348149305E-11
   2.304230665719914E-11   2.422370715160229E-11   2.546567904624357E-11
   2.677132787998396E-11   2.814391841425682E-11   2.958688279644311E-11
   3.110382914177950E-11   3.269855055526087E-11   3.437503461609030E-11
   3.613747334839524E-11   3.799027370313816E-11   3.993806857742862E-11
   4.198572839879356E-11   4.413837330336384E-11   4.640138593843184E-11
   4.878042492138877E-11   5.128143898869066E-11   5.391068187023679E-11
   5.667472792634199E-11   5.958048858640765E-11   6.263522963038996E-11
   6.584658935627111E-11   6.922259767896532E-11   7.277169620840226E-11
   7.650275935699651E-11   8.042511652927517E-11   8.454857544913790E-11
   8.888344668308599E-11   9.344056942071920E-11   9.823133857697018E-11
   1.032677332838338E-10   1.085623468428218E-10   1.141284182130445E-10
   1.199798651136283E-10   1.261313188232470E-10   1.325981607637667E-10
   1.393965609594626E-10   1.465435184679823E-10   1.540569038841157E-10
   1.619555040226561E-10   1.702590688920612E-10   1.789883610763444E-10
   1.881652076486810E-10   1.978125547464915E-10   2.079545249444684E-10
   2.186164775689755E-10   2.298250721046039E-10   2.416083348514302E-10
   2.539957289995907E-10   2.670182282963919E-10   2.807083944901175E-10
   2.951004587441289E-10   3.102304072248333E-10   3.261360710774466E-10
   3.428572210145203E-10   3.604356667536990E-10   3.789153615532725E-10
   3.983425121069094E-10   4.187656940722391E-10   4.402359735221457E-10
   4.628070346223765E-10   4.865353138546140E-10   5.114801411206252E-10
   5.377038880801400E-10   5.652721240933547E-10   5.942537801578598E-10
   6.247213212497755E-10   6.567509274999960E-10   6.904226846583324E-10
   7.258207843217611E-10   7.630337344272512E-10   8.021545805353413E-10
   8.432811384576377E-10   8.865162388096875E-10   9.319679841005590E-10
   9.797500190017520E-10   1.029981814470972E-09   1.082788966441028E-09
   1.138303509820363E-09   1.196664248590150E-09   1.258017102822996E-09
   1.322515473490612E-09   1.390320625972329E-09   1.461602093222939E-09
   1.536538099607611E-09   1.615316006463175E-09   1.698132780499374E-09
   1.785195486210822E-09   1.876721803530277E-09   1.972940572017054E-09
   2.074092362940592E-09   2.180430080688900E-09   2.292219595004976E-09
   2.409740405631146E-09   2.533286341022417E-09   2.663166292874924E-09
   2.799704988305046E-09   2.943243801608962E-09   3.094141607631033E-09
   3.252775678873632E-09   3.419542628590128E-09   3.594859402217595E-09
   3.779164319626730E-09   3.972918170793145E-09   4.176605367627900E-09
   4.390735154845263E-09   4.615842882893037E-09   4.852491346126180E-09
   5.101272189566856E-09   5.362807387765861E-09   5.637750798904190E-09
   5.926789800883427E-09   6.230647009496909E-09   6.550082077244684E-09
   6.885893605030496E-09   7.238921127684085E-09   7.610047218439426E-09
   8.000199687254574E-09   8.410353913054446E-09   8.841535261886804E-09
   9.294821672160036E-09   9.771346330013415E-09   1.027230051448672E-08
   1.079893656249070E-08   1.135257100946363E-08   1.193458787358798E-08
   1.254644211877719E-08   1.318966328325939E-08   1.386585931272591E-08
   1.457672056836181E-08   1.532402405052944E-08   1.610963785899570E-08
   1.693552583083729E-08   1.780375246818429E-08   1.871648809079151E-08
   1.967601426152313E-08   2.068472948272110E-08   2.174515518363704E-08
   2.285994207829080E-08   2.403187664742934E-08   2.526388824212384E-08
   2.655905641441334E-08   2.792061843139862E-08   2.935197754157461E-08
   3.085671140879138E-08   3.243858109134551E-08   3.410154030849898E-08
   3.584974555305535E-08   3.768756618847627E-08   3.961959558458380E-08
   4.165066252056239E-08   4.378584318722943E-08   4.603047399066473E-08
   4.839016476409466E-08   5.087081283575907E-08   5.347861771536394E-08
   5.622009669076183E-08   5.910210090657686E-08   6.213183269763357E-08
   6.531686338020665E-08   6.866515229934909E-08   7.218506663977168E-08
   7.588540233090419E-08   7.977540590691177E-08   8.386479787473472E-08
   8.816379667538354E-08   9.268314435166974E-08   9.743413328135147E-08
   1.024286345120654E-07   1.076791272490370E-07   1.131987300783135E-07
   1.190012336518036E-07   1.251011352067499E-07   1.315136746782007E-07
   1.382548726504639E-07   1.453415705959859E-07   1.527914727242953E-07
   1.606231899082482E-07   1.688562866867655E-07   1.775113297554535E-07
   1.866099391854926E-07   1.961748424753726E-07   2.062299313982696E-07
   2.168003213320951E-07   2.279124140591688E-07   2.395939636466266E-07
   2.518741455465980E-07   2.647836294500875E-07   2.783546557367454E-07
   2.926211157890513E-07   3.076186366892598E-07   3.233846698541110E-07
   3.399585845323025E-07   3.573817658839126E-07   3.756977180157262E-07
   3.949521726958243E-07   4.151932031198027E-07   4.364713437263617E-07
   4.588397160133214E-07   4.823541614065991E-07   5.070733795784038E-07
   5.330590753680573E-07   5.603761119696656E-07   5.890926729561008E-07
   6.192804317272611E-07   6.510147301448540E-07   6.843747658405707E-07
   7.194437899940132E-07   7.563093138393103E-07   7.950633270196027E-07
   8.358025262373578E-07   8.786285562565130E-07   9.236482619000570E-07
   9.709739550956893E-07   1.020723693303927E-06   1.073021573447676E-06
   1.127998040821685E-06   1.185790212808698E-06   1.246542220181587E-06
   1.310405565278201E-06   1.377539498809109E-06   1.448111415157170E-06
   1.522297268141562E-06   1.600282008946911E-06   1.682260044712491E-06
   1.768435721509623E-06   1.859023831955981E-06   1.954250148133122E-06
   2.054351982056906E-06   2.159578774569142E-06   2.270192714187890E-06
   2.386469387492596E-06   2.508698462785136E-06   2.637184407762508E-06
   2.772247244913305E-06   2.914223344270817E-06   3.063466257172732E-06
   3.220347591889532E-06   3.385257934076098E-06   3.558607813786730E-06
   3.740828722006482E-06   3.932374178358845E-06   4.133720852942854E-06
   4.345369746046779E-06   4.567847426341824E-06   4.801707333133607E-06
   5.047531143817845E-06   5.305930211228065E-06   5.577547073626623E-06
   5.863057041014700E-06   6.163169862331481E-06   6.478631476567044E-06
   6.810225852878341E-06   7.158776923643925E-06   7.525150615836490E-06
   7.910256983840289E-06   8.315052451990741E-06   8.740542168946297E-06
   9.187782481683623E-06   9.657883534409376E-06   1.015201199851850E-05
   1.067139394048664E-05   1.121731783453510E-05   1.179113772690775E-05
   1.239427655969177E-05   1.302822966297724E-05   1.369456842100373E-05
   1.439494412514095E-05   1.513109201871974E-05   1.590483554702417E-05
   1.671809081914444E-05   1.757287129556706E-05   1.847129271016395E-05
   1.941557823956940E-05   2.040806393173241E-05   2.145120440679192E-05
   2.254757884302779E-05   2.369989726323706E-05   2.491100713515175E-05
   2.618390030203404E-05   2.752172025977662E-05   2.892776979710672E-05
   3.040551901736624E-05   3.195861376030778E-05   3.359088444314255E-05
   3.530635534254359E-05   3.710925433776761E-05   3.900402313869348E-05
   4.099532802173016E-05   4.308807109882839E-05   4.528740214479646E-05
   4.759873101142096E-05   5.002774065548597E-05   5.258040081139874E-05
   5.526298233946653E-05   5.808207228243101E-05   6.104458966402542E-05
   6.415780206624296E-05   6.742934302252591E-05   7.086723026477422E-05
   7.447988486787640E-05   7.827615133155565E-05   8.226531864677078E-05
   8.645714239240694E-05   9.086186791154817E-05   9.549025461889816E-05
   1.003536014920871E-04   1.054637738041040E-04   1.108332311545266E-04
   1.164750568604235E-04   1.224029887718495E-04   1.286314515776593E-04
   1.351755906713806E-04   1.420513076504867E-04   1.492752975235146E-04
   1.568650877062540E-04   1.648390788871746E-04   1.732165878498269E-04
   1.820178923412668E-04   1.912642780806300E-04   2.009780880043861E-04
   2.111827738505230E-04   2.219029501877599E-04   2.331644509987897E-04
   2.449943889338372E-04   2.574212173520647E-04   2.704747952758819E-04
   2.841864553882442E-04   2.985890752044267E-04   3.137171515604711E-04
   3.296068785611849E-04   3.462962291394247E-04   3.638250403814118E-04
   3.822351027810952E-04   4.015702535908349E-04   4.218764744423816E-04
   4.432019934193717E-04   4.655973917656922E-04   4.891157154254706E-04
   5.138125916129907E-04   5.397463506188794E-04   5.669781530665125E-04
   5.955721228380786E-04   6.255954858976080E-04   6.571187152453349E-04
   6.902156822438658E-04   7.249638145642883E-04   7.614442610074021E-04
   7.997420634625472E-04   8.399463362715420E-04   8.821504532747155E-04
   9.264522428200830E-04   9.729541910257649E-04   1.021763653588297E-03
   1.072993076440052E-03   1.126760225559479E-03   1.183188426248469E-03
   1.242406812190384E-03   1.304550584610691E-03   1.369761281864005E-03
   1.438187059774020E-03   1.509982983055686E-03   1.585311328149684E-03
   1.664341897800123E-03   1.747252347704573E-03   1.834228525564586E-03
   1.925464822861149E-03   2.021164539673202E-03   2.121540262854161E-03
   2.226814257868025E-03   2.337218874582493E-03   2.452996967297019E-03
   2.574402329274913E-03   2.701700142027072E-03   2.835167439575678E-03
   2.975093587903520E-03   3.121780779765060E-03   3.275544545008579E-03
   3.436714276519763E-03   3.605633771861376E-03   3.782661790639202E-03
   3.968172627574549E-03   4.162556701211648E-03   4.366221158126396E-03
   4.579590492439100E-03   4.803107180358641E-03   5.037232329406572E-03
   5.282446341883532E-03   5.539249592040825E-03   5.808163116319082E-03
   6.089729315899771E-03   6.384512670691215E-03   6.693100463737867E-03
   7.016103514893721E-03   7.354156922444106E-03   7.707920811190452E-03
   8.078081085326596E-03   8.465350184240591E-03   8.870467839159971E-03
   9.294201828334092E-03   9.737348728198904E-03   1.020073465771082E-02
   1.068521601275564E-02   1.119168018723959E-02   1.172104627715380E-02
   1.227426576356383E-02   1.285232317011809E-02   1.345623669028845E-02
   1.408705877915305E-02   1.474587670410762E-02   1.543381304843984E-02
   1.615202616123141E-02   1.690171054655445E-02   1.768409718440621E-02
   1.850045377528386E-02   1.935208489972712E-02   2.024033208356472E-02
   2.116657375898219E-02   2.213222511088564E-02   2.313873779737679E-02
   2.418759953246603E-02   2.528033351845025E-02   2.641849771466065E-02
   2.760368392854847E-02   2.883751671433164E-02   3.012165206366610E-02
   3.145777587204439E-02   3.284760216386250E-02   3.429287105833601E-02
   3.579534645770117E-02   3.735681343840382E-02   3.897907532527288E-02
   4.066395042800264E-02   4.241326841863195E-02   4.422886632813459E-02
   4.611258413971229E-02   4.806625995594616E-02   5.009172471661023E-02
   5.219079644370422E-02   5.436527399014280E-02   5.661693026854916E-02
   5.894750493677878E-02   6.135869651715081E-02   6.385215392691850E-02
   6.642946739829585E-02   6.909215876738171E-02   7.184167111263989E-02
   7.467935772520472E-02   7.760647039523379E-02   8.062414700085335E-02
   8.373339838895549E-02   8.693509454026280E-02   9.022995001469448E-02
   9.361850867718922E-02   9.710112770880513E-02   1.006779609131451E-01
   1.043489413340002E-01   1.081137632065882E-01   1.119718632719135E-01
   1.159224014916484E-01   1.199642412095145E-01   1.240959288144982E-01
   1.283156729713543E-01   1.326213234947519E-01   1.370103499551298E-01
   1.414798201168091E-01   1.460263783221896E-01   1.506462239498899E-01
   1.553350900894338E-01   1.600882225905430E-01   1.649003596611055E-01
   1.697657122044888E-01   1.746779451038605E-01   1.796301596784708E-01
   1.846148775543445E-01   1.896240262092520E-01   1.946489264690884E-01
   1.996802822495949E-01   2.047081728534308E-01   2.097220481477628E-01
   2.147107269612979E-01   2.196623990518483E-01   2.245646310055925E-01
   2.294043764367582E-01   2.341679908611491E-01   2.388412516181125E-01
   2.434093832128501E-01   2.478570884437633E-01   2.521685856672448E-01
   2.563276525344943E-01   2.603176765108249E-01   2.641217124571091E-01
   2.677225475148258E-01   2.711027734901037E-01   2.742448668777617E-01
   2.771312766030961E-01   2.797445194867902E-01   2.820672833564737E-01
   2.840825376370202E-01   2.857736511506240E-01   2.871245167471362E-01
   2.881196822654427E-01   2.887444871983090E-01   2.889852042968672E-01
   2.888291852077917E-01   2.882650090874418E-01   2.872826329844118E-01
   2.858735426268424E-01   2.840309020956610E-01   2.817497007120204E-01
   2.790268953193418E-01   2.758615460004187E-01   2.722549431412177E-01
   2.682107236386153E-01   2.637349739527227E-01   2.588363176291760E-01
   2.535259848660388E-01   2.478178616770132E-01   2.417285162102434E-01
   2.352771998224297E-01   2.284858205830312E-01   2.213788869938589E-01
   2.139834198553632E-01   2.063288303913576E-01   1.984467629563259E-01
   1.903709008904536E-01   1.821367343519582E-01   1.737812892380407E-01
   1.653428165974484E-01   1.568604422306428E-01   1.483737764591480E-01
   1.399224843144374E-01   1.315458166402582E-01   1.232821028134593E-01
   1.151682059623155E-01   1.072389416973425E-01   9.952646147165092E-02
   9.205960176721975E-02   8.486320037964915E-02   7.795738117685361E-02
   7.135680887909381E-02   6.506991570439029E-02   5.909810221576295E-02
   5.343491548161944E-02   4.806520882038434E-02   4.297164008097198E-02
   3.815888565626802E-02   3.363634218267320E-02   2.941137443585340E-02
   2.548921162245976E-02   2.187286218180284E-02   1.856304950557286E-02
   1.555817090556744E-02   1.285428204064898E-02   1.044510885392436E-02
   8.322088869387234E-03   6.474443455016576E-03   4.889282378859328E-03
   3.551741669199804E-03   2.445155444168789E-03   1.551262005577758E-03
   8.504441028643894E-04   3.220028728233570E-04  -5.553544346814654E-05
  -3.040813065546821E-04  -4.456139001344228E-04  -5.017854408537747E-04
  -4.935002146342349E-04  -4.404711313836795E-04  -3.607569384097564E-04
  -2.702835891390531E-04  -1.823536472747023E-04  -1.071480446794837E-04
  -5.122503951793256E-05  -1.702188329033572E-05  -2.365553375294205E-06
   0.000000000000000E+00   0.000000000000000E+00   0.000000000000000E+00
   0.000000000000000E+00   0.000000000000000E+00   0.000000000000000E+00
   0.000000000000000E+00   0.000000000000000E+00   0.000000000000000E+00
   0.000000000000000E+00   0.000000000000000E+00   0.000000000000000E+00
   0.000000000000000E+00   0.000000000000000E+00   0.000000000000000E+00
   0.000000000000000E+00   0.000000000000000E+00   0.000000000000000E+00
   0.000000000000000E+00   0.000000000000000E+00   0.000000000000000E+00
   0.000000000000000E+00   0.000000000000000E+00   0.000000000000000E+00
   0.000000000000000E+00   0.000000000000000E+00   0.000000000000000E+00
   0.000000000000000E+00   0.000000000000000E+00   0.000000000000000E+00
   0.000000000000000E+00   0.000000000000000E+00   0.000000000000000E+00
   0.000000000000000E+00   0.000000000000000E+00   0.000000000000000E+00
   0.000000000000000E+00   0.000000000000000E+00   0.000000000000000E+00
   0.000000000000000E+00   0.000000000000000E+00   0.000000000000000E+00
   0.000000000000000E+00   0.000000000000000E+00   0.000000000000000E+00
   0.000000000000000E+00   0.000000000000000E+00   0.000000000000000E+00
   0.000000000000000E+00   0.000000000000000E+00   0.000000000000000E+00
   0.000000000000000E+00   0.000000000000000E+00   0.000000000000000E+00
   0.000000000000000E+00   0.000000000000000E+00   0.000000000000000E+00
   0.000000000000000E+00   0.000000000000000E+00   0.000000000000000E+00
   0.000000000000000E+00   0.000000000000000E+00   0.000000000000000E+00
   0.000000000000000E+00   0.000000000000000E+00   0.000000000000000E+00
   0.000000000000000E+00   0.000000000000000E+00   0.000000000000000E+00
   0.000000000000000E+00   0.000000000000000E+00   0.000000000000000E+00
   0.000000000000000E+00   0.000000000000000E+00   0.000000000000000E+00
   0.000000000000000E+00   0.000000000000000E+00   0.000000000000000E+00
   0.000000000000000E+00   0.000000000000000E+00   0.000000000000000E+00
   0.000000000000000E+00   0.000000000000000E+00   0.000000000000000E+00
   0.000000000000000E+00   0.000000000000000E+00   0.000000000000000E+00
   0.000000000000000E+00   0.000000000000000E+00   0.000000000000000E+00
   0.000000000000000E+00   0.000000000000000E+00   0.000000000000000E+00
   0.000000000000000E+00   0.000000000000000E+00   0.000000000000000E+00
   0.000000000000000E+00   0.000000000000000E+00   0.000000000000000E+00
   0.000000000000000E+00   0.000000000000000E+00   0.000000000000000E+00
   0.000000000000000E+00   0.000000000000000E+00   0.000000000000000E+00
   0.000000000000000E+00   0.000000000000000E+00   0.000000000000000E+00
   0.000000000000000E+00   0.000000000000000E+00   0.000000000000000E+00
   0.000000000000000E+00   0.000000000000000E+00   0.000000000000000E+00
   0.000000000000000E+00   0.000000000000000E+00   0.000000000000000E+00
   0.000000000000000E+00   0.000000000000000E+00   0.000000000000000E+00
   0.000000000000000E+00   0.000000000000000E+00   0.000000000000000E+00
   0.000000000000000E+00   0.000000000000000E+00   0.000000000000000E+00
   0.000000000000000E+00   0.000000000000000E+00   0.000000000000000E+00
   0.000000000000000E+00   0.000000000000000E+00   0.000000000000000E+00
   0.000000000000000E+00   0.000000000000000E+00   0.000000000000000E+00
   0.000000000000000E+00   0.000000000000000E+00   0.000000000000000E+00
   0.000000000000000E+00   0.000000000000000E+00   0.000000000000000E+00
   0.000000000000000E+00   0.000000000000000E+00   0.000000000000000E+00
   0.000000000000000E+00   0.000000000000000E+00   0.000000000000000E+00
   0.000000000000000E+00   0.000000000000000E+00   0.000000000000000E+00
   0.000000000000000E+00   0.000000000000000E+00   0.000000000000000E+00
   0.000000000000000E+00   0.000000000000000E+00   0.000000000000000E+00
   0.000000000000000E+00   0.000000000000000E+00   0.000000000000000E+00
   0.000000000000000E+00   0.000000000000000E+00   0.000000000000000E+00
   0.000000000000000E+00   0.000000000000000E+00   0.000000000000000E+00
   0.000000000000000E+00   0.000000000000000E+00   0.000000000000000E+00
   0.000000000000000E+00   0.000000000000000E+00   0.000000000000000E+00
   0.000000000000000E+00   0.000000000000000E+00   0.000000000000000E+00
   0.000000000000000E+00   0.000000000000000E+00   0.000000000000000E+00
   0.000000000000000E+00   0.000000000000000E+00   0.000000000000000E+00
   0.000000000000000E+00   0.000000000000000E+00   0.000000000000000E+00
   0.000000000000000E+00   0.000000000000000E+00   0.000000000000000E+00
   0.000000000000000E+00   0.000000000000000E+00   0.000000000000000E+00
   0.000000000000000E+00   0.000000000000000E+00   0.000000000000000E+00
   0.000000000000000E+00   0.000000000000000E+00   0.000000000000000E+00
   0.000000000000000E+00   0.000000000000000E+00   0.000000000000000E+00
   0.000000000000000E+00   0.000000000000000E+00   0.000000000000000E+00
   0.000000000000000E+00   0.000000000000000E+00   0.000000000000000E+00
   0.000000000000000E+00   0.000000000000000E+00   0.000000000000000E+00
   0.000000000000000E+00   0.000000000000000E+00   0.000000000000000E+00
   0.000000000000000E+00   0.000000000000000E+00   0.000000000000000E+00
   0.000000000000000E+00   0.000000000000000E+00   0.000000000000000E+00
   0.000000000000000E+00   0.000000000000000E+00   0.000000000000000E+00
   0.000000000000000E+00   0.000000000000000E+00   0.000000000000000E+00
   0.000000000000000E+00   0.000000000000000E+00   0.000000000000000E+00
   0.000000000000000E+00   0.000000000000000E+00   0.000000000000000E+00
   0.000000000000000E+00   0.000000000000000E+00   0.000000000000000E+00
   0.000000000000000E+00   0.000000000000000E+00   0.000000000000000E+00
   0.000000000000000E+00   0.000000000000000E+00   0.000000000000000E+00
   0.000000000000000E+00   0.000000000000000E+00   0.000000000000000E+00
   0.000000000000000E+00   0.000000000000000E+00   0.000000000000000E+00
   0.000000000000000E+00   0.000000000000000E+00   0.000000000000000E+00
   0.000000000000000E+00   0.000000000000000E+00   0.000000000000000E+00
   0.000000000000000E+00   0.000000000000000E+00   0.000000000000000E+00
   0.000000000000000E+00   0.000000000000000E+00   0.000000000000000E+00
   0.000000000000000E+00   0.000000000000000E+00   0.000000000000000E+00
   0.000000000000000E+00   0.000000000000000E+00   0.000000000000000E+00
   0.000000000000000E+00   0.000000000000000E+00   0.000000000000000E+00
   0.000000000000000E+00   0.000000000000000E+00   0.000000000000000E+00
   0.000000000000000E+00   0.000000000000000E+00   0.000000000000000E+00
   0.000000000000000E+00   0.000000000000000E+00   0.000000000000000E+00
   0.000000000000000E+00   0.000000000000000E+00   0.000000000000000E+00
   0.000000000000000E+00   0.000000000000000E+00   0.000000000000000E+00
   0.000000000000000E+00   0.000000000000000E+00   0.000000000000000E+00
   0.000000000000000E+00   0.000000000000000E+00   0.000000000000000E+00
   0.000000000000000E+00   0.000000000000000E+00   0.000000000000000E+00
   0.000000000000000E+00   0.000000000000000E+00   0.000000000000000E+00
   0.000000000000000E+00   0.000000000000000E+00   0.000000000000000E+00
   0.000000000000000E+00   0.000000000000000E+00   0.000000000000000E+00
   0.000000000000000E+00   0.000000000000000E+00   0.000000000000000E+00
   0.000000000000000E+00   0.000000000000000E+00   0.000000000000000E+00
   0.000000000000000E+00   0.000000000000000E+00   0.000000000000000E+00
   0.000000000000000E+00   0.000000000000000E+00   0.000000000000000E+00
   0.000000000000000E+00   0.000000000000000E+00   0.000000000000000E+00
   0.000000000000000E+00   0.000000000000000E+00   0.000000000000000E+00
   0.000000000000000E+00   0.000000000000000E+00   0.000000000000000E+00
   0.000000000000000E+00   0.000000000000000E+00   0.000000000000000E+00
   0.000000000000000E+00   0.000000000000000E+00   0.000000000000000E+00
   0.000000000000000E+00   0.000000000000000E+00   0.000000000000000E+00
   0.000000000000000E+00   0.000000000000000E+00   0.000000000000000E+00
   0.000000000000000E+00   0.000000000000000E+00   0.000000000000000E+00
   0.000000000000000E+00   0.000000000000000E+00   0.000000000000000E+00
   0.000000000000000E+00   0.000000000000000E+00   0.000000000000000E+00
   0.000000000000000E+00   0.000000000000000E+00   0.000000000000000E+00
   0.000000000000000E+00   0.000000000000000E+00   0.000000000000000E+00
      </PP_QIJL.3.3.2>
      <PP_QIJL.3.4.0 first_index="3" second_index="4" composite_index="9" angular_momentum="0" size="1095">
   1.815613235995027E-08   1.861575703618846E-08   1.908701716636259E-08
   1.957020730338427E-08   2.006562945680725E-08   2.057359328159310E-08
   2.109441627165565E-08   2.162842395830503E-08   2.217595011371521E-08
   2.273733695954264E-08   2.331293538082563E-08   2.390310514529905E-08
   2.450821512826078E-08   2.512864354313070E-08   2.576477817784661E-08
   2.641701663724378E-08   2.708576659157134E-08   2.777144603129910E-08
   2.847448352837524E-08   2.919531850409784E-08   2.993440150376717E-08
   3.069219447829123E-08   3.146917107292001E-08   3.226581692328917E-08
   3.308262995895814E-08   3.392012071463194E-08   3.477881264926215E-08
   3.565924247322567E-08   3.656196048378597E-08   3.748753090904697E-08
   3.843653226061354E-08   3.940955769518024E-08   4.040721538527326E-08
   4.143012889937806E-08   4.247893759169000E-08   4.355429700173103E-08
   4.465687926408334E-08   4.578737352849517E-08   4.694648639062169E-08
   4.813494233367032E-08   4.935348418122570E-08   5.060287356153893E-08
   5.188389138356948E-08   5.319733832507868E-08   5.454403533307949E-08
   5.592482413695427E-08   5.734056777456326E-08   5.879215113167106E-08
   6.028048149502857E-08   6.180648911945707E-08   6.337112780928675E-08
   6.497537551451561E-08   6.662023494205984E-08   6.830673418247750E-08
   7.003592735255910E-08   7.180889525418366E-08   7.362674604985520E-08
   7.549061595534000E-08   7.740166994983774E-08   7.936110250413169E-08
   8.137013832717053E-08   8.343003313155138E-08   8.554207441838051E-08
   8.770758228200268E-08   8.992791023510326E-08   9.220444605469619E-08
   9.453861264952978E-08   9.693186894945036E-08   9.938571081727990E-08
   1.019016719837792E-07   1.044813250062775E-07   1.071262822515726E-07
   1.098381969037104E-07   1.126187639972792E-07   1.154697214768604E-07
   1.183928512832983E-07   1.213899804674719E-07   1.244629823322588E-07
   1.276137776034100E-07   1.308443356300656E-07   1.341566756156591E-07
   1.375528678799858E-07   1.410350351532178E-07   1.446053539026783E-07
   1.482660556932038E-07   1.520194285819419E-07   1.558678185484608E-07
   1.598136309610610E-07   1.638593320802070E-07   1.680074506000192E-07
   1.722605792287869E-07   1.766213763094938E-07   1.810925674813672E-07
   1.856769473834882E-07   1.903773814015313E-07   1.951968074587187E-07
   2.001382378521177E-07   2.052047611354200E-07   2.103995440493861E-07
   2.157258335011596E-07   2.211869585936836E-07   2.267863327064977E-07
   2.325274556292066E-07   2.384139157489586E-07   2.444493922933025E-07
   2.506376576298174E-07   2.569825796239627E-07   2.634881240566153E-07
   2.701583571028060E-07   2.769974478732087E-07   2.840096710199616E-07
   2.911994094084605E-07   2.985711568567862E-07   3.061295209444799E-07
   3.138792258924268E-07   3.218251155156372E-07   3.299721562507841E-07
   3.383254402603796E-07   3.468901886155336E-07   3.556717545592873E-07
   3.646756268525525E-07   3.739074332047584E-07   3.833729437913433E-07
   3.930780748602912E-07   4.030288924299721E-07   4.132316160805840E-07
   4.236926228415858E-07   4.344184511775341E-07   4.454158050748232E-07
   4.566915582318838E-07   4.682527583554494E-07   4.801066315655906E-07
   4.922605869122582E-07   5.047222210061639E-07   5.174993227668943E-07
   5.305998782912165E-07   5.440320758446309E-07   5.578043109792844E-07
   5.719251917814404E-07   5.864035442517938E-07   6.012484178219808E-07
   6.164690910107448E-07   6.320750772232879E-07   6.480761306974291E-07
   6.644822526002954E-07   6.813036972793401E-07   6.985509786716174E-07
   7.162348768752992E-07   7.343664448875507E-07   7.529570155129814E-07
   7.720182084469717E-07   7.915619375383223E-07   8.116004182357555E-07
   8.321461752229190E-07   8.532120502466813E-07   8.748112101435806E-07
   8.969571550694804E-07   9.196637269375496E-07   9.429451180698485E-07
   9.668158800679369E-07   9.912909329080251E-07   1.016385574266384E-06
   1.042115489080816E-06   1.068496759354177E-06   1.095545874206081E-06
   1.123279740179033E-06   1.151715691805512E-06   1.180871502442499E-06
   1.210765395380318E-06   1.241416055232695E-06   1.272842639615118E-06
   1.305064791118889E-06   1.338102649588245E-06   1.371976864708292E-06
   1.406708608911622E-06   1.442319590611602E-06   1.478832067770734E-06
   1.516268861812421E-06   1.554653371884964E-06   1.594009589486619E-06
   1.634362113460874E-06   1.675736165371372E-06   1.718157605265989E-06
   1.761652947840012E-06   1.806249379008487E-06   1.851974772898037E-06
   1.898857709268911E-06   1.946927491377980E-06   1.996214164293975E-06
   2.046748533676376E-06   2.098562185029618E-06   2.151687503444817E-06
   2.206157693841132E-06   2.262006801719613E-06   2.319269734442404E-06
   2.377982283050565E-06   2.438181144634306E-06   2.499903945269411E-06
   2.563189263534335E-06   2.628076654622654E-06   2.694606675065801E-06
   2.762820908081803E-06   2.832761989565551E-06   2.904473634737098E-06
   2.978000665464528E-06   3.053389038278419E-06   3.130685873095592E-06
   3.209939482669871E-06   3.291199402788426E-06   3.374516423232536E-06
   3.459942619522000E-06   3.547531385463293E-06   3.637337466521503E-06
   3.729416994037129E-06   3.823827520309073E-06   3.920628054565614E-06
   4.019879099846133E-06   4.121642690816288E-06   4.225982432540562E-06
   4.332963540236284E-06   4.442652880033903E-06   4.555119010769227E-06
   4.670432226833414E-06   4.788664602107780E-06   4.909890035010782E-06
   5.034184294685163E-06   5.161625068354513E-06   5.292292009878386E-06
   5.426266789536640E-06   5.563633145074039E-06   5.704476934036827E-06
   5.848886187434379E-06   5.996951164758975E-06   6.148764410398480E-06
   6.304420811477042E-06   6.464017657159755E-06   6.627654699458835E-06
   6.795434215578719E-06   6.967461071839511E-06   7.143842789218533E-06
   7.324689610550774E-06   7.510114569430749E-06   7.700233560858119E-06
   7.895165413671794E-06   8.095031964817569E-06   8.299958135495588E-06
   8.510072009235470E-06   8.725504911947622E-06   8.946391494000985E-06
   9.172869814378394E-06   9.405081426962072E-06   9.643171469003363E-06
   9.887288751831777E-06   1.013758585386018E-05   1.039421921594417E-05
   1.065734923915527E-05   1.092714038502893E-05   1.120376127835011E-05
   1.148738481254062E-05   1.177818825771399E-05   1.207635337146548E-05
   1.238206651246644E-05   1.269551875693396E-05   1.301690601804853E-05
   1.334642916839457E-05   1.368429416549988E-05   1.403071218055300E-05
   1.438589973037837E-05   1.475007881275215E-05   1.512347704514304E-05
   1.550632780696471E-05   1.589887038542903E-05   1.630135012509082E-05
   1.671401858117782E-05   1.713713367680165E-05   1.757095986414775E-05
   1.801576828974539E-05   1.847183696392050E-05   1.893945093453765E-05
   1.941890246513949E-05   1.991049121759479E-05   2.041452443936958E-05
   2.093131715553786E-05   2.146119236565231E-05   2.200448124559767E-05
   2.256152335455287E-05   2.313266684719149E-05   2.371826869125259E-05
   2.431869489061834E-05   2.493432071403745E-05   2.556553092963718E-05
   2.621272004537093E-05   2.687629255555082E-05   2.755666319361979E-05
   2.825425719132111E-05   2.896951054442654E-05   2.970287028518998E-05
   3.045479476169591E-05   3.122575392427770E-05   3.201622961918437E-05
   3.282671588967901E-05   3.365771928475745E-05   3.450975917567914E-05
   3.538336808050866E-05   3.627909199687017E-05   3.719749074312219E-05
   3.813913830816667E-05   3.910462321010957E-05   4.009454886399796E-05
   4.110953395886255E-05   4.215021284430108E-05   4.321723592684446E-05
   4.431127007635207E-05   4.543299904269103E-05   4.658312388295893E-05
   4.776236339951633E-05   4.897145458910363E-05   5.021115310332104E-05
   5.148223372076046E-05   5.278549083108333E-05   5.412173893134595E-05
   5.549181313488346E-05   5.689656969306851E-05   5.833688653027107E-05
   5.981366379235317E-05   6.132782440904059E-05   6.288031467052177E-05
   6.447210481863518E-05   6.610418965301244E-05   6.777758915255615E-05
   6.949334911264036E-05   7.125254179842942E-05   7.305626661472536E-05
   7.490565079275949E-05   7.680185009435710E-05   7.874604953391546E-05
   8.073946411864277E-05   8.278333960752291E-05   8.487895328947661E-05
   8.702761478120551E-05   8.923066684521654E-05   9.148948622853490E-05
   9.380548452263130E-05   9.618010904509694E-05   9.861484374361690E-05
   1.011112101228058E-04   1.036707681944809E-04   1.062951174519683E-04
   1.089858978690467E-04   1.117447909241511E-04   1.145735206504776E-04
   1.174738547126372E-04   1.204476055105369E-04   1.234966313111693E-04
   1.266228374090186E-04   1.298281773158056E-04   1.331146539803099E-04
   1.364843210390323E-04   1.399392840984734E-04   1.434817020498265E-04
   1.471137884169062E-04   1.508378127381445E-04   1.546561019835240E-04
   1.585710420073201E-04   1.625850790375629E-04   1.667007212031422E-04
   1.709205400995032E-04   1.752471723939127E-04   1.796833214712864E-04
   1.842317591216063E-04   1.888953272699742E-04   1.936769397503750E-04
   1.985795841242565E-04   2.036063235450509E-04   2.087602986697981E-04
   2.140447296190599E-04   2.194629179863358E-04   2.250182488982364E-04
   2.307141931266861E-04   2.365543092544700E-04   2.425422458954674E-04
   2.486817439709466E-04   2.549766390433386E-04   2.614308637089311E-04
   2.680484500509695E-04   2.748335321546835E-04   2.817903486858014E-04
   2.889232455341404E-04   2.962366785239236E-04   3.037352161924900E-04
   3.114235426391241E-04   3.193064604457687E-04   3.273888936714199E-04
   3.356758909220681E-04   3.441726284980742E-04   3.528844136209307E-04
   3.618166877414024E-04   3.709750299310844E-04   3.803651603594798E-04
   3.899929438587400E-04   3.998643935782648E-04   4.099856747314245E-04
   4.203631084367026E-04   4.310031756556406E-04   4.419125212300005E-04
   4.530979580206374E-04   4.645664711506310E-04   4.763252223552784E-04
   4.883815544416383E-04   5.007429958603568E-04   5.134172653925872E-04
   5.264122769548912E-04   5.397361445250522E-04   5.533971871918460E-04
   5.674039343318480E-04   5.817651309164600E-04   5.964897429524049E-04
   6.115869630590126E-04   6.270662161857234E-04   6.429371654732924E-04
   6.592097182622814E-04   6.758940322525117E-04   6.930005218172185E-04
   7.105398644757799E-04   7.285230075289480E-04   7.469611748606251E-04
   7.658658739103290E-04   7.852489028205674E-04   8.051223577634844E-04
   8.254986404512058E-04   8.463904658344446E-04   8.678108699940268E-04
   8.897732182301009E-04   9.122912133539393E-04   9.353789041873191E-04
   9.590506942746105E-04   9.833213508128351E-04   1.008206013805031E-03
   1.033720205442465E-03   1.059879839721292E-03   1.086701232299437E-03
   1.114201110599596E-03   1.142396624164376E-03   1.171305355269790E-03
   1.200945329803384E-03   1.231335028413496E-03   1.262493397936266E-03
   1.294439863107138E-03   1.327194338563822E-03   1.360777241147788E-03
   1.395209502511526E-03   1.430512582039022E-03   1.466708480086991E-03
   1.503819751554649E-03   1.541869519789956E-03   1.580881490840411E-03
   1.620879968056706E-03   1.661889867057694E-03   1.703936731065333E-03
   1.747046746618458E-03   1.791246759674393E-03   1.836564292107670E-03
   1.883027558615227E-03   1.930665484037792E-03   1.979507721107205E-03
   2.029584668629771E-03   2.080927490115868E-03   2.133568132866247E-03
   2.187539347525728E-03   2.242874708115150E-03   2.299608632552662E-03
   2.357776403675716E-03   2.417414190775211E-03   2.478559071653641E-03
   2.541249055219148E-03   2.605523104627703E-03   2.671421160985852E-03
   2.738984167626603E-03   2.808254094971396E-03   2.879273965991185E-03
   2.952087882279928E-03   3.026741050754063E-03   3.103279810991583E-03
   3.181751663224804E-03   3.262205297000849E-03   3.344690620524260E-03
   3.429258790696323E-03   3.515962243865731E-03   3.604854727305670E-03
   3.695991331432327E-03   3.789428522780112E-03   3.885224177749108E-03
   3.983437617140179E-03   4.084129641493598E-03   4.187362567246979E-03
   4.293200263728406E-03   4.401708191000888E-03   4.512953438574093E-03
   4.627004764999669E-03   4.743932638366190E-03   4.863809277709940E-03
   4.986708695357716E-03   5.112706740217578E-03   5.241881142033710E-03
   5.374311556621120E-03   5.510079612095886E-03   5.649268956116469E-03
   5.791965304151157E-03   5.938256488786736E-03   6.088232510092744E-03
   6.241985587055520E-03   6.399610210095606E-03   6.561203194681528E-03
   6.726863736052468E-03   6.896693465061416E-03   7.070796505149722E-03
   7.249279530463101E-03   7.432251825117875E-03   7.619825343625515E-03
   7.812114772481987E-03   8.009237592927126E-03   8.211314144877921E-03
   8.418467692037506E-03   8.630824488180448E-03   8.848513844612401E-03
   9.071668198800224E-03   9.300423184166436E-03   9.534917701038807E-03
   9.775293988743782E-03   1.002169769882867E-02   1.027427796939460E-02
   1.053318750051857E-02   1.079858263073877E-02   1.107062341457347E-02
   1.134947370103890E-02   1.163530121312664E-02   1.192827762819570E-02
   1.222857865922862E-02   1.253638413689476E-02   1.285187809235713E-02
   1.317524884075178E-02   1.350668906526120E-02   1.384639590169428E-02
   1.419457102347703E-02   1.455142072694778E-02   1.491715601684072E-02
   1.529199269183016E-02   1.567615142999559E-02   1.606985787405542E-02
   1.647334271620277E-02   1.688684178236203E-02   1.731059611566936E-02
   1.774485205896261E-02   1.818986133604881E-02   1.864588113149728E-02
   1.911317416868581E-02   1.959200878580548E-02   2.008265900950516E-02
   2.058540462583269E-02   2.110053124810153E-02   2.162833038128356E-02
   2.216909948249815E-02   2.272314201713424E-02   2.329076751010857E-02
   2.387229159172506E-02   2.446803603756173E-02   2.507832880176994E-02
   2.570350404312508E-02   2.634390214312283E-02   2.699986971536318E-02
   2.767175960541237E-02   2.835993088027715E-02   2.906474880656474E-02
   2.978658481634140E-02   3.052581645963371E-02   3.128282734244802E-02
   3.205800704910872E-02   3.285175104763742E-02   3.366446057681414E-02
   3.449654251347305E-02   3.534840921849523E-02   3.622047835986485E-02
   3.711317271105346E-02   3.802691992289337E-02   3.896215226698845E-02
   3.991930634859636E-02   4.089882278679509E-02   4.190114585961914E-02
   4.292672311172202E-02   4.397600492198223E-02   4.504944402832974E-02
   4.614749500692215E-02   4.727061370264712E-02   4.841925660777222E-02
   4.959388018539921E-02   5.079494013421543E-02   5.202289059086423E-02
   5.327818326608119E-02   5.456126651056845E-02   5.587258430639771E-02
   5.721257517955221E-02   5.858167102903639E-02   5.998029586779837E-02
   6.140886447053214E-02   6.286778092324603E-02   6.435743706931112E-02
   6.587821084653551E-02   6.743046450964775E-02   6.901454273242529E-02
   7.063077058356290E-02   7.227945137025346E-02   7.396086434334902E-02
   7.567526225788364E-02   7.742286878268427E-02   7.920387575276218E-02
   8.101844025818360E-02   8.286668156315943E-02   8.474867784917939E-02
   8.666446277615371E-02   8.861402185571454E-02   9.059728863108651E-02
   9.261414065825982E-02   9.466439528360342E-02   9.674780521354881E-02
   9.886405387256050E-02   1.010127505463062E-01   1.031934253077513E-01
   1.054055237248410E-01   1.076484013495200E-01   1.099213179890678E-01
   1.122234317621357E-01   1.145537929434489E-01   1.169113376029156E-01
   1.192948810468725E-01   1.217031110714082E-01   1.241345810401565E-01
   1.265877028016649E-01   1.290607394644223E-01   1.315517980509043E-01
   1.340588220555648E-01   1.365795839355997E-01   1.391116775675306E-01
   1.416525107072254E-01   1.441992974959083E-01   1.467490510599864E-01
   1.492985762581964E-01   1.518444626356090E-01   1.543830776504251E-01
   1.569105602462989E-01   1.594228148500346E-01   1.619155058819952E-01
   1.643840528743547E-01   1.668236263003892E-01   1.692291442263444E-01
   1.715952699059106E-01   1.739164104459832E-01   1.761867166810820E-01
   1.784000844024276E-01   1.805501570961932E-01   1.826303303536392E-01
   1.846337581236462E-01   1.865533609853511E-01   1.883818366249970E-01
   1.901116727065350E-01   1.917351623296670E-01   1.932444222716877E-01
   1.946314142103263E-01   1.958879691234861E-01   1.970058150579934E-01
   1.979766084527662E-01   1.987919691918163E-01   1.994435195487258E-01
   1.999229271662147E-01   2.002219521916515E-01   2.003324986612908E-01
   2.002466701921436E-01   1.999568300001044E-01   1.994556652157295E-01
   1.987362554143322E-01   1.977921452142768E-01   1.966174207260244E-01
   1.952067895541374E-01   1.935556639647197E-01   1.916602467313028E-01
   1.895176190628729E-01   1.871258298984517E-01   1.844839857235598E-01
   1.815923399253756E-01   1.784523805559548E-01   1.750669152174938E-01
   1.714401516214091E-01   1.675777722056268E-01   1.634870010239563E-01
   1.591766609502144E-01   1.546572190710024E-01   1.499408179782495E-01
   1.450412905201309E-01   1.399741554316709E-01   1.347565911497932E-01
   1.294073850282582E-01   1.239468551127814E-01   1.183967416235502E-01
   1.127800653298665E-01   1.071209500988146E-01   1.014444070665366E-01
   9.577607812693330E-02   9.014193676889699E-02   8.456794473005262E-02
   7.907966348262965E-02   7.370182023544214E-02   6.845782893373327E-02
   6.336926767343440E-02   5.845531502379778E-02   5.373214897539469E-02
   4.921231359921820E-02   4.490406001297691E-02   4.081066989405595E-02
   3.692977154085098E-02   3.325266034459268E-02   2.976841854734719E-02
   2.647984984705365E-02   2.339265544187358E-02   2.051111073659750E-02
   1.783800596868701E-02   1.537460097361620E-02   1.312059565219292E-02
   1.107411760434701E-02   9.231728262134975E-03   7.588448688627625E-03
   6.137806008634950E-03   4.871901202559037E-03   3.781498727401855E-03
   2.856138131339225E-03   2.084267503499659E-03   1.453398252475369E-03
   9.502803403628191E-04   5.610967188872107E-04   2.716753258822369E-04
   6.771660966525817E-05  -6.496583935866607E-05  -1.401943516312065E-04
  -1.711691087008527E-04  -1.702064731529118E-04  -1.484775994170517E-04
  -1.157515487031358E-04  -8.014747309093018E-05  -4.790078556371480E-05
  -2.314860808538821E-05  -7.740205092032770E-06  -1.078584252495185E-06
  -5.551115123125783E-17   0.000000000000000E+00   0.000000000000000E+00
   0.000000000000000E+00   0.000000000000000E+00   0.000000000000000E+00
   0.000000000000000E+00   0.000000000000000E+00   0.000000000000000E+00
   0.000000000000000E+00   0.000000000000000E+00   0.000000000000000E+00
   0.000000000000000E+00   0.000000000000000E+00   0.000000000000000E+00
   0.000000000000000E+00   0.000000000000000E+00   0.000000000000000E+00
   0.000000000000000E+00   0.000000000000000E+00   0.000000000000000E+00
   0.000000000000000E+00   0.000000000000000E+00   0.000000000000000E+00
   0.000000000000000E+00   0.000000000000000E+00   0.000000000000000E+00
   0.000000000000000E+00   0.000000000000000E+00   0.000000000000000E+00
   0.000000000000000E+00   0.000000000000000E+00   0.000000000000000E+00
   0.000000000000000E+00   0.000000000000000E+00   0.000000000000000E+00
   0.000000000000000E+00   0.000000000000000E+00   0.000000000000000E+00
   0.000000000000000E+00   0.000000000000000E+00   0.000000000000000E+00
   0.000000000000000E+00   0.000000000000000E+00   0.000000000000000E+00
   0.000000000000000E+00   0.000000000000000E+00   0.000000000000000E+00
   0.000000000000000E+00   0.000000000000000E+00   0.000000000000000E+00
   0.000000000000000E+00   0.000000000000000E+00   0.000000000000000E+00
   0.000000000000000E+00   0.000000000000000E+00   0.000000000000000E+00
   0.000000000000000E+00   0.000000000000000E+00   0.000000000000000E+00
   0.000000000000000E+00   0.000000000000000E+00   0.000000000000000E+00
   0.000000000000000E+00   0.000000000000000E+00   0.000000000000000E+00
   0.000000000000000E+00   0.000000000000000E+00   0.000000000000000E+00
   0.000000000000000E+00   0.000000000000000E+00   0.000000000000000E+00
   0.000000000000000E+00   0.000000000000000E+00   0.000000000000000E+00
   0.000000000000000E+00   0.000000000000000E+00   0.000000000000000E+00
   0.000000000000000E+00   0.000000000000000E+00   0.000000000000000E+00
   0.000000000000000E+00   0.000000000000000E+00   0.000000000000000E+00
   0.000000000000000E+00   0.000000000000000E+00   0.000000000000000E+00
   0.000000000000000E+00   0.000000000000000E+00   0.000000000000000E+00
   0.000000000000000E+00   0.000000000000000E+00   0.000000000000000E+00
   0.000000000000000E+00   0.000000000000000E+00   0.000000000000000E+00
   0.000000000000000E+00   0.000000000000000E+00   0.000000000000000E+00
   0.000000000000000E+00   0.000000000000000E+00   0.000000000000000E+00
   0.000000000000000E+00   0.000000000000000E+00   0.000000000000000E+00
   0.000000000000000E+00   0.000000000000000E+00   0.000000000000000E+00
   0.000000000000000E+00   0.000000000000000E+00   0.000000000000000E+00
   0.000000000000000E+00   0.000000000000000E+00   0.000000000000000E+00
   0.000000000000000E+00   0.000000000000000E+00   0.000000000000000E+00
   0.000000000000000E+00   0.000000000000000E+00   0.000000000000000E+00
   0.000000000000000E+00   0.000000000000000E+00   0.000000000000000E+00
   0.000000000000000E+00   0.000000000000000E+00   0.000000000000000E+00
   0.000000000000000E+00   0.000000000000000E+00   0.000000000000000E+00
   0.000000000000000E+00   0.000000000000000E+00   0.000000000000000E+00
   0.000000000000000E+00   0.000000000000000E+00   0.000000000000000E+00
   0.000000000000000E+00   0.000000000000000E+00   0.000000000000000E+00
   0.000000000000000E+00   0.000000000000000E+00   0.000000000000000E+00
   0.000000000000000E+00   0.000000000000000E+00   0.000000000000000E+00
   0.000000000000000E+00   0.000000000000000E+00   0.000000000000000E+00
   0.000000000000000E+00   0.000000000000000E+00   0.000000000000000E+00
   0.000000000000000E+00   0.000000000000000E+00   0.000000000000000E+00
   0.000000000000000E+00   0.000000000000000E+00   0.000000000000000E+00
   0.000000000000000E+00   0.000000000000000E+00   0.000000000000000E+00
   0.000000000000000E+00   0.000000000000000E+00   0.000000000000000E+00
   0.000000000000000E+00   0.000000000000000E+00   0.000000000000000E+00
   0.000000000000000E+00   0.000000000000000E+00   0.000000000000000E+00
   0.000000000000000E+00   0.000000000000000E+00   0.000000000000000E+00
   0.000000000000000E+00   0.000000000000000E+00   0.000000000000000E+00
   0.000000000000000E+00   0.000000000000000E+00   0.000000000000000E+00
   0.000000000000000E+00   0.000000000000000E+00   0.000000000000000E+00
   0.000000000000000E+00   0.000000000000000E+00   0.000000000000000E+00
   0.000000000000000E+00   0.000000000000000E+00   0.000000000000000E+00
   0.000000000000000E+00   0.000000000000000E+00   0.000000000000000E+00
   0.000000000000000E+00   0.000000000000000E+00   0.000000000000000E+00
   0.000000000000000E+00   0.000000000000000E+00   0.000000000000000E+00
   0.000000000000000E+00   0.000000000000000E+00   0.000000000000000E+00
   0.000000000000000E+00   0.000000000000000E+00   0.000000000000000E+00
   0.000000000000000E+00   0.000000000000000E+00   0.000000000000000E+00
   0.000000000000000E+00   0.000000000000000E+00   0.000000000000000E+00
   0.000000000000000E+00   0.000000000000000E+00   0.000000000000000E+00
   0.000000000000000E+00   0.000000000000000E+00   0.000000000000000E+00
   0.000000000000000E+00   0.000000000000000E+00   0.000000000000000E+00
   0.000000000000000E+00   0.000000000000000E+00   0.000000000000000E+00
   0.000000000000000E+00   0.000000000000000E+00   0.000000000000000E+00
   0.000000000000000E+00   0.000000000000000E+00   0.000000000000000E+00
   0.000000000000000E+00   0.000000000000000E+00   0.000000000000000E+00
   0.000000000000000E+00   0.000000000000000E+00   0.000000000000000E+00
   0.000000000000000E+00   0.000000000000000E+00   0.000000000000000E+00
   0.000000000000000E+00   0.000000000000000E+00   0.000000000000000E+00
   0.000000000000000E+00   0.000000000000000E+00   0.000000000000000E+00
   0.000000000000000E+00   0.000000000000000E+00   0.000000000000000E+00
   0.000000000000000E+00   0.000000000000000E+00   0.000000000000000E+00
   0.000000000000000E+00   0.000000000000000E+00   0.000000000000000E+00
   0.000000000000000E+00   0.000000000000000E+00   0.000000000000000E+00
   0.000000000000000E+00   0.000000000000000E+00   0.000000000000000E+00
   0.000000000000000E+00   0.000000000000000E+00   0.000000000000000E+00
   0.000000000000000E+00   0.000000000000000E+00   0.000000000000000E+00
   0.000000000000000E+00   0.000000000000000E+00   0.000000000000000E+00
   0.000000000000000E+00   0.000000000000000E+00   0.000000000000000E+00
   0.000000000000000E+00   0.000000000000000E+00   0.000000000000000E+00
   0.000000000000000E+00   0.000000000000000E+00   0.000000000000000E+00
   0.000000000000000E+00   0.000000000000000E+00   0.000000000000000E+00
   0.000000000000000E+00   0.000000000000000E+00   0.000000000000000E+00
   0.000000000000000E+00   0.000000000000000E+00   0.000000000000000E+00
   0.000000000000000E+00   0.000000000000000E+00   0.000000000000000E+00
   0.000000000000000E+00   0.000000000000000E+00   0.000000000000000E+00
   0.000000000000000E+00   0.000000000000000E+00   0.000000000000000E+00
   0.000000000000000E+00   0.000000000000000E+00   0.000000000000000E+00
   0.000000000000000E+00   0.000000000000000E+00   0.000000000000000E+00
   0.000000000000000E+00   0.000000000000000E+00   0.000000000000000E+00
   0.000000000000000E+00   0.000000000000000E+00   0.000000000000000E+00
   0.000000000000000E+00   0.000000000000000E+00   0.000000000000000E+00
   0.000000000000000E+00   0.000000000000000E+00   0.000000000000000E+00
   0.000000000000000E+00   0.000000000000000E+00   0.000000000000000E+00
   0.000000000000000E+00   0.000000000000000E+00   0.000000000000000E+00
   0.000000000000000E+00   0.000000000000000E+00   0.000000000000000E+00
   0.000000000000000E+00   0.000000000000000E+00   0.000000000000000E+00
   0.000000000000000E+00   0.000000000000000E+00   0.000000000000000E+00
   0.000000000000000E+00   0.000000000000000E+00   0.000000000000000E+00
   0.000000000000000E+00   0.000000000000000E+00   0.000000000000000E+00
   0.000000000000000E+00   0.000000000000000E+00   0.000000000000000E+00
   0.000000000000000E+00   0.000000000000000E+00   0.000000000000000E+00
   0.000000000000000E+00   0.000000000000000E+00   0.000000000000000E+00
   0.000000000000000E+00   0.000000000000000E+00   0.000000000000000E+00
   0.000000000000000E+00   0.000000000000000E+00   0.000000000000000E+00
      </PP_QIJL.3.4.0>
      <PP_QIJL.3.4.2 first_index="3" second_index="4" composite_index="9" angular_momentum="2" size="1095">
   2.755018603301485E-15   2.896271421645174E-15   3.044766426385494E-15
   3.200874932322853E-15   3.364987291971778E-15   3.537513871645111E-15
   3.718886077583196E-15   3.909557434693765E-15   4.110004720599963E-15
   4.320729157832342E-15   4.542257667145644E-15   4.775144185094643E-15
   5.019971049163449E-15   5.277350453911868E-15   5.547925981780063E-15
   5.832374212378998E-15   6.131406414291147E-15   6.445770323611526E-15
   6.776252013676438E-15   7.123677860655338E-15   7.488916609920457E-15
   7.872881548361625E-15   8.276532788077913E-15   8.700879667156593E-15
   9.146983273542690E-15   9.615959098309759E-15   1.010897982496704E-14
   1.062727826177710E-14   1.117215042441662E-14   1.174495877668860E-14
   1.234713563738905E-14   1.298018676184761E-14   1.364569510709744E-14
   1.434532479008941E-14   1.508082524884825E-14   1.585403561697524E-14
   1.666688932243661E-14   1.752141892213664E-14   1.841976118436426E-14
   1.936416243182243E-14   2.035698415859965E-14   2.140070893513015E-14
   2.249794661590727E-14   2.365144086547285E-14   2.486407601900135E-14
   2.613888429463248E-14   2.747905337558851E-14   2.888793438103437E-14
   3.036905024561185E-14   3.192610452860200E-14   3.356299067474134E-14
   3.528380174985081E-14   3.709284067562011E-14   3.899463098913986E-14
   4.099392815408707E-14   4.309573145184526E-14   4.530529648229601E-14
   4.762814830553846E-14   5.007009525739810E-14   5.263724347327189E-14
   5.533601215662430E-14   5.817314963031607E-14   6.115575021090084E-14
   6.429127194808356E-14   6.758755527370061E-14   7.105284260684971E-14
   7.469579896419709E-14   7.852553362699489E-14   8.255162291898837E-14
   8.678413415217103E-14   9.123365080026001E-14   9.591129896284341E-14
   1.008287751863699E-13   1.059983757115481E-13   1.114330272202917E-13
   1.171463191590866E-13   1.231525377196136E-13   1.294667015615893E-13
   1.361045993671528E-13   1.430828293207038E-13   1.504188406129078E-13
   1.581309770726568E-13   1.662385230360795E-13   1.747617515673028E-13
   1.837219751515391E-13   1.931415989872531E-13   2.030441770106749E-13
   2.134544707927407E-13   2.243985114557364E-13   2.359036647644701E-13
   2.479986995547242E-13   2.607138596701053E-13   2.740809395871627E-13
   2.881333639178758E-13   3.029062709883149E-13   3.184366007024469E-13
   3.347631869108114E-13   3.519268545150173E-13   3.699705215508785E-13
   3.889393065054504E-13   4.088806411362953E-13   4.298443890751093E-13
   4.518829705122547E-13   4.750514932739825E-13   4.994078906201085E-13
   5.250130661066809E-13   5.519310458759028E-13   5.802291387540834E-13
   6.099781045579513E-13   6.412523310301870E-13   6.741300198465732E-13
   7.086933821599089E-13   7.450288441696186E-13   7.832272632310846E-13
   8.233841550451014E-13   8.655999324954929E-13   9.099801567321562E-13
   9.566358011273279E-13   1.005683528765099E-12   1.057245984158052E-12
   1.111452099920415E-12   1.168437419164618E-12   1.228344434427351E-12
   1.291322943972633E-12   1.357530426362819E-12   1.427132434234104E-12
   1.500303008261240E-12   1.577225112346500E-12   1.658091091121096E-12
   1.743103150903050E-12   1.832473865314060E-12   1.926426706819750E-12
   2.025196605522326E-12   2.129030536602906E-12   2.238188137882450E-12
   2.352942359045365E-12   2.473580144149293E-12   2.600403149127581E-12
   2.733728496078535E-12   2.873889566227592E-12   3.021236833545045E-12
   3.176138741103926E-12   3.338982622369208E-12   3.510175669722019E-12
   3.690145952640671E-12   3.879343488084258E-12   4.078241365755487E-12
   4.287336931056243E-12   4.507153028693834E-12   4.738239310047626E-12
   4.981173607564765E-12   5.236563379621954E-12   5.505047229465800E-12
   5.787296502029859E-12   6.084016962621201E-12   6.395950561673625E-12
   6.723877289980654E-12   7.068617129046766E-12   7.431032101433785E-12
   7.812028426229217E-12   8.212558785025805E-12   8.633624704078683E-12
   9.076279058596106E-12   9.541628705425691E-12   1.003083725071921E-11
   1.054512795949538E-11   1.108578681437728E-11   1.165416573115064E-11
   1.225168593918462E-11   1.287984153516708E-11   1.354020321903925E-11
   1.423442222147293E-11   1.496423443270828E-11   1.573146474307760E-11
   1.653803160606745E-11   1.738595183532766E-11   1.827734564762383E-11
   1.921444196433959E-11   2.019958398478686E-11   2.123523504525828E-11
   2.232398477847090E-11   2.346855558880429E-11   2.467180945952017E-11
   2.593675510898691E-11   2.726655551380055E-11   2.866453581761170E-11
   3.013419164543646E-11   3.167919784423531E-11   3.330341767161786E-11
   3.501091245564718E-11   3.680595174989405E-11   3.869302400913698E-11
   4.067684781239407E-11   4.276238366135318E-11   4.495484638369751E-11
   4.725971817233652E-11   4.968276229315000E-11   5.223003749551065E-11
   5.490791316162142E-11   5.772308523254349E-11   6.068259295072968E-11
   6.379383646093321E-11   6.706459531348704E-11   7.050304791622531E-11
   7.411779198367811E-11   7.791786603466279E-11   8.191277199203094E-11
   8.611249894106223E-11   9.052754810591567E-11   9.516895910658165E-11
   1.000483375619751E-10   1.051778841081972E-10   1.105704249044983E-10
   1.162394437032255E-10   1.221991155639295E-10   1.284643422959153E-10
   1.350507897178616E-10   1.419749268276445E-10   1.492540669803090E-10
   1.569064111771321E-10   1.649510935739955E-10   1.734082293228633E-10
   1.822989648659450E-10   1.916455308083027E-10   2.014712975010794E-10
   2.118008334742971E-10   2.226599668653346E-10   2.340758499966223E-10
   2.460770272640245E-10   2.586935065056199E-10   2.719568340292868E-10
   2.859001734866888E-10   3.005583887908018E-10   3.159681312843015E-10
   3.321679313767142E-10   3.491982948793917E-10   3.671018042791863E-10
   3.859232252039329E-10   4.057096183459341E-10   4.265104571232206E-10
   4.483777513726921E-10   4.713661773844068E-10   4.955332146019973E-10
   5.209392893309920E-10   5.476479258142484E-10   5.757259050521315E-10
   6.052434317644704E-10   6.362743099116061E-10   6.688961272132970E-10
   7.031904491267065E-10   7.392430227683178E-10   7.771439912895321E-10
   8.169881192417527E-10   8.588750294942954E-10   9.029094522972866E-10
   9.492014871120679E-10   9.978668778635663E-10   1.049027302302566E-09
   1.102810676201149E-09   1.159351473141585E-09   1.218791060697911E-09
   1.281278053850470E-09   1.346968686516636E-09   1.416027202126317E-09
   1.488626264218350E-09   1.564947388083918E-09   1.645181394535796E-09
   1.729528886937354E-09   1.818200752683543E-09   1.911418690387028E-09
   2.009415764086899E-09   2.112436985864977E-09   2.220739928325536E-09
   2.334595368469031E-09   2.454287964568754E-09   2.580116967741751E-09
   2.712396969992137E-09   2.851458690595840E-09   2.997649802791776E-09
   3.151335802845045E-09   3.312900923653451E-09   3.482749095180180E-09
   3.661304954112097E-09   3.849014905266317E-09   4.046348237102747E-09
   4.253798296333901E-09   4.471883717461312E-09   4.701149722553764E-09
   4.942169484111862E-09   5.195545553942208E-09   5.461911373538894E-09
   5.741932852766471E-09   6.036310040211438E-09   6.345778864570380E-09
   6.671112984727303E-09   7.013125713522305E-09   7.372672051689058E-09
   7.750650833772758E-09   8.148006961708850E-09   8.565733774023313E-09
   9.004875528340905E-09   9.466530005352334E-09   9.951851259695207E-09
   1.046205250008665E-08   1.099840911542280E-08   1.156226187548320E-08
   1.215502026778537E-08   1.277816602311991E-08   1.343325682608441E-08
   1.412193019301802E-08   1.484590759149631E-08   1.560699868930452E-08
   1.640710592545213E-08   1.724822926722107E-08   1.813247114459403E-08
   1.906204176138867E-08   2.003926462585852E-08   2.106658229772888E-08
   2.214656252134061E-08   2.328190466507691E-08   2.447544641998545E-08
   2.573017091914799E-08   2.704921418221223E-08   2.843587292849767E-08
   2.989361286105800E-08   3.142607725662851E-08   3.303709612726613E-08
   3.473069574671297E-08   3.651110871497649E-08   3.838278454908006E-08
   4.035040076040658E-08   4.241887457338906E-08   4.459337521795596E-08
   4.687933670763943E-08   4.928247160454886E-08   5.180878512651210E-08
   5.446459028055630E-08   5.725652343902728E-08   6.019156111694898E-08
   6.327703723872109E-08   6.652066150417011E-08   6.993053864535752E-08
   7.351518861976674E-08   7.728356792450244E-08   8.124509192263304E-08
   8.540965834508029E-08   8.978767198894115E-08   9.439007073517727E-08
   9.922835285663399E-08   1.043146054942776E-07   1.096615351254969E-07
   1.152824991049264E-07   1.211915390677531E-07   1.274034157777285E-07
   1.339336462163999E-07   1.407985421553577E-07   1.480152508660012E-07
   1.556017978324554E-07   1.635771318447588E-07   1.719611721606927E-07
   1.807748580898591E-07   1.900402015580452E-07   1.997803415693154E-07
   2.100196021918867E-07   2.207835531575571E-07   2.320990733944192E-07
   2.439944183807284E-07   2.564992902889100E-07   2.696449122235903E-07
   2.834641058711877E-07   2.979913733583748E-07   3.132629832929410E-07
   3.293170610607256E-07   3.461936838182349E-07   3.639349803341389E-07
   3.825852359993198E-07   4.021910029471344E-07   4.228012162391139E-07
   4.444673155219230E-07   4.672433732938225E-07   4.911862293250753E-07
   5.163556322021569E-07   5.428143883182595E-07   5.706285176655846E-07
   5.998674186983005E-07   6.306040407339338E-07   6.629150652796614E-07
   6.968810971696891E-07   7.325868647546254E-07   7.701214307957478E-07
   8.095784137873169E-07   8.510562207130478E-07   8.946582919865776E-07
   9.404933581139025E-07   9.886757102571801E-07   1.039325483895802E-06
   1.092568957673480E-06   1.148538866741751E-06   1.207374732519000E-06
   1.269223209237667E-06   1.334238448007180E-06   1.402582479149836E-06
   1.474425614876790E-06   1.549946871388057E-06   1.629334413211080E-06
   1.712786019767568E-06   1.800509576090824E-06   1.892723587895612E-06
   1.989657723386776E-06   2.091553382362926E-06   2.198664294235612E-06
   2.311257146640909E-06   2.429612245939104E-06   2.554024210901755E-06
   2.684802702195780E-06   2.822273188609609E-06   2.966777752052206E-06
   3.118675933945914E-06   3.278345623777366E-06   3.446183993485656E-06
   3.622608478693065E-06   3.808057810041768E-06   4.002993096589845E-06
   4.207898964212160E-06   4.423284751639180E-06   4.649685767071035E-06
   4.887664608262926E-06   5.137812549966171E-06   5.400751000563583E-06
   5.677133033557409E-06   5.967644995305639E-06   6.273008195302108E-06
   6.593980680393045E-06   6.931359100026921E-06   7.285980664478637E-06
   7.658725202565280E-06   8.050517323235508E-06   8.462328685367994E-06
   8.895180382955560E-06   9.350145449771305E-06   9.828351490231494E-06
   1.033098344291832E-05   1.085928648313849E-05   1.141456907076149E-05
   1.199820615212019E-05   1.261164252227068E-05   1.325639635579753E-05
   1.393406291550660E-05   1.464631844615237E-05   1.539492426400867E-05
   1.618173105120740E-05   1.700868336434522E-05   1.787782436955602E-05
   1.879130081362725E-05   1.975136824371459E-05   2.076039648771839E-05
   2.182087540758976E-05   2.293542094023656E-05   2.410678143859680E-05
   2.533784432875392E-05   2.663164309813004E-05   2.799136463077534E-05
   2.942035690720681E-05   3.092213708609839E-05   3.250039998636637E-05
   3.415902698987297E-05   3.590209538433063E-05   3.773388816793704E-05
   3.965890433850175E-05   4.168186969015536E-05   4.380774814214227E-05
   4.604175362520298E-05   4.838936255294195E-05   5.085632690554568E-05
   5.344868795565949E-05   5.617279066688767E-05   5.903529879730675E-05
   6.204321074109431E-05   6.520387614397843E-05   6.852501332900335E-05
   7.201472757015808E-05   7.568153025560395E-05   7.953435898079893E-05
   8.358259861596416E-05   8.783610339362768E-05   9.230522006360459E-05
   9.700081216541868E-05   1.019342854703961E-04   1.071176146466815E-04
   1.125633712051334E-04   1.182847527841576E-04   1.242956138346938E-04
   1.306104977711639E-04   1.372446706531709E-04   1.442141564690071E-04
   1.515357740933179E-04   1.592271759936442E-04   1.673068887660819E-04
   1.757943555804088E-04   1.847099806205015E-04   1.940751756094326E-04
   2.039124085095441E-04   2.142452544953525E-04   2.250984492968306E-04
   2.364979450183021E-04   2.484709685383580E-04   2.610460826032454E-04
   2.742532497291389E-04   2.881238990321028E-04   3.026909961109783E-04
   3.179891161101812E-04   3.340545200967968E-04   3.509252348885510E-04
   3.686411364749991E-04   3.872440371790631E-04   4.067777767104522E-04
   4.272883172675695E-04   4.488238428492687E-04   4.714348629430258E-04
   4.951743207601518E-04   5.200977061948533E-04   5.462631736879511E-04
   5.737316651807768E-04   6.025670383501680E-04   6.328362003202594E-04
   6.646092470498541E-04   6.979596086010815E-04   7.329642004966837E-04
   7.697035813791978E-04   8.082621171884392E-04   8.487281520765563E-04
   8.911941862840921E-04   9.357570612030516E-04   9.825181518537836E-04
   1.031583567007306E-03   1.083064357182383E-03   1.137076730749257E-03
   1.193742278372976E-03   1.253188206023736E-03   1.315547576785799E-03
   1.380959561688568E-03   1.449569699781913E-03   1.521530167673104E-03
   1.597000058733676E-03   1.676145672179380E-03   1.759140812214848E-03
   1.846167097424254E-03   1.937414280574920E-03   2.033080578986932E-03
   2.133373015602669E-03   2.238507770871038E-03   2.348710545537698E-03
   2.464216934407660E-03   2.585272811117088E-03   2.712134723919077E-03
   2.845070302452711E-03   2.984358675424563E-03   3.130290899087660E-03
   3.283170396354879E-03   3.443313406330234E-03   3.611049443981802E-03
   3.786721769618407E-03   3.970687867758922E-03   4.163319934908833E-03
   4.365005375675389E-03   4.576147306560426E-03   4.797165066674118E-03
   5.028494734505591E-03   5.270589649771801E-03   5.523920939242263E-03
   5.788978045304431E-03   6.066269255889975E-03   6.356322234228983E-03
   6.659684546734020E-03   6.976924187137730E-03   7.308630094820044E-03
   7.655412665058104E-03   8.017904248716397E-03   8.396759638666448E-03
   8.792656539980782E-03   9.206296020687427E-03   9.638402939598450E-03
   1.008972634743439E-02   1.056103985716297E-02   1.105314197914613E-02
   1.156685641635156E-02   1.210303231452816E-02   1.266254446187196E-02
   1.324629343231862E-02   1.385520566619142E-02   1.449023348150943E-02
   1.515235500882057E-02   1.584257404196677E-02   1.656191979671982E-02
   1.731144656873812E-02   1.809223328179868E-02   1.890538291674891E-02
   1.975202181110258E-02   2.063329881868016E-02   2.155038431816114E-02
   2.250446905888275E-02   2.349676283168940E-02   2.452849295210807E-02
   2.560090254261067E-02   2.671524860021985E-02   2.787279983523321E-02
   2.907483426638414E-02   3.032263655733349E-02   3.161749507900551E-02
   3.296069868194461E-02   3.435353316259681E-02   3.579727740721087E-02
   3.729319919692628E-02   3.884255065758078E-02   4.044656333783549E-02
   4.210644289940467E-02   4.382336340349646E-02   4.559846117803971E-02
   4.743282825091270E-02   4.932750533520748E-02   5.128347435359445E-02
   5.330165049010321E-02   5.538287375913254E-02   5.752790008327528E-02
   5.973739187359902E-02   6.201190810840153E-02   6.435189390917602E-02
   6.675766961559823E-02   6.922941936482192E-02   7.176717918424713E-02
   7.437082461124904E-02   7.704005785813685E-02   7.977439454587210E-02
   8.257315003584753E-02   8.543542539530888E-02   8.836009303882390E-02
   9.134578209557151E-02   9.439086356013589E-02   9.749343529297153E-02
   1.006513069457149E-01   1.038619848960820E-01   1.071226572871627E-01
   1.104301792764720E-01   1.137810586111444E-01   1.171714416570276E-01
   1.205971000211813E-01   1.240534179192579E-01   1.275353804513547E-01
   1.310375629621224E-01   1.345541216729655E-01   1.380787857860177E-01
   1.416048512709980E-01   1.451251765568385E-01   1.486321803599877E-01
   1.521178418901757E-01   1.555737036820237E-01   1.589908773068383E-01
   1.623600522229422E-01   1.656715080246731E-01   1.689151303492959E-01
   1.720804306972349E-01   1.751565704137957E-01   1.781323890695123E-01
   1.809964374610879E-01   1.837370154350821E-01   1.863422147117488E-01
   1.887999668562942E-01   1.910980965089597E-01   1.932243799434685E-01
   1.951666089751546E-01   1.969126601854001E-01   1.984505693676464E-01
   1.997686110321991E-01   2.008553827324151E-01   2.016998938937793E-01
   2.022916587402591E-01   2.026207928196124E-01   2.026781125317220E-01
   2.024552369624064E-01   2.019446912205596E-01   2.011400103702164E-01
   2.000358429426776E-01   1.986280529089202E-01   1.969138188910318E-01
   1.948917292955040E-01   1.925618719631352E-01   1.899259168524748E-01
   1.869871902086873E-01   1.837507386199424E-01   1.802233813314831E-01
   1.764137491757293E-01   1.723323084873095E-01   1.679913684066379E-01
   1.634050700358782E-01   1.585893559977801E-01   1.535619190609347E-01
   1.483421286338246E-01   1.429509340929705E-01   1.374107440946909E-01
   1.317452812217695E-01   1.259794115305221E-01   1.201389487842727E-01
   1.142504333788936E-01   1.083408861766118E-01   1.024375376571916E-01
   9.656753296179434E-02   9.075761353580443E-02   8.503377616512774E-02
   7.942091024014110E-02   7.394241406994106E-02   6.861979100793895E-02
   6.347222604494153E-02   5.851614339114311E-02   5.376474542568851E-02
   4.922753327345043E-02   4.490980921617344E-02   4.081216121449602E-02
   3.692993007705383E-02   3.325266034459268E-02   2.976841854734719E-02
   2.647984984705365E-02   2.339265544187358E-02   2.051111073659750E-02
   1.783800596868701E-02   1.537460097361620E-02   1.312059565219292E-02
   1.107411760434701E-02   9.231728262134975E-03   7.588448688627625E-03
   6.137806008634950E-03   4.871901202559037E-03   3.781498727401855E-03
   2.856138131339225E-03   2.084267503499659E-03   1.453398252475369E-03
   9.502803403628191E-04   5.610967188872107E-04   2.716753258822369E-04
   6.771660966525817E-05  -6.496583935866607E-05  -1.401943516312065E-04
  -1.711691087008527E-04  -1.702064731529118E-04  -1.484775994170517E-04
  -1.157515487031358E-04  -8.014747309093018E-05  -4.790078556371480E-05
  -2.314860808538821E-05  -7.740205092032770E-06  -1.078584252495185E-06
  -5.551115123125783E-17   0.000000000000000E+00   0.000000000000000E+00
   0.000000000000000E+00   0.000000000000000E+00   0.000000000000000E+00
   0.000000000000000E+00   0.000000000000000E+00   0.000000000000000E+00
   0.000000000000000E+00   0.000000000000000E+00   0.000000000000000E+00
   0.000000000000000E+00   0.000000000000000E+00   0.000000000000000E+00
   0.000000000000000E+00   0.000000000000000E+00   0.000000000000000E+00
   0.000000000000000E+00   0.000000000000000E+00   0.000000000000000E+00
   0.000000000000000E+00   0.000000000000000E+00   0.000000000000000E+00
   0.000000000000000E+00   0.000000000000000E+00   0.000000000000000E+00
   0.000000000000000E+00   0.000000000000000E+00   0.000000000000000E+00
   0.000000000000000E+00   0.000000000000000E+00   0.000000000000000E+00
   0.000000000000000E+00   0.000000000000000E+00   0.000000000000000E+00
   0.000000000000000E+00   0.000000000000000E+00   0.000000000000000E+00
   0.000000000000000E+00   0.000000000000000E+00   0.000000000000000E+00
   0.000000000000000E+00   0.000000000000000E+00   0.000000000000000E+00
   0.000000000000000E+00   0.000000000000000E+00   0.000000000000000E+00
   0.000000000000000E+00   0.000000000000000E+00   0.000000000000000E+00
   0.000000000000000E+00   0.000000000000000E+00   0.000000000000000E+00
   0.000000000000000E+00   0.000000000000000E+00   0.000000000000000E+00
   0.000000000000000E+00   0.000000000000000E+00   0.000000000000000E+00
   0.000000000000000E+00   0.000000000000000E+00   0.000000000000000E+00
   0.000000000000000E+00   0.000000000000000E+00   0.000000000000000E+00
   0.000000000000000E+00   0.000000000000000E+00   0.000000000000000E+00
   0.000000000000000E+00   0.000000000000000E+00   0.000000000000000E+00
   0.000000000000000E+00   0.000000000000000E+00   0.000000000000000E+00
   0.000000000000000E+00   0.000000000000000E+00   0.000000000000000E+00
   0.000000000000000E+00   0.000000000000000E+00   0.000000000000000E+00
   0.000000000000000E+00   0.000000000000000E+00   0.000000000000000E+00
   0.000000000000000E+00   0.000000000000000E+00   0.000000000000000E+00
   0.000000000000000E+00   0.000000000000000E+00   0.000000000000000E+00
   0.000000000000000E+00   0.000000000000000E+00   0.000000000000000E+00
   0.000000000000000E+00   0.000000000000000E+00   0.000000000000000E+00
   0.000000000000000E+00   0.000000000000000E+00   0.000000000000000E+00
   0.000000000000000E+00   0.000000000000000E+00   0.000000000000000E+00
   0.000000000000000E+00   0.000000000000000E+00   0.000000000000000E+00
   0.000000000000000E+00   0.000000000000000E+00   0.000000000000000E+00
   0.000000000000000E+00   0.000000000000000E+00   0.000000000000000E+00
   0.000000000000000E+00   0.000000000000000E+00   0.000000000000000E+00
   0.000000000000000E+00   0.000000000000000E+00   0.000000000000000E+00
   0.000000000000000E+00   0.000000000000000E+00   0.000000000000000E+00
   0.000000000000000E+00   0.000000000000000E+00   0.000000000000000E+00
   0.000000000000000E+00   0.000000000000000E+00   0.000000000000000E+00
   0.000000000000000E+00   0.000000000000000E+00   0.000000000000000E+00
   0.000000000000000E+00   0.000000000000000E+00   0.000000000000000E+00
   0.000000000000000E+00   0.000000000000000E+00   0.000000000000000E+00
   0.000000000000000E+00   0.000000000000000E+00   0.000000000000000E+00
   0.000000000000000E+00   0.000000000000000E+00   0.000000000000000E+00
   0.000000000000000E+00   0.000000000000000E+00   0.000000000000000E+00
   0.000000000000000E+00   0.000000000000000E+00   0.000000000000000E+00
   0.000000000000000E+00   0.000000000000000E+00   0.000000000000000E+00
   0.000000000000000E+00   0.000000000000000E+00   0.000000000000000E+00
   0.000000000000000E+00   0.000000000000000E+00   0.000000000000000E+00
   0.000000000000000E+00   0.000000000000000E+00   0.000000000000000E+00
   0.000000000000000E+00   0.000000000000000E+00   0.000000000000000E+00
   0.000000000000000E+00   0.000000000000000E+00   0.000000000000000E+00
   0.000000000000000E+00   0.000000000000000E+00   0.000000000000000E+00
   0.000000000000000E+00   0.000000000000000E+00   0.000000000000000E+00
   0.000000000000000E+00   0.000000000000000E+00   0.000000000000000E+00
   0.000000000000000E+00   0.000000000000000E+00   0.000000000000000E+00
   0.000000000000000E+00   0.000000000000000E+00   0.000000000000000E+00
   0.000000000000000E+00   0.000000000000000E+00   0.000000000000000E+00
   0.000000000000000E+00   0.000000000000000E+00   0.000000000000000E+00
   0.000000000000000E+00   0.000000000000000E+00   0.000000000000000E+00
   0.000000000000000E+00   0.000000000000000E+00   0.000000000000000E+00
   0.000000000000000E+00   0.000000000000000E+00   0.000000000000000E+00
   0.000000000000000E+00   0.000000000000000E+00   0.000000000000000E+00
   0.000000000000000E+00   0.000000000000000E+00   0.000000000000000E+00
   0.000000000000000E+00   0.000000000000000E+00   0.000000000000000E+00
   0.000000000000000E+00   0.000000000000000E+00   0.000000000000000E+00
   0.000000000000000E+00   0.000000000000000E+00   0.000000000000000E+00
   0.000000000000000E+00   0.000000000000000E+00   0.000000000000000E+00
   0.000000000000000E+00   0.000000000000000E+00   0.000000000000000E+00
   0.000000000000000E+00   0.000000000000000E+00   0.000000000000000E+00
   0.000000000000000E+00   0.000000000000000E+00   0.000000000000000E+00
   0.000000000000000E+00   0.000000000000000E+00   0.000000000000000E+00
   0.000000000000000E+00   0.000000000000000E+00   0.000000000000000E+00
   0.000000000000000E+00   0.000000000000000E+00   0.000000000000000E+00
   0.000000000000000E+00   0.000000000000000E+00   0.000000000000000E+00
   0.000000000000000E+00   0.000000000000000E+00   0.000000000000000E+00
   0.000000000000000E+00   0.000000000000000E+00   0.000000000000000E+00
   0.000000000000000E+00   0.000000000000000E+00   0.000000000000000E+00
   0.000000000000000E+00   0.000000000000000E+00   0.000000000000000E+00
   0.000000000000000E+00   0.000000000000000E+00   0.000000000000000E+00
   0.000000000000000E+00   0.000000000000000E+00   0.000000000000000E+00
   0.000000000000000E+00   0.000000000000000E+00   0.000000000000000E+00
   0.000000000000000E+00   0.000000000000000E+00   0.000000000000000E+00
   0.000000000000000E+00   0.000000000000000E+00   0.000000000000000E+00
   0.000000000000000E+00   0.000000000000000E+00   0.000000000000000E+00
   0.000000000000000E+00   0.000000000000000E+00   0.000000000000000E+00
   0.000000000000000E+00   0.000000000000000E+00   0.000000000000000E+00
   0.000000000000000E+00   0.000000000000000E+00   0.000000000000000E+00
   0.000000000000000E+00   0.000000000000000E+00   0.000000000000000E+00
   0.000000000000000E+00   0.000000000000000E+00   0.000000000000000E+00
   0.000000000000000E+00   0.000000000000000E+00   0.000000000000000E+00
   0.000000000000000E+00   0.000000000000000E+00   0.000000000000000E+00
   0.000000000000000E+00   0.000000000000000E+00   0.000000000000000E+00
   0.000000000000000E+00   0.000000000000000E+00   0.000000000000000E+00
   0.000000000000000E+00   0.000000000000000E+00   0.000000000000000E+00
   0.000000000000000E+00   0.000000000000000E+00   0.000000000000000E+00
   0.000000000000000E+00   0.000000000000000E+00   0.000000000000000E+00
   0.000000000000000E+00   0.000000000000000E+00   0.000000000000000E+00
   0.000000000000000E+00   0.000000000000000E+00   0.000000000000000E+00
   0.000000000000000E+00   0.000000000000000E+00   0.000000000000000E+00
   0.000000000000000E+00   0.000000000000000E+00   0.000000000000000E+00
   0.000000000000000E+00   0.000000000000000E+00   0.000000000000000E+00
   0.000000000000000E+00   0.000000000000000E+00   0.000000000000000E+00
   0.000000000000000E+00   0.000000000000000E+00   0.000000000000000E+00
   0.000000000000000E+00   0.000000000000000E+00   0.000000000000000E+00
   0.000000000000000E+00   0.000000000000000E+00   0.000000000000000E+00
   0.000000000000000E+00   0.000000000000000E+00   0.000000000000000E+00
   0.000000000000000E+00   0.000000000000000E+00   0.000000000000000E+00
   0.000000000000000E+00   0.000000000000000E+00   0.000000000000000E+00
   0.000000000000000E+00   0.000000000000000E+00   0.000000000000000E+00
   0.000000000000000E+00   0.000000000000000E+00   0.000000000000000E+00
   0.000000000000000E+00   0.000000000000000E+00   0.000000000000000E+00
      </PP_QIJL.3.4.2>
      <PP_QIJL.4.4.0 first_index="4" second_index="4" composite_index="10" angular_momentum="0" size="1095">
   1.326073741224022E-08   1.359643457444569E-08   1.394062995058608E-08
   1.429353867396183E-08   1.465538132399840E-08   1.502638406411541E-08
   1.540677878308615E-08   1.579680323997565E-08   1.619670121274764E-08
   1.660672265063388E-08   1.702712383036031E-08   1.745816751632838E-08
   1.790012312485132E-08   1.835326689254801E-08   1.881788204899993E-08
   1.929425899377857E-08   1.978269547795473E-08   2.028349679020255E-08
   2.079697594761466E-08   2.132345389134826E-08   2.186325968722339E-08
   2.241673073139988E-08   2.298421296126082E-08   2.356606107163454E-08
   2.416263873649049E-08   2.477431883624695E-08   2.540148369083353E-08
   2.604452529865337E-08   2.670384558159480E-08   2.737985663624554E-08
   2.807298099146628E-08   2.878365187248481E-08   2.951231347167582E-08
   3.025942122619540E-08   3.102544210264406E-08   3.181085488893565E-08
   3.261615049355535E-08   3.344183225239331E-08   3.428841624334564E-08
   3.515643160888000E-08   3.604642088676619E-08   3.695894034918002E-08
   3.789456035039123E-08   3.885386568325308E-08   3.983745594471706E-08
   4.084594591059969E-08   4.187996591983745E-08   4.294016226846880E-08
   4.402719761358985E-08   4.514175138753648E-08   4.628452022255097E-08
   4.745621838619972E-08   4.865757822781331E-08   4.988935063622804E-08
   5.115230550911600E-08   5.244723223419508E-08   5.377494018262188E-08
   5.513625921487448E-08   5.653204019944160E-08   5.796315554464293E-08
   5.943049974391160E-08   6.093498993488144E-08   6.247756647262717E-08
   6.405919351741609E-08   6.568085963733931E-08   6.734357842619773E-08
   6.904838913703077E-08   7.079635733168233E-08   7.258857554681068E-08
   7.442616397675908E-08   7.631027117371193E-08   7.824207476557682E-08
   8.022278219203912E-08   8.225363145924971E-08   8.433589191361879E-08
   8.647086503519634E-08   8.865988525113898E-08   9.090432076976868E-08
   9.320557443574629E-08   9.556508460689384E-08   9.798432605321260E-08
   1.004648108786615E-07   1.030080894662692E-07   1.056157514471721E-07
   1.082894266941840E-07   1.110307863405170E-07   1.138415438242927E-07
   1.167234559594939E-07   1.196783240340285E-07   1.227079949355913E-07
   1.258143623060248E-07   1.289993677249055E-07   1.322650019230908E-07
   1.356133060269880E-07   1.390463728343218E-07   1.425663481221964E-07
   1.461754319882740E-07   1.498758802259028E-07   1.536700057340577E-07
   1.575601799629740E-07   1.615488343963755E-07   1.656384620712272E-07
   1.698316191359595E-07   1.741309264481393E-07   1.785390712125871E-07
   1.830588086609599E-07   1.876929637738563E-07   1.924444330465148E-07
   1.973161862992114E-07   2.023112685334876E-07   2.074328018353674E-07
   2.126839873267559E-07   2.180681071662367E-07   2.235885266005194E-07
   2.292486960678213E-07   2.350521533544920E-07   2.410025258062368E-07
   2.471035325953162E-07   2.533589870451378E-07   2.597727990136984E-07
   2.663489773373589E-07   2.730916323364860E-07   2.800049783845234E-07
   2.870933365420986E-07   2.943611372578139E-07   3.018129231374025E-07
   3.094533517829925E-07   3.172871987042414E-07   3.253193603031677E-07
   3.335548569345462E-07   3.419988360437692E-07   3.506565753841505E-07
   3.595334863156705E-07   3.686351171872298E-07   3.779671568045270E-07
   3.875354379857187E-07   3.973459412070969E-07   4.074047983410544E-07
   4.177182964886740E-07   4.282928819093452E-07   4.391351640498498E-07
   4.502519196754498E-07   4.616500971055523E-07   4.733368205565962E-07
   4.853193945948841E-07   4.976053087021294E-07   5.102022419565852E-07
   5.231180678326740E-07   5.363608591221152E-07   5.499388929796379E-07
   5.638606560964151E-07   5.781348500044685E-07   5.927703965153525E-07
   6.077764432965131E-07   6.231623695888207E-07   6.389377920688245E-07
   6.551125708594246E-07   6.716968156926932E-07   6.887008922287069E-07
   7.061354285343452E-07   7.240113217260837E-07   7.423397447809628E-07
   7.611321535199636E-07   7.804002937681669E-07   8.001562086961802E-07
   8.204122463473840E-07   8.411810673557636E-07   8.624756528590804E-07
   8.843093126123817E-07   9.066956933069030E-07   9.296487870995339E-07
   9.531829403582454E-07   9.773128626288599E-07   1.002053635828840E-06
   1.027420723673811E-06   1.053429981342681E-06   1.080097665387482E-06
   1.107440443894019E-06   1.135475406899764E-06   1.164220077075466E-06
   1.193692420677139E-06   1.223910858775340E-06   1.254894278768648E-06
   1.286662046188647E-06   1.319234016803733E-06   1.352630549029289E-06
   1.386872516652075E-06   1.421981321876664E-06   1.457978908702178E-06
   1.494887776637644E-06   1.532730994764502E-06   1.571532216155166E-06
   1.611315692656505E-06   1.652106290047599E-06   1.693929503581203E-06
   1.736811473918577E-06   1.780779003467771E-06   1.825859573135423E-06
   1.872081359502653E-06   1.919473252435753E-06   1.968064873142617E-06
   2.017886592686341E-06   2.068969550967382E-06   2.121345676186281E-06
   2.175047704799069E-06   2.230109201977755E-06   2.286564582588841E-06
   2.344449132702794E-06   2.403799031648048E-06   2.464651374623283E-06
   2.527044195882031E-06   2.591016492504278E-06   2.656608248769706E-06
   2.723860461147953E-06   2.792815163921491E-06   2.863515455457009E-06
   2.936005525141949E-06   3.010330681002765E-06   3.086537378022366E-06
   3.164673247174369E-06   3.244787125192210E-06   3.326929085091956E-06
   3.411150467467583E-06   3.497503912578539E-06   3.586043393249522E-06
   3.676824248602961E-06   3.769903218645513E-06   3.865338479729901E-06
   3.963189680914445E-06   4.063517981242994E-06   4.166386087968385E-06
   4.271858295743603E-06   4.380000526804802E-06   4.490880372171555E-06
   4.604567133889992E-06   4.721131868345066E-06   4.840647430669375E-06
   4.963188520275841E-06   5.088831727543045E-06   5.217655581682270E-06
   5.349740599815985E-06   5.485169337298870E-06   5.624026439312273E-06
   5.766398693764779E-06   5.912375085531730E-06   6.062046852067596E-06
   6.215507540426024E-06   6.372853065723079E-06   6.534181771080285E-06
   6.699594489084934E-06   6.869194604805896E-06   7.043088120404561E-06
   7.221383721380997E-06   7.404192844496923E-06   7.591629747417841E-06
   7.783811580117792E-06   7.980858458091444E-06   8.182893537419137E-06
   8.390043091731859E-06   8.602436591124229E-06   8.820206783064643E-06
   9.043489775353378E-06   9.272425121180162E-06   9.507155906334615E-06
   9.747828838623918E-06   9.994594339553429E-06   1.024760663832784E-05
   1.050702386823114E-05   1.077300816544608E-05   1.104572577037440E-05
   1.132534713152137E-05   1.161204701200949E-05   1.190600459878776E-05
   1.220740361460475E-05   1.251643243281565E-05   1.283328419509444E-05
   1.315815693212538E-05   1.349125368734851E-05   1.383278264383694E-05
   1.418295725438499E-05   1.454199637488814E-05   1.491012440109864E-05
   1.528757140884151E-05   1.567457329777901E-05   1.607137193881308E-05
   1.647821532521772E-05   1.689535772759589E-05   1.732305985275742E-05
   1.776158900661725E-05   1.821121926121578E-05   1.867223162596523E-05
   1.914491422322937E-05   1.962956246834578E-05   2.012647925420334E-05
   2.063597514049000E-05   2.115836854772875E-05   2.169398595622343E-05
   2.224316211003782E-05   2.280624022613590E-05   2.338357220881351E-05
   2.397551886955510E-05   2.458245015245316E-05   2.520474536533043E-05
   2.584279341670953E-05   2.649699305877779E-05   2.716775313649839E-05
   2.785549284302401E-05   2.856064198157148E-05   2.928364123392139E-05
   3.002494243570986E-05   3.078500885868407E-05   3.156431550009791E-05
   3.236334937942778E-05   3.318260984259393E-05   3.402260887387706E-05
   3.488387141572401E-05   3.576693569664301E-05   3.667235356739181E-05
   3.760069084566898E-05   3.855252766952324E-05   3.952845885970020E-05
   4.052909429115388E-05   4.155505927395288E-05   4.260699494381986E-05
   4.368555866254686E-05   4.479142442853673E-05   4.592528329772511E-05
   4.708784381514682E-05   4.827983245741426E-05   4.950199408638397E-05
   5.075509241429395E-05   5.203991048066049E-05   5.335725114123305E-05
   5.470793756931023E-05   5.609281376972933E-05   5.751274510585036E-05
   5.896861883986026E-05   6.046134468673653E-05   6.199185538221236E-05
   6.356110726509853E-05   6.517008087432345E-05   6.681978156106220E-05
   6.851124011633724E-05   7.024551341447877E-05   7.202368507284662E-05
   7.384686612822337E-05   7.571619573029797E-05   7.763284185267316E-05
   7.959800202183683E-05   8.161290406455060E-05   8.367880687412133E-05
   8.579700119602865E-05   8.796881043340007E-05   9.019559147283100E-05
   9.247873553106396E-05   9.481966902305251E-05   9.721985445194710E-05
   9.968079132155789E-05   1.022040170718584E-04   1.047911080381108E-04
   1.074436804342099E-04   1.101633913608501E-04   1.129519398391481E-04
   1.158110678703550E-04   1.187425615223185E-04   1.217482520433677E-04
   1.248300170043086E-04   1.279897814692401E-04   1.312295191959135E-04
   1.345512538663798E-04   1.379570603486855E-04   1.414490659903969E-04
   1.450294519447545E-04   1.487004545302764E-04   1.524643666246512E-04
   1.563235390937832E-04   1.602803822568686E-04   1.643373673884129E-04
   1.684970282581137E-04   1.727619627095590E-04   1.771348342787173E-04
   1.816183738532142E-04   1.862153813734229E-04   1.909287275764130E-04
   1.957613557838348E-04   2.007162837348382E-04   2.057966054651578E-04
   2.110054932335136E-04   2.163461994965218E-04   2.218220589333228E-04
   2.274364905211718E-04   2.331929996632717E-04   2.390951803701462E-04
   2.451467174959014E-04   2.513513890307406E-04   2.577130684511410E-04
   2.642357271291334E-04   2.709234368021551E-04   2.777803721049950E-04
   2.848108131653761E-04   2.920191482647605E-04   2.994098765660093E-04
   3.069876109095531E-04   3.147570806797906E-04   3.227231347434550E-04
   3.308907444617434E-04   3.392650067780437E-04   3.478511473831334E-04
   3.566545239597832E-04   3.656806295087307E-04   3.749350957580454E-04
   3.844236966579585E-04   3.941523519632651E-04   4.041271309054824E-04
   4.143542559569757E-04   4.248401066893328E-04   4.355912237283207E-04
   4.466143128077996E-04   4.579162489250546E-04   4.695040806000344E-04
   4.813850342410684E-04   4.935665186196824E-04   5.060561294571945E-04
   5.188616541258531E-04   5.319910764673238E-04   5.454525817314074E-04
   5.592545616379504E-04   5.734056195649472E-04   5.879145758659512E-04
   6.027904733199387E-04   6.180425827168723E-04   6.336804085822823E-04
   6.497136950442403E-04   6.661524318462177E-04   6.830068605093614E-04
   7.002874806478284E-04   7.180050564408989E-04   7.361706232656509E-04
   7.547954944941123E-04   7.738912684588475E-04   7.934698355910536E-04
   8.135433857353324E-04   8.341244156453715E-04   8.552257366649164E-04
   8.768604825984490E-04   8.990421177761388E-04   9.217844453177112E-04
   9.451016155999642E-04   9.690081349328153E-04   9.935188744488192E-04
   1.018649079211224E-03   1.044414377545763E-03   1.070830790601426E-03
   1.097914742145668E-03   1.125683068599525E-03   1.154153029318283E-03
   1.183342317123468E-03   1.213269069091967E-03   1.243951877608353E-03
   1.275409801686441E-03   1.307662378566359E-03   1.340729635593486E-03
   1.374632102385703E-03   1.409390823295620E-03   1.445027370174482E-03
   1.481563855444623E-03   1.519022945487490E-03   1.557427874354312E-03
   1.596802457806728E-03   1.637171107694723E-03   1.678558846679401E-03
   1.720991323308258E-03   1.764494827450695E-03   1.809096306101732E-03
   1.854823379561933E-03   1.901704358001700E-03   1.949768258418284E-03
   1.999044821993838E-03   2.049564531863176E-03   2.101358631299799E-03
   2.154459142329033E-03   2.208898884777170E-03   2.264711495765587E-03
   2.321931449659012E-03   2.380594078477123E-03   2.440735592778815E-03
   2.502393103028556E-03   2.565604641454263E-03   2.630409184406384E-03
   2.696846675227720E-03   2.764958047643743E-03   2.834785249683182E-03
   2.906371268138589E-03   2.979760153576796E-03   3.054997045909051E-03
   3.132128200530662E-03   3.211201015040015E-03   3.292264056546651E-03
   3.375367089578273E-03   3.460561104596234E-03   3.547898347129126E-03
   3.637432347533937E-03   3.729217951394007E-03   3.823311350563036E-03
   3.919770114863987E-03   4.018653224451620E-03   4.120021102847145E-03
   4.223935650652967E-03   4.330460279955511E-03   4.439659949423348E-03
   4.551601200107638E-03   4.666352191951364E-03   4.783982741013177E-03
   4.904564357411281E-03   5.028170283991893E-03   5.154875535726175E-03
   5.284756939838855E-03   5.417893176670478E-03   5.554364821274756E-03
   5.694254385751009E-03   5.837646362310744E-03   5.984627267076077E-03
   6.135285684606261E-03   6.289712313147270E-03   6.448000010597551E-03
   6.610243841181378E-03   6.776541122819397E-03   6.946991475183624E-03
   7.121696868422340E-03   7.300761672537441E-03   7.484292707394505E-03
   7.672399293342951E-03   7.865193302420378E-03   8.062789210112404E-03
   8.265304147635230E-03   8.472857954704786E-03   8.685573232752005E-03
   8.903575398539421E-03   9.126992738129672E-03   9.355956461151390E-03
   9.590600755302410E-03   9.831062841024677E-03   1.007748302627859E-02
   1.033000476133839E-02   1.058877469352256E-02   1.085394272176569E-02
   1.112566205093044E-02   1.140408924574852E-02   1.168938428427166E-02
   1.198171061070202E-02   1.228123518746210E-02   1.258812854635187E-02
   1.290256483862908E-02   1.322472188383583E-02   1.355478121718034E-02
   1.389292813526827E-02   1.423935173996218E-02   1.459424498013088E-02
   1.495780469103286E-02   1.533023163105888E-02   1.571173051553826E-02
   1.610251004729300E-02   1.650278294359962E-02   1.691276595919600E-02
   1.733267990494363E-02   1.776274966172895E-02   1.820320418915885E-02
   1.865427652857396E-02   1.911620379987214E-02   1.958922719159925E-02
   2.007359194372849E-02   2.056954732251148E-02   2.107734658674283E-02
   2.159724694473852E-02   2.212950950128206E-02   2.267439919374553E-02
   2.323218471654233E-02   2.380313843301536E-02   2.438753627380980E-02
   2.498565762072024E-02   2.559778517494163E-02   2.622420480858898E-02
   2.686520539828326E-02   2.752107863953158E-02   2.819211884055507E-02
   2.887862269414208E-02   2.958088902602396E-02   3.029921851818711E-02
   3.103391340544949E-02   3.178527714353917E-02   3.255361404681945E-02
   3.333922889371019E-02   3.414242649775362E-02   3.496351124217387E-02
   3.580278657567182E-02   3.666055446709143E-02   3.753711481648379E-02
   3.843276481998278E-02   3.934779828579530E-02   4.028250489849281E-02
   4.123716942867781E-02   4.221207088498430E-02   4.320748160525618E-02
   4.422366628363805E-02   4.526088093020049E-02   4.631937175961791E-02
   4.739937400531501E-02   4.850111065540195E-02   4.962479110663288E-02
   5.077060973254160E-02   5.193874436184226E-02   5.312935466312895E-02
   5.434258043186747E-02   5.557853977565468E-02   5.683732719371793E-02
   5.811901154665174E-02   5.942363391243995E-02   6.075120532489099E-02
   6.210170439073270E-02   6.347507478176423E-02   6.487122259866383E-02
   6.629001360329682E-02   6.773127031666758E-02   6.919476898002319E-02
   7.068023637703937E-02   7.218734651552076E-02   7.371571716762593E-02
   7.526490626829230E-02   7.683440817230072E-02   7.842364977128037E-02
   8.003198647293458E-02   8.165869804586591E-02   8.330298433460664E-02
   8.496396085083430E-02   8.664065424826914E-02   8.833199769043421E-02
   9.003682612231145E-02   9.175387145895951E-02   9.348175770638928E-02
   9.521899603241542E-02   9.696397980784463E-02   9.871497964121831E-02
   1.004701384334094E-01   1.022274664817019E-01   1.039848366665290E-01
   1.057399797578571E-01   1.074904798822486E-01   1.092337701959192E-01
   1.109671288136443E-01   1.126876750481177E-01   1.143923660193498E-01
   1.160779936988709E-01   1.177411824588562E-01   1.193783872018064E-01
   1.209858921520302E-01   1.225598103958680E-01   1.240960842633101E-01
   1.255904866493109E-01   1.270386233786552E-01   1.284359367235569E-01
   1.297777101882027E-01   1.310590746790678E-01   1.322750161838816E-01
   1.334203850855026E-01   1.344899072394620E-01   1.354781969454176E-01
   1.363797719429932E-01   1.371890705612508E-01   1.379004711481275E-01
   1.385083139012719E-01   1.390069252145946E-01   1.393906446451630E-01
   1.396538545925270E-01   1.397910127668180E-01   1.397966875026471E-01
   1.396655959526095E-01   1.393926451666709E-01   1.389729760315306E-01
   1.384020100068294E-01   1.376754985524558E-01   1.367895750928653E-01
   1.357408093099498E-01   1.345262634953467E-01   1.331435506259244E-01
   1.315908937524447E-01   1.298671862110232E-01   1.279720520800944E-01
   1.259059062123846E-01   1.236700130722601E-01   1.212665435044003E-01
   1.186986284508103E-01   1.159704085208307E-01   1.130870782044014E-01
   1.100549234040122E-01   1.068813508476438E-01   1.035749078359186E-01
   1.001452906745171E-01   9.660334005098398E-02   9.296102153702969E-02
   8.923138933767473E-02   8.542853137171727E-02   8.156749375931571E-02
   7.766418281765532E-02   7.373524273077792E-02   6.979790717129489E-02
   6.586982331658725E-02   6.196884692726259E-02   5.811280744815349E-02
   5.431924245883663E-02   5.060510124823485E-02   4.698641782220297E-02
   4.347795427925812E-02   4.009281621164090E-02   3.684204260881686E-02
   3.373417365858247E-02   3.077480085454793E-02   2.796610492245717E-02
   2.530638826233420E-02   2.278960985532686E-02   2.040814679536840E-02
   1.816351955943896E-02   1.605914527266611E-02   1.409744056899875E-02
   1.227978847402039E-02   1.060651585114014E-02   9.076882409247006E-03
   7.689082174036521E-03   6.440258203534888E-03   5.326531180444849E-03
   4.343042339735342E-03   3.484010990164238E-03   2.742806664336600E-03
   2.112035685432556E-03   1.583641672566249E-03   1.149019224064657E-03
   7.991397227623265E-04   5.246879040730901E-04   3.162075208964776E-04
   1.642541345109050E-04   5.955276237157303E-05  -6.842172780185951E-06
  -4.338741861503737E-05  -5.789507069720035E-05  -5.738365710741822E-05
  -4.793964014249141E-05  -3.459302543246112E-05  -2.121092630089083E-05
  -1.041306819532517E-05  -3.513337706873010E-06  -4.915869579319443E-07
  -4.163336342344337E-17   0.000000000000000E+00   0.000000000000000E+00
   0.000000000000000E+00   0.000000000000000E+00   0.000000000000000E+00
   0.000000000000000E+00   0.000000000000000E+00   0.000000000000000E+00
   0.000000000000000E+00   0.000000000000000E+00   0.000000000000000E+00
   0.000000000000000E+00   0.000000000000000E+00   0.000000000000000E+00
   0.000000000000000E+00   0.000000000000000E+00   0.000000000000000E+00
   0.000000000000000E+00   0.000000000000000E+00   0.000000000000000E+00
   0.000000000000000E+00   0.000000000000000E+00   0.000000000000000E+00
   0.000000000000000E+00   0.000000000000000E+00   0.000000000000000E+00
   0.000000000000000E+00   0.000000000000000E+00   0.000000000000000E+00
   0.000000000000000E+00   0.000000000000000E+00   0.000000000000000E+00
   0.000000000000000E+00   0.000000000000000E+00   0.000000000000000E+00
   0.000000000000000E+00   0.000000000000000E+00   0.000000000000000E+00
   0.000000000000000E+00   0.000000000000000E+00   0.000000000000000E+00
   0.000000000000000E+00   0.000000000000000E+00   0.000000000000000E+00
   0.000000000000000E+00   0.000000000000000E+00   0.000000000000000E+00
   0.000000000000000E+00   0.000000000000000E+00   0.000000000000000E+00
   0.000000000000000E+00   0.000000000000000E+00   0.000000000000000E+00
   0.000000000000000E+00   0.000000000000000E+00   0.000000000000000E+00
   0.000000000000000E+00   0.000000000000000E+00   0.000000000000000E+00
   0.000000000000000E+00   0.000000000000000E+00   0.000000000000000E+00
   0.000000000000000E+00   0.000000000000000E+00   0.000000000000000E+00
   0.000000000000000E+00   0.000000000000000E+00   0.000000000000000E+00
   0.000000000000000E+00   0.000000000000000E+00   0.000000000000000E+00
   0.000000000000000E+00   0.000000000000000E+00   0.000000000000000E+00
   0.000000000000000E+00   0.000000000000000E+00   0.000000000000000E+00
   0.000000000000000E+00   0.000000000000000E+00   0.000000000000000E+00
   0.000000000000000E+00   0.000000000000000E+00   0.000000000000000E+00
   0.000000000000000E+00   0.000000000000000E+00   0.000000000000000E+00
   0.000000000000000E+00   0.000000000000000E+00   0.000000000000000E+00
   0.000000000000000E+00   0.000000000000000E+00   0.000000000000000E+00
   0.000000000000000E+00   0.000000000000000E+00   0.000000000000000E+00
   0.000000000000000E+00   0.000000000000000E+00   0.000000000000000E+00
   0.000000000000000E+00   0.000000000000000E+00   0.000000000000000E+00
   0.000000000000000E+00   0.000000000000000E+00   0.000000000000000E+00
   0.000000000000000E+00   0.000000000000000E+00   0.000000000000000E+00
   0.000000000000000E+00   0.000000000000000E+00   0.000000000000000E+00
   0.000000000000000E+00   0.000000000000000E+00   0.000000000000000E+00
   0.000000000000000E+00   0.000000000000000E+00   0.000000000000000E+00
   0.000000000000000E+00   0.000000000000000E+00   0.000000000000000E+00
   0.000000000000000E+00   0.000000000000000E+00   0.000000000000000E+00
   0.000000000000000E+00   0.000000000000000E+00   0.000000000000000E+00
   0.000000000000000E+00   0.000000000000000E+00   0.000000000000000E+00
   0.000000000000000E+00   0.000000000000000E+00   0.000000000000000E+00
   0.000000000000000E+00   0.000000000000000E+00   0.000000000000000E+00
   0.000000000000000E+00   0.000000000000000E+00   0.000000000000000E+00
   0.000000000000000E+00   0.000000000000000E+00   0.000000000000000E+00
   0.000000000000000E+00   0.000000000000000E+00   0.000000000000000E+00
   0.000000000000000E+00   0.000000000000000E+00   0.000000000000000E+00
   0.000000000000000E+00   0.000000000000000E+00   0.000000000000000E+00
   0.000000000000000E+00   0.000000000000000E+00   0.000000000000000E+00
   0.000000000000000E+00   0.000000000000000E+00   0.000000000000000E+00
   0.000000000000000E+00   0.000000000000000E+00   0.000000000000000E+00
   0.000000000000000E+00   0.000000000000000E+00   0.000000000000000E+00
   0.000000000000000E+00   0.000000000000000E+00   0.000000000000000E+00
   0.000000000000000E+00   0.000000000000000E+00   0.000000000000000E+00
   0.000000000000000E+00   0.000000000000000E+00   0.000000000000000E+00
   0.000000000000000E+00   0.000000000000000E+00   0.000000000000000E+00
   0.000000000000000E+00   0.000000000000000E+00   0.000000000000000E+00
   0.000000000000000E+00   0.000000000000000E+00   0.000000000000000E+00
   0.000000000000000E+00   0.000000000000000E+00   0.000000000000000E+00
   0.000000000000000E+00   0.000000000000000E+00   0.000000000000000E+00
   0.000000000000000E+00   0.000000000000000E+00   0.000000000000000E+00
   0.000000000000000E+00   0.000000000000000E+00   0.000000000000000E+00
   0.000000000000000E+00   0.000000000000000E+00   0.000000000000000E+00
   0.000000000000000E+00   0.000000000000000E+00   0.000000000000000E+00
   0.000000000000000E+00   0.000000000000000E+00   0.000000000000000E+00
   0.000000000000000E+00   0.000000000000000E+00   0.000000000000000E+00
   0.000000000000000E+00   0.000000000000000E+00   0.000000000000000E+00
   0.000000000000000E+00   0.000000000000000E+00   0.000000000000000E+00
   0.000000000000000E+00   0.000000000000000E+00   0.000000000000000E+00
   0.000000000000000E+00   0.000000000000000E+00   0.000000000000000E+00
   0.000000000000000E+00   0.000000000000000E+00   0.000000000000000E+00
   0.000000000000000E+00   0.000000000000000E+00   0.000000000000000E+00
   0.000000000000000E+00   0.000000000000000E+00   0.000000000000000E+00
   0.000000000000000E+00   0.000000000000000E+00   0.000000000000000E+00
   0.000000000000000E+00   0.000000000000000E+00   0.000000000000000E+00
   0.000000000000000E+00   0.000000000000000E+00   0.000000000000000E+00
   0.000000000000000E+00   0.000000000000000E+00   0.000000000000000E+00
   0.000000000000000E+00   0.000000000000000E+00   0.000000000000000E+00
   0.000000000000000E+00   0.000000000000000E+00   0.000000000000000E+00
   0.000000000000000E+00   0.000000000000000E+00   0.000000000000000E+00
   0.000000000000000E+00   0.000000000000000E+00   0.000000000000000E+00
   0.000000000000000E+00   0.000000000000000E+00   0.000000000000000E+00
   0.000000000000000E+00   0.000000000000000E+00   0.000000000000000E+00
   0.000000000000000E+00   0.000000000000000E+00   0.000000000000000E+00
   0.000000000000000E+00   0.000000000000000E+00   0.000000000000000E+00
   0.000000000000000E+00   0.000000000000000E+00   0.000000000000000E+00
   0.000000000000000E+00   0.000000000000000E+00   0.000000000000000E+00
   0.000000000000000E+00   0.000000000000000E+00   0.000000000000000E+00
   0.000000000000000E+00   0.000000000000000E+00   0.000000000000000E+00
   0.000000000000000E+00   0.000000000000000E+00   0.000000000000000E+00
   0.000000000000000E+00   0.000000000000000E+00   0.000000000000000E+00
   0.000000000000000E+00   0.000000000000000E+00   0.000000000000000E+00
   0.000000000000000E+00   0.000000000000000E+00   0.000000000000000E+00
   0.000000000000000E+00   0.000000000000000E+00   0.000000000000000E+00
   0.000000000000000E+00   0.000000000000000E+00   0.000000000000000E+00
   0.000000000000000E+00   0.000000000000000E+00   0.000000000000000E+00
   0.000000000000000E+00   0.000000000000000E+00   0.000000000000000E+00
   0.000000000000000E+00   0.000000000000000E+00   0.000000000000000E+00
   0.000000000000000E+00   0.000000000000000E+00   0.000000000000000E+00
   0.000000000000000E+00   0.000000000000000E+00   0.000000000000000E+00
   0.000000000000000E+00   0.000000000000000E+00   0.000000000000000E+00
   0.000000000000000E+00   0.000000000000000E+00   0.000000000000000E+00
   0.000000000000000E+00   0.000000000000000E+00   0.000000000000000E+00
   0.000000000000000E+00   0.000000000000000E+00   0.000000000000000E+00
   0.000000000000000E+00   0.000000000000000E+00   0.000000000000000E+00
   0.000000000000000E+00   0.000000000000000E+00   0.000000000000000E+00
   0.000000000000000E+00   0.000000000000000E+00   0.000000000000000E+00
   0.000000000000000E+00   0.000000000000000E+00   0.000000000000000E+00
   0.000000000000000E+00   0.000000000000000E+00   0.000000000000000E+00
   0.000000000000000E+00   0.000000000000000E+00   0.000000000000000E+00
   0.000000000000000E+00   0.000000000000000E+00   0.000000000000000E+00
   0.000000000000000E+00   0.000000000000000E+00   0.000000000000000E+00
   0.000000000000000E+00   0.000000000000000E+00   0.000000000000000E+00
      </PP_QIJL.4.4.0>
      <PP_QIJL.4.4.2 first_index="4" second_index="4" composite_index="10" angular_momentum="2" size="1095">
   1.970029081650639E-15   2.071034628237518E-15   2.177218839601350E-15
   2.288847231536790E-15   2.406198933122369E-15   2.529567384688282E-15
   2.659261071569806E-15   2.795604295481026E-15   2.938937985437685E-15
   3.089620550257018E-15   3.248028774766038E-15   3.414558761959492E-15
   3.589626923463225E-15   3.773671020779656E-15   3.967151259919111E-15
   4.170551442153919E-15   4.384380173773059E-15   4.609172137862160E-15
   4.845489431289007E-15   5.093922970237832E-15   5.355093967806675E-15
   5.629655487362892E-15   5.918294075540812E-15   6.221731478964925E-15
   6.540726448991359E-15   6.876076638980218E-15   7.228620598843312E-15
   7.599239871854328E-15   7.988861198964712E-15   8.398458836137315E-15
   8.829056990491925E-15   9.281732381354843E-15   9.757616932616028E-15
   1.025790060312629E-14   1.078383436221210E-14   1.133673331774785E-14
   1.191798000460799E-14   1.252902784172156E-14   1.317140476637334E-14
   1.384671705483989E-14   1.455665333891297E-14   1.530298882835504E-14
   1.608758974984404E-14   1.691241801350767E-14   1.777953611871606E-14
   1.869111231139891E-14   1.964942600578434E-14   2.065687348411574E-14
   2.171597388859886E-14   2.282937552056283E-14   2.399986246258492E-14
   2.523036154013928E-14   2.652394964017629E-14   2.788386140493305E-14
   2.931349732021402E-14   3.081643221836519E-14   3.239642421720547E-14
   3.405742411726601E-14   3.580358528083534E-14   3.763927401751428E-14
   3.956908050224742E-14   4.159783025313471E-14   4.373059619772144E-14
   4.597271135793928E-14   4.832978218541803E-14   5.080770258051076E-14
   5.341266863009012E-14   5.615119410096589E-14   5.903012672766522E-14
   6.205666533530552E-14   6.523837784037162E-14   6.858322017441332E-14
   7.209955617797878E-14   7.579617851452962E-14   7.968233065663506E-14
   8.376772999941692E-14   8.806259215904695E-14   9.257765651705102E-14
   9.732421307429466E-14   1.023141306818006E-13   1.075598867189849E-13
   1.130745982935291E-13   1.188720550408974E-13   1.249667536055185E-13
   1.313739338898522E-13   1.381096171619766E-13   1.451906461169934E-13
   1.526347269924160E-13   1.604604738428557E-13   1.686874550847143E-13
   1.773362424272640E-13   1.864284623124730E-13   1.959868499921994E-13
   2.060353063779719E-13   2.165989578055156E-13   2.277042188634545E-13
   2.393788584433063E-13   2.516520691759177E-13   2.645545404279706E-13
   2.781185350410890E-13   2.923779700054212E-13   3.073685012694395E-13
   3.231276128980087E-13   3.396947108016697E-13   3.571112212715129E-13
   3.754206945660079E-13   3.946689138088363E-13   4.149040094700016E-13
   4.361765797164906E-13   4.585398169334171E-13   4.820496407320054E-13
   5.067648377770166E-13   5.327472087832385E-13   5.600617230486118E-13
   5.887766809104021E-13   6.189638845306209E-13   6.506988174377673E-13
   6.840608332738201E-13   7.191333542184305E-13   7.560040795864965E-13
   7.947652051206799E-13   8.355136535272405E-13   8.783513168316090E-13
   9.233853111597209E-13   9.707282445821906E-13   1.020498498691031E-12
   1.072820524613046E-12   1.127825154200038E-12   1.185649927173954E-12
   1.246439435045018E-12   1.310345682662749E-12   1.377528468303991E-12
   1.448155783248291E-12   1.522404231839780E-12   1.600459473085928E-12
   1.682516684897296E-12   1.768781052129219E-12   1.859468279645662E-12
   1.954805131688167E-12   2.055029998898619E-12   2.160393494413522E-12
   2.271159080520453E-12   2.387603727443502E-12   2.510018605905010E-12
   2.638709815195356E-12   2.773999148571189E-12   2.916224897896084E-12
   3.065742699535502E-12   3.222926423621158E-12   3.388169108908471E-12
   3.561883945564442E-12   3.744505308343606E-12   3.936489842735285E-12
   4.138317606798048E-12   4.350493271536515E-12   4.573547382821767E-12
   4.808037688011010E-12   5.054550530583365E-12   5.313702316279065E-12
   5.586141054408104E-12   5.872547978182021E-12   6.173639248120643E-12
   6.490167742792808E-12   6.822924941368663E-12   7.172742902690959E-12
   7.540496345813168E-12   7.927104837207742E-12   8.333535090112079E-12
   8.760803381762542E-12   9.209978094560228E-12   9.682182387521871E-12
   1.017859700469685E-11   1.070046322757085E-11   1.124908597883950E-11
   1.182583708531239E-11   1.243215870810503E-11   1.306956694869742E-11
   1.373965563987343E-11   1.444410033102154E-11   1.518466247776095E-11
   1.596319384636803E-11   1.678164114401740E-11   1.764205088641276E-11
   1.854657451497992E-11   1.949747377641628E-11   2.049712637804631E-11
   2.154803193312596E-11   2.265281821095790E-11   2.381424770744751E-11
   2.503522455252736E-11   2.631880177171922E-11   2.766818891999364E-11
   2.908676010700915E-11   3.057806243380068E-11   3.214582486200960E-11
   3.379396753782972E-11   3.552661159398571E-11   3.734808945424640E-11
   3.926295566624102E-11   4.127599828966250E-11   4.339225086832772E-11
   4.561700501603495E-11   4.795582364767775E-11   5.041455488870287E-11
   5.299934669768639E-11   5.571666223858515E-11   5.857329604110438E-11
   6.157639098957701E-11   6.473345618283695E-11   6.805238570973735E-11
   7.154147838725207E-11   7.520945851051799E-11   7.906549766668578E-11
   8.311923766712530E-11   8.738081465531728E-11   9.186088445069857E-11
   9.657064919183650E-11   1.015218853455273E-10   1.067269731518576E-10
   1.121989275788381E-10   1.179514308639959E-10   1.239988667242927E-10
   1.303563563198802E-10   1.370397960616172E-10   1.440658973568641E-10
   1.514522283929113E-10   1.592172580625220E-10   1.673804021413766E-10
   1.759620718328825E-10   1.849837248017024E-10   1.944679188235742E-10
   2.044383681855666E-10   2.149200029777377E-10   2.259390314244441E-10
   2.375230054111170E-10   2.497008893702956E-10   2.625031326991632E-10
   2.759617458895720E-10   2.901103805609056E-10   3.049844135958341E-10
   3.206210355892653E-10   3.370593438316419E-10   3.543404400589606E-10
   3.725075332139136E-10   3.916060474749994E-10   4.116837358236470E-10
   4.327907994332473E-10   4.549800131785019E-10   4.783068575788391E-10
   5.028296575056947E-10   5.286097280003600E-10   5.557115275669029E-10
   5.842028193232928E-10   6.141548404135594E-10   6.456424801044130E-10
   6.787444670114707E-10   7.135435659230679E-10   7.501267847135698E-10
   7.885855918633710E-10   8.290161451292251E-10   8.715195319364165E-10
   9.162020220936188E-10   9.631753334620005E-10   1.012556911242582E-09
   1.064470221579825E-09   1.119045060215201E-09   1.176417876962155E-09
   1.236732116813290E-09   1.300138578532292E-09   1.366795791626673E-09
   1.436870412643399E-09   1.510537641777754E-09   1.587981660836440E-09
   1.669396093649399E-09   1.754984490080818E-09   1.844960834848707E-09
   1.939550082424574E-09   2.038988719349603E-09   2.143525355372478E-09
   2.253421344885849E-09   2.368951440214060E-09   2.490404478384483E-09
   2.618084103098244E-09   2.752309523704150E-09   2.893416311390137E-09
   3.041757245571244E-09   3.197703182440240E-09   3.361643992645232E-09
   3.533989530972341E-09   3.715170663813655E-09   3.905640343019818E-09
   4.105874740470856E-09   4.316374435218870E-09   4.537665667184904E-09
   4.770301650661850E-09   5.014863960119634E-09   5.271963979512585E-09
   5.542244430180416E-09   5.826380982737324E-09   6.125083939965168E-09
   6.439100012647258E-09   6.769214187863109E-09   7.116251690026411E-09
   7.481080041513060E-09   7.864611230507499E-09   8.267803995066713E-09
   8.691666208875943E-09   9.137257407695584E-09   9.605691437821432E-09
   1.009813922713412E-08   1.061583172703444E-08   1.116006299586915E-08
   1.173219337676548E-08   1.233365298569731E-08   1.296594517692466E-08
   1.363065042277117E-08   1.432943014761365E-08   1.506403094593202E-08
   1.583628892451887E-08   1.664813430631383E-08   1.750159621201733E-08
   1.839880778171559E-08   1.934201145350886E-08   2.033356460719619E-08
   2.137594542680760E-08   2.247175908806254E-08   2.362374427582864E-08
   2.483478004298769E-08   2.610789297400694E-08   2.744626471161664E-08
   2.885324001650120E-08   3.033233497170115E-08   3.188724588048019E-08
   3.352185843098544E-08   3.524025744799859E-08   3.704673703807344E-08
   3.894581132697110E-08   4.094222580112949E-08   4.304096904356489E-08
   4.524728526099368E-08   4.756668734704903E-08   5.000497066421925E-08
   5.256822750528108E-08   5.526286228264989E-08   5.809560753159764E-08
   6.107354071809159E-08   6.420410189718499E-08   6.749511226661316E-08
   7.095479370122933E-08   7.459178930773731E-08   7.841518488511356E-08
   8.243453170648570E-08   8.665987032851457E-08   9.110175553994487E-08
   9.577128286512302E-08   1.006801161220463E-07   1.058405165304833E-07
   1.112653733094297E-07   1.169682359084433E-07   1.229633475875474E-07
   1.292656812247008E-07   1.358909763635920E-07   1.428557787086576E-07
   1.501774812327517E-07   1.578743676338162E-07   1.659656577634048E-07
   1.744715556204469E-07   1.834132998823744E-07   1.928132165966205E-07
   2.026947748932490E-07   2.130826455429063E-07   2.240027623321192E-07
   2.354823867211314E-07   2.475501758965357E-07   2.602362538161879E-07
   2.735722866133720E-07   2.875915612897993E-07   3.023290685709482E-07
   3.178215901486923E-07   3.341077902521994E-07   3.512283117693706E-07
   3.692258775601880E-07   3.881453967632039E-07   4.080340765430215E-07
   4.289415396103497E-07   4.509199476189452E-07   4.740241309397517E-07
   4.983117250976317E-07   5.238433141256939E-07   5.506825811013503E-07
   5.788964668117000E-07   6.085553357062725E-07   6.397331512690588E-07
   6.725076594670522E-07   7.069605822279979E-07   7.431778203635312E-07
   7.812496669297784E-07   8.212710315991729E-07   8.633416762985765E-07
   9.075664628574878E-07   9.540556134453756E-07   1.002924984118304E-06
   1.054296352205822E-06   1.108297718604100E-06   1.165063625161745E-06
   1.224735488534488E-06   1.287461950587063E-06   1.353399247099835E-06
   1.422711594919967E-06   1.495571598795762E-06   1.572160679180874E-06
   1.652669521376250E-06   1.737298547760922E-06   1.826258414074788E-06
   1.919770530506819E-06   2.018067609826149E-06   2.121394242725367E-06
   2.230007502980044E-06   2.344177582707697E-06   2.464188460446063E-06
   2.590338602429904E-06   2.722941700183847E-06   2.862327444815513E-06
   3.008842341025424E-06   3.162850562065718E-06   3.324734848047790E-06
   3.494897449927120E-06   3.673761120897767E-06   3.861770158091431E-06
   4.059391497339993E-06   4.267115862418656E-06   4.485458973318299E-06
   4.714962814691402E-06   4.956196969195667E-06   5.209760017300708E-06
   5.476281008301739E-06   5.756421005386526E-06   6.050874708238115E-06
   6.360372158065688E-06   6.685680527931317E-06   7.027606003357531E-06
   7.386995757667347E-06   7.764740026725348E-06   8.161774287670740E-06
   8.579081547430906E-06   9.017694745844196E-06   9.478699279984223E-06
   9.963235654138812E-06   1.047250226356730E-05   1.100775831735824E-05
   1.157032690733837E-05   1.216159823121534E-05   1.278303297621332E-05
   1.343616587239097E-05   1.412260942302221E-05   1.484405782137944E-05
   1.560229106262031E-05   1.639917926104956E-05   1.723668718182902E-05
   1.811687899847556E-05   1.904192328694752E-05   2.001409826785224E-05
   2.103579730866468E-05   2.210953469898525E-05   2.323795171203493E-05
   2.442382296622401E-05   2.567006310124592E-05   2.697973378429871E-05
   2.835605106197515E-05   2.980239307487376E-05   3.132230815222881E-05
   3.291952330471244E-05   3.459795313530071E-05   3.636170918694136E-05
   3.821510974922734E-05   4.016269014533422E-05   4.220921352219641E-05
   4.435968216810086E-05   4.661934938238511E-05   4.899373192389233E-05
   5.148862306498893E-05   5.411010628034931E-05   5.686456959989822E-05
   5.975872065695813E-05   6.279960246497018E-05   6.599460995609376E-05
   6.935150731698694E-05   7.287844616000917E-05   7.658398456694743E-05
   8.047710704671198E-05   8.456724544883356E-05   8.886430087594362E-05
   9.337866664233123E-05   9.812125232452497E-05   1.031035089549182E-04
   1.083374554094418E-04   1.138357060435357E-04   1.196114996316928E-04
   1.256787296698763E-04   1.320519761009056E-04   1.387465385257989E-04
   1.457784709672257E-04   1.531646182525113E-04   1.609226540872104E-04
   1.690711208937181E-04   1.776294714891101E-04   1.866181126836772E-04
   1.960584508806679E-04   2.059729397629787E-04   2.163851301546427E-04
   2.273197221488611E-04   2.388026195963884E-04   2.508609870523411E-04
   2.635233092823625E-04   2.768194534323759E-04   2.907807339696800E-04
   3.054399805063810E-04   3.208316086196373E-04   3.369916937870077E-04
   3.539580485575919E-04   3.717703030844848E-04   3.904699891464203E-04
   4.101006277901843E-04   4.307078207289279E-04   4.523393456342078E-04
   4.750452554637598E-04   4.988779819682953E-04   5.238924435260225E-04
   5.501461574535611E-04   5.776993569471582E-04   6.066151128080180E-04
   6.369594601098684E-04   6.688015299666536E-04   7.022136865614767E-04
   7.372716695978053E-04   7.740547423350593E-04   8.126458453708862E-04
   8.531317563320266E-04   8.956032556347135E-04   9.401552984741491E-04
   9.868871932000036E-04   1.035902786231657E-03   1.087310653663512E-03
   1.141224299704894E-03   1.197762362093913E-03   1.257048824616182E-03
   1.319213236852387E-03   1.384390941267093E-03   1.452723307741346E-03
   1.524357975637414E-03   1.599449103469590E-03   1.678157626238581E-03
   1.760651520466971E-03   1.847106076953855E-03   1.937704181241270E-03
   2.032636601760072E-03   2.132102285593730E-03   2.236308661765558E-03
   2.345471951920663E-03   2.459817488234233E-03   2.579580038335443E-03
   2.705004136989445E-03   2.836344424229489E-03   2.973865989574978E-03
   3.117844721911661E-03   3.268567664544147E-03   3.426333374860278E-03
   3.591452287969941E-03   3.764247083597899E-03   3.945053055421375E-03
   4.134218481945294E-03   4.332104997906949E-03   4.539087965088234E-03
   4.755556841296174E-03   4.981915546144218E-03   5.218582822131050E-03
   5.465992589367528E-03   5.724594292148341E-03   5.994853235400058E-03
   6.277250908861502E-03   6.572285296668337E-03   6.880471169815904E-03
   7.202340358767456E-03   7.538442003256336E-03   7.889342776098629E-03
   8.255627077592071E-03   8.637897196821172E-03   9.036773435922513E-03
   9.452894193086345E-03   9.886915999779429E-03   1.033951350737298E-02
   1.081137941804626E-02   1.130322435451146E-02   1.181577666277317E-02
   1.234978214178956E-02   1.290600369355210E-02   1.348522088674007E-02
   1.408822942673949E-02   1.471584052444802E-02   1.536888015591203E-02
   1.604818820447088E-02   1.675461747671089E-02   1.748903258316556E-02
   1.825230867434107E-02   1.904533002229845E-02   1.986898843769432E-02
   2.072418151187068E-02   2.161181067329954E-02   2.253277904743491E-02
   2.348798910880566E-02   2.447834011401150E-02   2.550472530416102E-02
   2.656802886522699E-02   2.766912263480195E-02   2.880886254381559E-02
   2.998808478194846E-02   3.120760167574326E-02   3.246819726879278E-02
   3.377062259388698E-02   3.511559062763517E-02   3.650377091886840E-02
   3.793578388307620E-02   3.941219475626181E-02   4.093350720292750E-02
   4.250015657443684E-02   4.411250281576859E-02   4.577082302068809E-02
   4.747530363763620E-02   4.922603233119412E-02   5.102298950683127E-02
   5.286603950981340E-02   5.475492151264288E-02   5.668924010924311E-02
   5.866845563830082E-02   6.069187426274485E-02   6.275863783728712E-02
   6.486771360128459E-02   6.701788373989526E-02   6.920773486261345E-02
   7.143564745474960E-02   7.369978536428026E-02   7.599808539370419E-02
   7.832824707407189E-02   8.068772270620350E-02   8.307370776218373E-02
   8.548313174853088E-02   8.791264964087410E-02   9.035863400847478E-02
   9.281716795544007E-02   9.528403901384250E-02   9.775473413212872E-02
   1.002244359099992E-01   1.026880202382337E-01   1.051400555085953E-01
   1.075748035647327E-01   1.099862225697815E-01   1.123679719698987E-01
   1.147134197350051E-01   1.170156520583834E-01   1.192674856951328E-01
   1.214614831156420E-01   1.235899706438700E-01   1.256450597410488E-01
   1.276186715831975E-01   1.295025650652061E-01   1.312883683450227E-01
   1.329676140183251E-01   1.345317779867821E-01   1.359723220514023E-01
   1.372807402263302E-01   1.384486087277109E-01   1.394676395468055E-01
   1.403297374664400E-01   1.410270603252121E-01   1.415520822748402E-01
   1.418976597129523E-01   1.420570995068869E-01   1.420242290542836E-01
   1.417934676540859E-01   1.413598985879111E-01   1.407193412375832E-01
   1.398684224911362E-01   1.388046466181136E-01   1.375264627269837E-01
   1.360333288545746E-01   1.343257716813380E-01   1.324054408187761E-01
   1.302751565784015E-01   1.279389501069702E-01   1.254020947622954E-01
   1.226711276093538E-01   1.197538599391638E-01   1.166593757542533E-01
   1.133980172252406E-01   1.099813562035275E-01   1.064221509750788E-01
   1.027342875588332E-01   9.893270498880891E-02   9.503330416880333E-02
   9.105284004938459E-02   8.700879704411804E-02   8.291924777038917E-02
   7.880269536355544E-02   7.467789976447783E-02   7.056368851238899E-02
   6.647875267975635E-02   6.244142865590487E-02   5.846946651491836E-02
   5.457978568535869E-02   5.078821857158441E-02   4.710924265876670E-02
   4.355570147029850E-02   4.013851454652435E-02   3.686637639341517E-02
   3.374544413253278E-02   3.077901340158346E-02   2.796718195007799E-02
   2.530650039953920E-02   2.278960985532685E-02   2.040814679536840E-02
   1.816351955943896E-02   1.605914527266611E-02   1.409744056899875E-02
   1.227978847402039E-02   1.060651585114014E-02   9.076882409247006E-03
   7.689082174036521E-03   6.440258203534888E-03   5.326531180444849E-03
   4.343042339735342E-03   3.484010990164238E-03   2.742806664336600E-03
   2.112035685432556E-03   1.583641672566249E-03   1.149019224064657E-03
   7.991397227623265E-04   5.246879040730901E-04   3.162075208964776E-04
   1.642541345109050E-04   5.955276237157303E-05  -6.842172780185951E-06
  -4.338741861503737E-05  -5.789507069720035E-05  -5.738365710741822E-05
  -4.793964014249141E-05  -3.459302543246112E-05  -2.121092630089083E-05
  -1.041306819532517E-05  -3.513337706873010E-06  -4.915869579319443E-07
  -4.163336342344337E-17   0.000000000000000E+00   0.000000000000000E+00
   0.000000000000000E+00   0.000000000000000E+00   0.000000000000000E+00
   0.000000000000000E+00   0.000000000000000E+00   0.000000000000000E+00
   0.000000000000000E+00   0.000000000000000E+00   0.000000000000000E+00
   0.000000000000000E+00   0.000000000000000E+00   0.000000000000000E+00
   0.000000000000000E+00   0.000000000000000E+00   0.000000000000000E+00
   0.000000000000000E+00   0.000000000000000E+00   0.000000000000000E+00
   0.000000000000000E+00   0.000000000000000E+00   0.000000000000000E+00
   0.000000000000000E+00   0.000000000000000E+00   0.000000000000000E+00
   0.000000000000000E+00   0.000000000000000E+00   0.000000000000000E+00
   0.000000000000000E+00   0.000000000000000E+00   0.000000000000000E+00
   0.000000000000000E+00   0.000000000000000E+00   0.000000000000000E+00
   0.000000000000000E+00   0.000000000000000E+00   0.000000000000000E+00
   0.000000000000000E+00   0.000000000000000E+00   0.000000000000000E+00
   0.000000000000000E+00   0.000000000000000E+00   0.000000000000000E+00
   0.000000000000000E+00   0.000000000000000E+00   0.000000000000000E+00
   0.000000000000000E+00   0.000000000000000E+00   0.000000000000000E+00
   0.000000000000000E+00   0.000000000000000E+00   0.000000000000000E+00
   0.000000000000000E+00   0.000000000000000E+00   0.000000000000000E+00
   0.000000000000000E+00   0.000000000000000E+00   0.000000000000000E+00
   0.000000000000000E+00   0.000000000000000E+00   0.000000000000000E+00
   0.000000000000000E+00   0.000000000000000E+00   0.000000000000000E+00
   0.000000000000000E+00   0.000000000000000E+00   0.000000000000000E+00
   0.000000000000000E+00   0.000000000000000E+00   0.000000000000000E+00
   0.000000000000000E+00   0.000000000000000E+00   0.000000000000000E+00
   0.000000000000000E+00   0.000000000000000E+00   0.000000000000000E+00
   0.000000000000000E+00   0.000000000000000E+00   0.000000000000000E+00
   0.000000000000000E+00   0.000000000000000E+00   0.000000000000000E+00
   0.000000000000000E+00   0.000000000000000E+00   0.000000000000000E+00
   0.000000000000000E+00   0.000000000000000E+00   0.000000000000000E+00
   0.000000000000000E+00   0.000000000000000E+00   0.000000000000000E+00
   0.000000000000000E+00   0.000000000000000E+00   0.000000000000000E+00
   0.000000000000000E+00   0.000000000000000E+00   0.000000000000000E+00
   0.000000000000000E+00   0.000000000000000E+00   0.000000000000000E+00
   0.000000000000000E+00   0.000000000000000E+00   0.000000000000000E+00
   0.000000000000000E+00   0.000000000000000E+00   0.000000000000000E+00
   0.000000000000000E+00   0.000000000000000E+00   0.000000000000000E+00
   0.000000000000000E+00   0.000000000000000E+00   0.000000000000000E+00
   0.000000000000000E+00   0.000000000000000E+00   0.000000000000000E+00
   0.000000000000000E+00   0.000000000000000E+00   0.000000000000000E+00
   0.000000000000000E+00   0.000000000000000E+00   0.000000000000000E+00
   0.000000000000000E+00   0.000000000000000E+00   0.000000000000000E+00
   0.000000000000000E+00   0.000000000000000E+00   0.000000000000000E+00
   0.000000000000000E+00   0.000000000000000E+00   0.000000000000000E+00
   0.000000000000000E+00   0.000000000000000E+00   0.000000000000000E+00
   0.000000000000000E+00   0.000000000000000E+00   0.000000000000000E+00
   0.000000000000000E+00   0.000000000000000E+00   0.000000000000000E+00
   0.000000000000000E+00   0.000000000000000E+00   0.000000000000000E+00
   0.000000000000000E+00   0.000000000000000E+00   0.000000000000000E+00
   0.000000000000000E+00   0.000000000000000E+00   0.000000000000000E+00
   0.000000000000000E+00   0.000000000000000E+00   0.000000000000000E+00
   0.000000000000000E+00   0.000000000000000E+00   0.000000000000000E+00
   0.000000000000000E+00   0.000000000000000E+00   0.000000000000000E+00
   0.000000000000000E+00   0.000000000000000E+00   0.000000000000000E+00
   0.000000000000000E+00   0.000000000000000E+00   0.000000000000000E+00
   0.000000000000000E+00   0.000000000000000E+00   0.000000000000000E+00
   0.000000000000000E+00   0.000000000000000E+00   0.000000000000000E+00
   0.000000000000000E+00   0.000000000000000E+00   0.000000000000000E+00
   0.000000000000000E+00   0.000000000000000E+00   0.000000000000000E+00
   0.000000000000000E+00   0.000000000000000E+00   0.000000000000000E+00
   0.000000000000000E+00   0.000000000000000E+00   0.000000000000000E+00
   0.000000000000000E+00   0.000000000000000E+00   0.000000000000000E+00
   0.000000000000000E+00   0.000000000000000E+00   0.000000000000000E+00
   0.000000000000000E+00   0.000000000000000E+00   0.000000000000000E+00
   0.000000000000000E+00   0.000000000000000E+00   0.000000000000000E+00
   0.000000000000000E+00   0.000000000000000E+00   0.000000000000000E+00
   0.000000000000000E+00   0.000000000000000E+00   0.000000000000000E+00
   0.000000000000000E+00   0.000000000000000E+00   0.000000000000000E+00
   0.000000000000000E+00   0.000000000000000E+00   0.000000000000000E+00
   0.000000000000000E+00   0.000000000000000E+00   0.000000000000000E+00
   0.000000000000000E+00   0.000000000000000E+00   0.000000000000000E+00
   0.000000000000000E+00   0.000000000000000E+00   0.000000000000000E+00
   0.000000000000000E+00   0.000000000000000E+00   0.000000000000000E+00
   0.000000000000000E+00   0.000000000000000E+00   0.000000000000000E+00
   0.000000000000000E+00   0.000000000000000E+00   0.000000000000000E+00
   0.000000000000000E+00   0.000000000000000E+00   0.000000000000000E+00
   0.000000000000000E+00   0.000000000000000E+00   0.000000000000000E+00
   0.000000000000000E+00   0.000000000000000E+00   0.000000000000000E+00
   0.000000000000000E+00   0.000000000000000E+00   0.000000000000000E+00
   0.000000000000000E+00   0.000000000000000E+00   0.000000000000000E+00
   0.000000000000000E+00   0.000000000000000E+00   0.000000000000000E+00
   0.000000000000000E+00   0.000000000000000E+00   0.000000000000000E+00
   0.000000000000000E+00   0.000000000000000E+00   0.000000000000000E+00
   0.000000000000000E+00   0.000000000000000E+00   0.000000000000000E+00
   0.000000000000000E+00   0.000000000000000E+00   0.000000000000000E+00
   0.000000000000000E+00   0.000000000000000E+00   0.000000000000000E+00
   0.000000000000000E+00   0.000000000000000E+00   0.000000000000000E+00
   0.000000000000000E+00   0.000000000000000E+00   0.000000000000000E+00
   0.000000000000000E+00   0.000000000000000E+00   0.000000000000000E+00
   0.000000000000000E+00   0.000000000000000E+00   0.000000000000000E+00
   0.000000000000000E+00   0.000000000000000E+00   0.000000000000000E+00
   0.000000000000000E+00   0.000000000000000E+00   0.000000000000000E+00
   0.000000000000000E+00   0.000000000000000E+00   0.000000000000000E+00
   0.000000000000000E+00   0.000000000000000E+00   0.000000000000000E+00
   0.000000000000000E+00   0.000000000000000E+00   0.000000000000000E+00
   0.000000000000000E+00   0.000000000000000E+00   0.000000000000000E+00
   0.000000000000000E+00   0.000000000000000E+00   0.000000000000000E+00
   0.000000000000000E+00   0.000000000000000E+00   0.000000000000000E+00
   0.000000000000000E+00   0.000000000000000E+00   0.000000000000000E+00
   0.000000000000000E+00   0.000000000000000E+00   0.000000000000000E+00
   0.000000000000000E+00   0.000000000000000E+00   0.000000000000000E+00
   0.000000000000000E+00   0.000000000000000E+00   0.000000000000000E+00
   0.000000000000000E+00   0.000000000000000E+00   0.000000000000000E+00
   0.000000000000000E+00   0.000000000000000E+00   0.000000000000000E+00
   0.000000000000000E+00   0.000000000000000E+00   0.000000000000000E+00
   0.000000000000000E+00   0.000000000000000E+00   0.000000000000000E+00
   0.000000000000000E+00   0.000000000000000E+00   0.000000000000000E+00
   0.000000000000000E+00   0.000000000000000E+00   0.000000000000000E+00
   0.000000000000000E+00   0.000000000000000E+00   0.000000000000000E+00
   0.000000000000000E+00   0.000000000000000E+00   0.000000000000000E+00
   0.000000000000000E+00   0.000000000000000E+00   0.000000000000000E+00
   0.000000000000000E+00   0.000000000000000E+00   0.000000000000000E+00
   0.000000000000000E+00   0.000000000000000E+00   0.000000000000000E+00
   0.000000000000000E+00   0.000000000000000E+00   0.000000000000000E+00
   0.000000000000000E+00   0.000000000000000E+00   0.000000000000000E+00
      </PP_QIJL.4.4.2>
    </PP_AUGMENTATION>
  </PP_NONLOCAL>
  <PP_PSWFC>
    <PP_CHI.1 size="1095" index="1" label="2S" l="0" occupation="2.0000000000000000" n="1" cutoff_radius="1.0000000000000000" ultrasoft_cutoff_radius="1.3000000000000000">
   2.435523510163504E-04   2.466158623890930E-04   2.497179079884261E-04
   2.528589725151461E-04   2.560395467668308E-04   2.592601277145275E-04
   2.625212185804058E-04   2.658233289163861E-04   2.691669746837579E-04
   2.725526783338004E-04   2.759809688894160E-04   2.794523820277901E-04
   2.829674601640927E-04   2.865267525362308E-04   2.901308152906688E-04
   2.937802115693257E-04   2.974755115975678E-04   3.012172927733061E-04
   3.050061397572176E-04   3.088426445640973E-04   3.127274066553628E-04
   3.166610330327207E-04   3.206441383330110E-04   3.246773449242443E-04
   3.287612830028498E-04   3.328965906921426E-04   3.370839141420323E-04
   3.413239076299836E-04   3.456172336632482E-04   3.499645630823852E-04
   3.543665751660758E-04   3.588239577372658E-04   3.633374072706359E-04
   3.679076290014287E-04   3.725353370356424E-04   3.772212544616084E-04
   3.819661134629774E-04   3.867706554331227E-04   3.916356310909826E-04
   3.965618005983644E-04   4.015499336787164E-04   4.066008097374005E-04
   4.117152179834757E-04   4.168939575530093E-04   4.221378376339466E-04
   4.274476775925451E-04   4.328243071014011E-04   4.382685662690878E-04
   4.437813057714215E-04   4.493633869843828E-04   4.550156821187038E-04
   4.607390743561550E-04   4.665344579875412E-04   4.724027385524359E-04
   4.783448329806721E-04   4.843616697356134E-04   4.904541889592245E-04
   4.966233426189727E-04   5.028700946565690E-04   5.091954211385915E-04
   5.156003104089874E-04   5.220857632435087E-04   5.286527930060801E-04
   5.353024258071376E-04   5.420357006639611E-04   5.488536696630203E-04
   5.557573981243600E-04   5.627479647680591E-04   5.698264618827800E-04
   5.769939954964427E-04   5.842516855490342E-04   5.916006660676037E-04
   5.990420853434540E-04   6.065771061115586E-04   6.142069057322448E-04
   6.219326763751494E-04   6.297556252054969E-04   6.376769745727200E-04
   6.456979622014498E-04   6.538198413849088E-04   6.620438811807396E-04
   6.703713666092926E-04   6.788035988544086E-04   6.873418954667264E-04
   6.959875905695552E-04   7.047420350673227E-04   7.136065968566554E-04
   7.225826610401115E-04   7.316716301425998E-04   7.408749243305262E-04
   7.501939816336862E-04   7.596302581699610E-04   7.691852283728295E-04
   7.788603852217461E-04   7.886572404754195E-04   7.985773249080190E-04
   8.086221885483571E-04   8.187934009220744E-04   8.290925512968788E-04
   8.395212489308648E-04   8.500811233239504E-04   8.607738244724890E-04
   8.716010231270744E-04   8.825644110535899E-04   8.936657012975446E-04
   9.049066284517296E-04   9.162889489272421E-04   9.278144412279203E-04
   9.394849062282243E-04   9.513021674546272E-04   9.632680713705195E-04
   9.753844876647252E-04   9.876533095436253E-04   1.000076454026965E-03
   1.012655862247383E-03   1.025393499753701E-03   1.038291356818035E-03
   1.051351448746757E-03   1.064575816195388E-03   1.077966525487435E-03
   1.091525668937244E-03   1.105255365176912E-03   1.119157759487309E-03
   1.133235024133270E-03   1.147489358702995E-03   1.161922990451722E-03
   1.176538174649717E-03   1.191337194934655E-03   1.206322363668406E-03
   1.221496022298345E-03   1.236860541723170E-03   1.252418322663347E-03
   1.268171796036193E-03   1.284123423335696E-03   1.300275697017100E-03
   1.316631140886329E-03   1.333192310494311E-03   1.349961793536255E-03
   1.366942210255956E-03   1.384136213855186E-03   1.401546490908224E-03
   1.419175761781612E-03   1.437026781059174E-03   1.455102337972397E-03
   1.473405256836219E-03   1.491938397490280E-03   1.510704655745753E-03
   1.529706963837777E-03   1.548948290883573E-03   1.568431643346338E-03
   1.588160065504954E-03   1.608136639929625E-03   1.628364487963478E-03
   1.648846770210230E-03   1.669586687027987E-03   1.690587479029238E-03
   1.711852427587158E-03   1.733384855348271E-03   1.755188126751547E-03
   1.777265648554046E-03   1.799620870363162E-03   1.822257285175555E-03
   1.845178429922868E-03   1.868387886024298E-03   1.891889279946142E-03
   1.915686283768319E-03   1.939782615758099E-03   1.964182040950967E-03
   1.988888371738843E-03   2.013905468465680E-03   2.039237240030537E-03
   2.064887644498268E-03   2.090860689717857E-03   2.117160433948549E-03
   2.143790986493851E-03   2.170756508343475E-03   2.198061212823416E-03
   2.225709366254123E-03   2.253705288617016E-03   2.282053354229346E-03
   2.310757992427532E-03   2.339823688259126E-03   2.369254983183441E-03
   2.399056475781002E-03   2.429232822471926E-03   2.459788738243312E-03
   2.490728997385799E-03   2.522058434239345E-03   2.553781943948437E-03
   2.585904483226766E-03   2.618431071131483E-03   2.651366789847251E-03
   2.684716785480100E-03   2.718486268861283E-03   2.752680516361258E-03
   2.787304870713833E-03   2.822364741850780E-03   2.857865607746815E-03
   2.893813015275289E-03   2.930212581074610E-03   2.967069992425516E-03
   3.004391008139448E-03   3.042181459458011E-03   3.080447250963807E-03
   3.119194361502664E-03   3.158428845117470E-03   3.198156831993769E-03
   3.238384529417193E-03   3.279118222742965E-03   3.320364276377579E-03
   3.362129134772771E-03   3.404419323432064E-03   3.447241449929883E-03
   3.490602204943500E-03   3.534508363297989E-03   3.578966785024206E-03
   3.623984416430188E-03   3.669568291185916E-03   3.715725531421743E-03
   3.762463348840637E-03   3.809789045844344E-03   3.857710016673773E-03
   3.906233748563644E-03   3.955367822911644E-03   4.005119916462315E-03
   4.055497802505754E-03   4.106509352091421E-03   4.158162535257148E-03
   4.210465422273595E-03   4.263426184904376E-03   4.317053097681921E-03
   4.371354539199459E-03   4.426338993419152E-03   4.482015050996668E-03
   4.538391410622430E-03   4.595476880379629E-03   4.653280379119370E-03
   4.711810937852993E-03   4.771077701161948E-03   4.831089928625349E-03
   4.891856996265358E-03   4.953388398010893E-03   5.015693747179515E-03
   5.078782777978038E-03   5.142665347021911E-03   5.207351434873685E-03
   5.272851147600807E-03   5.339174718352910E-03   5.406332508958890E-03
   5.474335011544088E-03   5.543192850167710E-03   5.612916782480781E-03
   5.683517701404894E-03   5.755006636832043E-03   5.827394757345727E-03
   5.900693371963685E-03   5.974913931902436E-03   6.050068032363994E-03
   6.126167414344915E-03   6.203223966468099E-03   6.281249726837502E-03
   6.360256884916101E-03   6.440257783427411E-03   6.521264920280799E-03
   6.603290950520931E-03   6.686348688301693E-03   6.770451108884782E-03
   6.855611350663328E-03   6.941842717210927E-03   7.029158679356237E-03
   7.117572877283656E-03   7.207099122660237E-03   7.297751400789221E-03
   7.389543872790568E-03   7.482490877808779E-03   7.576606935248306E-03
   7.671906747036975E-03   7.768405199917712E-03   7.866117367768892E-03
   7.965058513953814E-03   8.065244093699488E-03   8.166689756505148E-03
   8.269411348580934E-03   8.373424915317009E-03   8.478746703783588E-03
   8.585393165262105E-03   8.693380957808198E-03   8.802726948846491E-03
   8.913448217797906E-03   9.025562058739754E-03   9.139085983099071E-03
   9.254037722379567E-03   9.370435230922543E-03   9.488296688702292E-03
   9.607640504156438E-03   9.728485317051512E-03   9.850850001384271E-03
   9.974753668319182E-03   1.010021566916254E-02   1.022725559837368E-02
   1.035589329661363E-02   1.048614885383174E-02   1.061804261239087E-02
   1.075159517023129E-02   1.088682738407420E-02   1.102376037266481E-02
   1.116241552005608E-02   1.130281447893301E-02   1.144497917397846E-02
   1.158893180528075E-02   1.173469485178348E-02   1.188229107477840E-02
   1.203174352144151E-02   1.218307552841306E-02   1.233631072542204E-02
   1.249147303895555E-02   1.264858669597371E-02   1.280767622767064E-02
   1.296876647328195E-02   1.313188258393952E-02   1.329705002657388E-02
   1.346429458786496E-02   1.363364237824167E-02   1.380511983593090E-02
   1.397875373105666E-02   1.415457116978986E-02   1.433259959854929E-02
   1.451286680825427E-02   1.469540093863014E-02   1.488023048256651E-02
   1.506738429052946E-02   1.525689157502781E-02   1.544878191513463E-02
   1.564308526106424E-02   1.583983193880557E-02   1.603905265481247E-02
   1.624077850075146E-02   1.644504095830792E-02   1.665187190405121E-02
   1.686130361435938E-02   1.707336877040431E-02   1.728810046319772E-02
   1.750553219869905E-02   1.772569790298573E-02   1.794863192748659E-02
   1.817436905427925E-02   1.840294450145191E-02   1.863439392853064E-02
   1.886875344197275E-02   1.910605960072698E-02   1.934634942186131E-02
   1.958966038625900E-02   1.983603044438388E-02   2.008549802211538E-02
   2.033810202665448E-02   2.059388185250083E-02   2.085287738750227E-02
   2.111512901897732E-02   2.138067763991161E-02   2.164956465522878E-02
   2.192183198813715E-02   2.219752208655230E-02   2.247667792959691E-02
   2.275934303417869E-02   2.304556146164680E-02   2.333537782452822E-02
   2.362883729334410E-02   2.392598560350780E-02   2.422686906230502E-02
   2.453153455595676E-02   2.484002955676636E-02   2.515240213035113E-02
   2.546870094295960E-02   2.578897526887544E-02   2.611327499790845E-02
   2.644165064297401E-02   2.677415334776141E-02   2.711083489449236E-02
   2.745174771177037E-02   2.779694488252186E-02   2.814648015202991E-02
   2.850040793606149E-02   2.885878332908933E-02   2.922166211260896E-02
   2.958910076355195E-02   2.996115646279630E-02   3.033788710377497E-02
   3.071935130118313E-02   3.110560839978495E-02   3.149671848332162E-02
   3.189274238352045E-02   3.229374168920653E-02   3.269977875551764E-02
   3.311091671322333E-02   3.352721947814895E-02   3.394875176070560E-02
   3.437557907552676E-02   3.480776775121267E-02   3.524538494018263E-02
   3.568849862863695E-02   3.613717764662872E-02   3.659149167824646E-02
   3.705151127190833E-02   3.751730785076881E-02   3.798895372323835E-02
   3.846652209361709E-02   3.895008707284327E-02   3.943972368935669E-02
   3.993550790007833E-02   4.043751660150681E-02   4.094582764093207E-02
   4.146051982776722E-02   4.198167294499841E-02   4.250936776075469E-02
   4.304368603999703E-02   4.358471055632785E-02   4.413252510392115E-02
   4.468721450957386E-02   4.524886464487877E-02   4.581756243851973E-02
   4.639339588868872E-02   4.697645407562635E-02   4.756682717428460E-02
   4.816460646711279E-02   4.876988435696750E-02   4.938275438014528E-02
   5.000331121953917E-02   5.063165071791888E-02   5.126786989133437E-02
   5.191206694264280E-02   5.256434127515868E-02   5.322479350642732E-02
   5.389352548212071E-02   5.457064029005566E-02   5.525624227433456E-02
   5.595043704960628E-02   5.665333151544893E-02   5.736503387087161E-02
   5.808565362893631E-02   5.881530163149765E-02   5.955409006405980E-02
   6.030213247075000E-02   6.105954376940685E-02   6.182644026678182E-02
   6.260293967385391E-02   6.338916112125415E-02   6.418522517479885E-02
   6.499125385113029E-02   6.580737063346272E-02   6.663370048743028E-02
   6.747036987703628E-02   6.831750678070016E-02   6.917524070739957E-02
   7.004370271290576E-02   7.092302541610788E-02   7.181334301542386E-02
   7.271479130529475E-02   7.362750769275704E-02   7.455163121409145E-02
   7.548730255154314E-02   7.643466405010824E-02   7.739385973438354E-02
   7.836503532547298E-02   7.934833825794772E-02   8.034391769685262E-02
   8.135192455475423E-02   8.237251150882482E-02   8.340583301795457E-02
   8.445204533988696E-02   8.551130654836990E-02   8.658377655031406E-02
   8.766961710295340E-02   8.876899183099590E-02   8.988206624375968E-02
   9.100900775228354E-02   9.214998568640348E-02   9.330517131178456E-02
   9.447473784689761E-02   9.565886047993162E-02   9.685771638562930E-02
   9.807148474203338E-02   9.930034674713319E-02   1.005444856353966E-01
   1.018040866941746E-01   1.030793372799649E-01   1.043704268345192E-01
   1.056775469007774E-01   1.070008911386153E-01   1.083406553403871E-01
   1.096970374462446E-01   1.110702375592166E-01   1.124604579600274E-01
   1.138679031216343E-01   1.152927797234663E-01   1.167352966653383E-01
   1.181956650810187E-01   1.196740983514305E-01   1.211708121174549E-01
   1.226860242923169E-01   1.242199550735236E-01   1.257728269543281E-01
   1.273448647346894E-01   1.289362955316970E-01   1.305473487894316E-01
   1.321782562882250E-01   1.338292521532886E-01   1.355005728626730E-01
   1.371924572545206E-01   1.389051465335756E-01   1.406388842769088E-01
   1.423939164388167E-01   1.441704913548503E-01   1.459688597449304E-01
   1.477892747155006E-01   1.496319917606705E-01   1.514972687622972E-01
   1.533853659889551E-01   1.552965460937353E-01   1.572310741108216E-01
   1.591892174507809E-01   1.611712458945107E-01   1.631774315857764E-01
   1.652080490222730E-01   1.672633750451436E-01   1.693436888268850E-01
   1.714492718575631E-01   1.735804079292646E-01   1.757373831187022E-01
   1.779204857678949E-01   1.801300064628356E-01   1.823662380100569E-01
   1.846294754110044E-01   1.869200158341219E-01   1.892381585845499E-01
   1.915842050713327E-01   1.939584587720337E-01   1.963612251946431E-01
   1.987928118366658E-01   2.012535281412747E-01   2.037436854504044E-01
   2.062635969546578E-01   2.088135776398982E-01   2.113939442303893E-01
   2.140050151283443E-01   2.166471103497362E-01   2.193205514562225E-01
   2.220256614830310E-01   2.247627648626380E-01   2.275321873440826E-01
   2.303342559077392E-01   2.331692986753738E-01   2.360376448153026E-01
   2.389396244424579E-01   2.418755685131729E-01   2.448458087144792E-01
   2.478506773477091E-01   2.508905072061919E-01   2.539656314468139E-01
   2.570763834552248E-01   2.602230967044420E-01   2.634061046066201E-01
   2.666257403577279E-01   2.698823367748756E-01   2.731762261260293E-01
   2.765077399518354E-01   2.798772088792695E-01   2.832849624268270E-01
   2.867313288009471E-01   2.902166346833675E-01   2.937412050090942E-01
   2.973053627346548E-01   3.009094285963093E-01   3.045537208578656E-01
   3.082385550477544E-01   3.119642436849973E-01   3.157310959936994E-01
   3.195394176056806E-01   3.233895102508624E-01   3.272816714350035E-01
   3.312161941043795E-01   3.351933662969808E-01   3.392134707798088E-01
   3.432767846718274E-01   3.473835790521180E-01   3.515341185527919E-01
   3.557286609361806E-01   3.599674566558401E-01   3.642507484008761E-01
   3.685787706231008E-01   3.729517490465224E-01   3.773699001586529E-01
   3.818334306831191E-01   3.863425370330516E-01   3.908974047447224E-01
   3.954982078908885E-01   4.001451084733039E-01   4.048382557938458E-01
   4.095777858037059E-01   4.143638204300893E-01   4.191964668798568E-01
   4.240758169195595E-01   4.290019461312937E-01   4.339749131438189E-01
   4.389947588383877E-01   4.440615055287139E-01   4.491751561145445E-01
   4.543356932082825E-01   4.595430782341202E-01   4.647972504991681E-01
   4.700981262360552E-01   4.754455976164979E-01   4.808395317353705E-01
   4.862797695647887E-01   4.917661248777904E-01   4.972983831411762E-01
   5.028763003771349E-01   5.084996019932931E-01   5.141679815808627E-01
   5.198810996806179E-01   5.256385825164488E-01   5.314400206963126E-01
   5.372849678804403E-01   5.431729394167224E-01   5.491034109432502E-01
   5.550758169580732E-01   5.610895493562946E-01   5.671439559347144E-01
   5.732383388643107E-01   5.793719531309607E-01   5.855440049448803E-01
   5.917536501193900E-01   5.979999924197325E-01   6.042820818827745E-01
   6.105989131086046E-01   6.169494235251204E-01   6.233324916269234E-01
   6.297469351899440E-01   6.361915094634463E-01   6.426649053412183E-01
   6.491657475139715E-01   6.556925926051705E-01   6.622439272927616E-01
   6.688181664194742E-01   6.754136510946704E-01   6.820286467909321E-01
   6.886613414388947E-01   6.953098435241201E-01   7.019721801901055E-01
   7.086462953518723E-01   7.153300478249013E-01   7.220212094745536E-01
   7.287174633915106E-01   7.354164020991081E-01   7.421155257989147E-01
   7.488122406612883E-01   7.555038571680962E-01   7.621875885152808E-01
   7.688605490833593E-01   7.755197529845265E-01   7.821621126954584E-01
   7.887844377854965E-01   7.953834337504018E-01   8.019557009624121E-01
   8.084977337479334E-01   8.150059196047098E-01   8.214765385709555E-01
   8.279057627594757E-01   8.342896560703907E-01   8.406241740967191E-01
   8.469051642375757E-01   8.531283660343836E-01   8.592894117460569E-01
   8.653838271796422E-01   8.714070327934703E-01   8.773543450903442E-01
   8.832209783187973E-01   8.890020465008993E-01   8.946925658054176E-01
   9.002874572855815E-01   9.057815500008685E-01   9.111695845425092E-01
   9.164462169825019E-01   9.216060232659249E-01   9.266435040663068E-01
   9.315530901235493E-01   9.363291480836058E-01   9.409659868586105E-01
   9.454578645254721E-01   9.497989957801418E-01   9.539835599636906E-01
   9.580057096750570E-01   9.618595799838345E-01   9.655392982546448E-01
   9.690389945926038E-01   9.723528129169574E-01   9.754749226672685E-01
   9.783995311434217E-01   9.811208964771894E-01   9.836333412292402E-01
   9.859312666010581E-01   9.880091672464141E-01   9.898616466616561E-01
   9.914834331281900E-01   9.928693961740837E-01   9.940145635146420E-01
   9.949141384241345E-01   9.955635174825472E-01   9.959583086322066E-01
   9.960943494694655E-01   9.959677256862526E-01   9.955747895651847E-01
   9.949121784201201E-01   9.939768328614843E-01   9.927660147524335E-01
   9.912773247079856E-01   9.895087189745631E-01   9.874585255121727E-01
   9.851254590855379E-01   9.825086351541357E-01   9.796075823342001E-01
   9.764222531886780E-01   9.729530330836755E-01   9.692007468324201E-01
   9.651666628302638E-01   9.608524943671491E-01   9.562603977873469E-01
   9.513929671502488E-01   9.462532250311801E-01   9.408446090875940E-01
   9.351709540042143E-01   9.292364684209806E-01   9.230457064404461E-01
   9.166035333073108E-01   9.099150848521866E-01   9.029857202954964E-01
   8.958209680159157E-01   8.884264639018490E-01   8.808078819247797E-01
   8.729708566006977E-01   8.649208970410610E-01   8.566632923387671E-01
   8.482030080881794E-01   8.395445739025720E-01   8.306919618680014E-01
   8.216484559609383E-01   8.124165125586341E-01   8.029976122872341E-01
   7.933921035840538E-01   7.835990384977563E-01   7.736181234686994E-01
   7.634565248148169E-01   7.531234783527616E-01   7.426283013221757E-01
   7.319803805640487E-01   7.211891607088671E-01   7.102641323962497E-01
   6.992148205289284E-01   6.880507726049292E-01   6.767815471173803E-01
   6.654167011061792E-01   6.539657712744756E-01   6.424382798322408E-01
   6.308437156825282E-01   6.191915225000035E-01   6.074910879183080E-01
   5.957517328713221E-01   5.839827011344976E-01   5.721931490645052E-01
   5.603921355426131E-01   5.485886121296865E-01   5.367914134401751E-01
   5.250092477417160E-01   5.132506877862918E-01   5.015241618782268E-01
   4.898379451837113E-01   4.782001512860516E-01   4.666187239904183E-01
   4.551014293815646E-01   4.436558481378319E-01   4.322893681047189E-01
   4.210091771314686E-01   4.098222561744329E-01   3.987353726715230E-01
   3.877550741927869E-01   3.768876823730841E-01   3.661392871339954E-01
   3.555157412034082E-01   3.450226549427509E-01   3.346653914934606E-01
   3.244490622559935E-01   3.143785227164575E-01   3.044583686376532E-01
   2.946929326329515E-01   2.850862811428801E-01   2.756422118354663E-01
   2.663642514522457E-01   2.572556541222664E-01   2.483194001663673E-01
   2.395581954134274E-01   2.309744710490974E-01   2.225703840157765E-01
   2.143478179802113E-01   2.063083848821600E-01   1.984534270740755E-01
   1.907840200577973E-01   1.833009758199018E-01   1.760048467626968E-01
   1.688959302229930E-01   1.619742735658635E-01   1.552396798356990E-01
   1.486917139421041E-01   1.423297093536647E-01   1.361527752684521E-01
   1.301598042263730E-01   1.243494801252196E-01   1.187202865995584E-01
   1.132705157194533E-01   1.079982769644752E-01   1.029015064275090E-01
   9.797797620251127E-02   9.322530391059011E-02   8.864096231952692E-02
   8.422228901311100E-02   7.996649606835381E-02   7.587067970074271E-02
   7.193182984013541E-02   6.814683960261285E-02   6.451251462655828E-02
   6.102558224434468E-02   5.768270046423058E-02   5.448046674033909E-02
   5.141542651185468E-02   4.848408149577698E-02   4.568289772065912E-02
   4.300831329168299E-02   4.045674588014906E-02   3.802459993293265E-02
   3.570827359966280E-02   3.350416537728011E-02   3.140868047321196E-02
   2.941823688966382E-02   2.752927123245769E-02   2.573824424847115E-02
   2.404164609605831E-02   2.243600135289671E-02   2.091787376553943E-02
   1.948387074459542E-02   1.813064760896430E-02   1.685491158195859E-02
   1.565342554150277E-02   1.452301152595610E-02   1.346055399649935E-02
   1.246300285649921E-02   1.152737622784389E-02   1.065076298395721E-02
   9.830325039061396E-03   9.063299393281340E-03   8.346999933367370E-03
   7.678818989156387E-03   7.056228646381161E-03   6.476781817062394E-03
   5.938113069456979E-03   5.437939220369660E-03   4.974059693540088E-03
   4.544356648769260E-03   4.146794887426310E-03   3.779421540954281E-03
   3.440365549951989E-03   3.127836942328191E-03   2.840125919887228E-03
   2.575601763497535E-03   2.332711567703548E-03   2.109978816258236E-03
   1.906001810570772E-03   1.719451963476729E-03   1.549071971044869E-03
   1.393673875333920E-03   1.252137031106859E-03   1.123405989501616E-03
   1.006488311550398E-03   9.004523242405482E-04   8.044248315241618E-04
   7.175887923191023E-04   6.391809771079212E-04   5.684896142417574E-04
   5.048520365017832E-04   4.476523378694448E-04   3.963190498169941E-04
   3.503228457597149E-04   3.091742816187114E-04   2.724215797357736E-04
   2.396484626667870E-04   2.104720426642768E-04   1.845407719491775E-04
   1.615324581726185E-04   1.411523487856904E-04   1.231312873734563E-04
   1.072239443731163E-04   9.320712398878174E-05   8.087814853983812E-05
   7.005332093889687E-05   6.056646549083116E-05   5.226754673787026E-05
   4.502136564818978E-05   3.870633205746909E-05   3.321331192469684E-05
   2.844454765366454E-05   2.431264946369445E-05   2.073965555866481E-05
   1.765615864893552E-05   1.500049622022227E-05   1.271800181649537E-05
   1.076031450864349E-05   9.084743654947624E-06   7.653686020100491E-06
   6.434092308402307E-06   5.396980174287909E-06   4.516990804756264E-06
   3.771986216804927E-06   3.142684477694984E-06   2.612330134476266E-06
   2.166397229509188E-06   1.792322378712709E-06   1.479269511266218E-06
   1.217947592886937E-06   1.000341069398066E-06   8.195821256079139E-07
   6.698048190445513E-07   5.460115852767209E-07   4.439555732944624E-07
   3.600372177500089E-07   2.912135768485811E-07   2.349190822111394E-07
   1.889964596933829E-07   1.516366875357072E-07   1.213269600627505E-07
   9.680572123335021E-08   7.702392256243260E-08   6.111174426225577E-08
   4.835009692542894E-08   3.814629380774634E-08   3.001335093944654E-08
   2.355243413305675E-08   1.843802875714898E-08   1.440546026169490E-08
   1.124044129354810E-08   8.770365332201894E-09   6.821237534816113E-09
   5.288132742376476E-09   4.086180154452279E-09   3.146956480485974E-09
   2.415482422866865E-09   1.847730247049795E-09   1.408562722463918E-09
   1.070034815506484E-09   8.099993017465441E-10   6.109660549403393E-10
   4.591722778832113E-10   3.438274717495754E-10   2.565025978805744E-10
   1.906377641344290E-10   1.411469554342380E-10   1.041019067173380E-10
   7.648026094525050E-11   5.596573323079169E-11   4.079017596242723E-11
   2.960926422233862E-11   2.140504498731937E-11   1.540986114188987E-11
   1.104721058215012E-11   7.885965215757776E-12   5.605083667437630E-12
   3.966530229090166E-12   2.794582753284999E-12   1.960092328265464E-12
   1.368563453480202E-12   9.511683735546408E-13   6.580044117028453E-13
   4.530579140600713E-13   3.104605338056853E-13   2.117194559193142E-13
   1.436780512620746E-13   9.702164784623322E-14   6.518810458233892E-14
   4.357748291204466E-14   2.898159318066071E-14   1.917434754570623E-14
   1.261910931137127E-14   8.260717385679751E-15   5.378468194597818E-15
   3.482745024066056E-15   2.242730434623628E-15   1.436132473815894E-15
   9.144148839890835E-16   5.788850992967652E-16   3.643428972260741E-16
   2.279634667430905E-16   1.417832616649684E-16   8.765098238397391E-17
   5.385520308722693E-17   3.288547557379436E-17   1.995502460202165E-17
   1.203199843944646E-17   7.208184096219019E-18   4.290237993363742E-18
   2.536697472244156E-18   1.489881274701135E-18   8.691481398583824E-19
   5.035679828250821E-19   2.897391048852027E-19   1.655399752506089E-19
   9.390895665505943E-20   5.289085772966863E-20   2.957224445998595E-20
   1.641262970364155E-20   9.041112680430683E-21   4.942817018389001E-21
   2.681604492319205E-21   1.443578927966304E-21   7.710268695584158E-22
   4.085438516867885E-22   2.147358267734111E-22   1.119496992807029E-22
   5.788277210071062E-23   2.967826405791112E-23   1.508845230795182E-23
   7.605391792696916E-24   3.800338431343746E-24   1.882345054164641E-24
   9.240689606939560E-25   4.495613890630289E-25   2.167223917480435E-25
   1.035139273117301E-25   4.898052563954739E-26   2.295760340897741E-26
   1.065752261718764E-26   4.899593891328835E-27   2.230410778822240E-27
   1.005256171285319E-27   4.485194267352777E-28   1.980811719629661E-28
   8.657782662763047E-29   3.744683519497306E-29   1.602548632754172E-29
   6.784798530368698E-30   2.841407907925331E-30   1.176905564175334E-30
   4.820596863810572E-31   1.952316318428949E-31   7.816781393891066E-32
   3.093653165883420E-32   1.210090435804423E-32   4.677377938201670E-33
   1.786325503467453E-33   6.739481599384380E-34   0.000000000000000E+00
   0.000000000000000E+00   0.000000000000000E+00   0.000000000000000E+00
   0.000000000000000E+00   0.000000000000000E+00   0.000000000000000E+00
   0.000000000000000E+00   0.000000000000000E+00   0.000000000000000E+00
   0.000000000000000E+00   0.000000000000000E+00   0.000000000000000E+00
   0.000000000000000E+00   0.000000000000000E+00   0.000000000000000E+00
   0.000000000000000E+00   0.000000000000000E+00   0.000000000000000E+00
   0.000000000000000E+00   0.000000000000000E+00   0.000000000000000E+00
   0.000000000000000E+00   0.000000000000000E+00   0.000000000000000E+00
   0.000000000000000E+00   0.000000000000000E+00   0.000000000000000E+00
   0.000000000000000E+00   0.000000000000000E+00   0.000000000000000E+00
   0.000000000000000E+00   0.000000000000000E+00   0.000000000000000E+00
   0.000000000000000E+00   0.000000000000000E+00   0.000000000000000E+00
   0.000000000000000E+00   0.000000000000000E+00   0.000000000000000E+00
    </PP_CHI.1>
    <PP_CHI.2 size="1095" index="2" label="2P" l="1" occupation="4.0000000000000000" n="2" cutoff_radius="0.90000000000000002" ultrasoft_cutoff_radius="1.3500000000000001">
   3.454646575259502E-08   3.542101368223837E-08   3.631770089738398E-08
   3.723708785667452E-08   3.817974920682876E-08   3.914627414181429E-08
   4.013726677111280E-08   4.115334649730815E-08   4.219514840323274E-08
   4.326332364891491E-08   4.435853987857505E-08   4.548148163792455E-08
   4.663285080202922E-08   4.781336701400347E-08   4.902376813481084E-08
   5.026481070445054E-08   5.153727041481966E-08   5.284194259454517E-08
   5.417964270609012E-08   5.555120685544419E-08   5.695749231471648E-08
   5.839937805795816E-08   5.987776531054963E-08   6.139357811249542E-08
   6.294776389597887E-08   6.454129407753760E-08   6.617516466522993E-08
   6.785039688117212E-08   6.956803779983481E-08   7.132916100249828E-08
   7.313486724827508E-08   7.498628516211964E-08   7.688457194025539E-08
   7.883091407345923E-08   8.082652808865629E-08   8.287266130928798E-08
   8.497059263492948E-08   8.712163334064259E-08   8.932712789656442E-08
   9.158845480824460E-08   9.390702747825479E-08   9.628429508961061E-08
   9.872174351155762E-08   1.012208962282863E-07   1.037833152911586E-07
   1.064106022950397E-07   1.091043993793456E-07   1.118663902544328E-07
   1.146983012539706E-07   1.176019024139548E-07   1.205790085790361E-07
   1.236314805368558E-07   1.267612261810966E-07   1.299702017039773E-07
   1.332604128189343E-07   1.366339160142566E-07   1.400928198384552E-07
   1.436392862181731E-07   1.472755318094578E-07   1.510038293832413E-07
   1.548265092458929E-07   1.587459606957348E-07   1.627646335164281E-07
   1.668850395081654E-07   1.711097540576248E-07   1.754414177476664E-07
   1.798827380077807E-07   1.844364908063157E-07   1.891055223855445E-07
   1.938927510406563E-07   1.988011689437811E-07   2.038338440141905E-07
   2.089939218358443E-07   2.142846276234769E-07   2.197092682384577E-07
   2.252712342556816E-07   2.309740020827840E-07   2.368211361330030E-07
   2.428162910530480E-07   2.489632140073665E-07   2.552657470202375E-07
   2.617278293771559E-07   2.683535000870069E-07   2.751469004065691E-07
   2.821122764289298E-07   2.892539817374214E-07   2.965764801267453E-07
   3.040843483929772E-07   3.117822791942077E-07   3.196750839835950E-07
   3.277676960166684E-07   3.360651734347632E-07   3.445727024265121E-07
   3.532956004693700E-07   3.622393196531984E-07   3.714094500879843E-07
   3.808117233978271E-07   3.904520163033761E-07   4.003363542949561E-07
   4.104709153986777E-07   4.208620340378899E-07   4.315162049923810E-07
   4.424400874578082E-07   4.536405092078914E-07   4.651244708619743E-07
   4.768991502606178E-07   4.889719069519574E-07   5.013502867916382E-07
   5.140420266591960E-07   5.270550592938295E-07   5.403975182525912E-07
   5.540777429940992E-07   5.681042840909338E-07   5.824859085739967E-07
   5.972316054121514E-07   6.123505911305846E-07   6.278523155714006E-07
   6.437464678000358E-07   6.600429821611988E-07   6.767520444881150E-07
   6.938840984689565E-07   7.114498521744371E-07   7.294602847506546E-07
   7.479266532813578E-07   7.668604998239380E-07   7.862736586235277E-07
   8.061782635097230E-07   8.265867554805594E-07   8.475118904784670E-07
   8.689667473630824E-07   8.909647360858769E-07   9.135196060717361E-07
   9.366454548127100E-07   9.603567366793186E-07   9.846682719549041E-07
   1.009595256098698E-06   1.035153269243366E-06   1.061358285932992E-06
   1.088226685107576E-06   1.115775260340278E-06   1.144021230333819E-06
   1.172982249682604E-06   1.202676419907277E-06   1.233122300768605E-06
   1.264338921867782E-06   1.296345794540389E-06   1.329162924051434E-06
   1.362810822099117E-06   1.397310519635116E-06   1.432683580009425E-06
   1.468952112447928E-06   1.506138785871176E-06   1.544266843062958E-06
   1.583360115197557E-06   1.623443036734759E-06   1.664540660691901E-06
   1.706678674302553E-06   1.749883415071576E-06   1.794181887236594E-06
   1.839601778646204E-06   1.886171478065432E-06   1.933920092919277E-06
   1.982877467485376E-06   2.033074201547011E-06   2.084541669519085E-06
   2.137312040057444E-06   2.191418296164887E-06   2.246894255806087E-06
   2.303774593044415E-06   2.362094859713828E-06   2.421891507639317E-06
   2.483201911419929E-06   2.546064391788437E-06   2.610518239562404E-06
   2.676603740201536E-06   2.744362198986620E-06   2.813835966835966E-06
   2.885068466775248E-06   2.958104221077477E-06   3.032988879089991E-06
   3.109769245765794E-06   3.188493310917250E-06   3.269210279210179E-06
   3.351970600917299E-06   3.436826003450170E-06   3.523829523689235E-06
   3.613035541132411E-06   3.704499811882624E-06   3.798279503495840E-06
   3.894433230711161E-06   3.993021092085347E-06   4.094104707554824E-06
   4.197747256948362E-06   4.304013519474743E-06   4.412969914210005E-06
   4.524684541609454E-06   4.639227226070673E-06   4.756669559573778E-06
   4.877084946426423E-06   5.000548649141493E-06   5.127137835475959E-06
   5.256931626660680E-06   5.390011146850822E-06   5.526459573828153E-06
   5.666362190986782E-06   5.809806440634657E-06   5.956881978644526E-06
   6.107680730488055E-06   6.262296948688449E-06   6.420827271727370E-06
   6.583370784442810E-06   6.750029079956034E-06   6.920906323165827E-06
   7.096109315850083E-06   7.275747563415274E-06   7.459933343335333E-06
   7.648781775323229E-06   7.842410893278400E-06   8.040941719055520E-06
   8.244498338100558E-06   8.453207977001101E-06   8.667201082999993E-06
   8.886611405521242E-06   9.111576079759777E-06   9.342235712386917E-06
   9.578734469425090E-06   9.821220166347025E-06   1.006984436045526E-05
   1.032476244560002E-05   1.058613374929462E-05   1.085412163228868E-05
   1.112889359066210E-05   1.141062136050264E-05   1.169948102523341E-05
   1.199565312565667E-05   1.229932277278286E-05   1.261067976351578E-05
   1.292991869926532E-05   1.325723910756264E-05   1.359284556675349E-05
   1.393694783384712E-05   1.428976097560173E-05   1.465150550292701E-05
   1.502240750868878E-05   1.540269880900131E-05   1.579261708809551E-05
   1.619240604685399E-05   1.660231555510502E-05   1.702260180777111E-05
   1.745352748496968E-05   1.789536191616523E-05   1.834838124847653E-05
   1.881286861924284E-05   1.928911433295789E-05   1.977741604268146E-05
   2.027807893604224E-05   2.079141592594798E-05   2.131774784612185E-05
   2.185740365158751E-05   2.241072062422790E-05   2.297804458354579E-05
   2.355973010275835E-05   2.415614073035997E-05   2.476764921729225E-05
   2.539463774986274E-05   2.603749818855767E-05   2.669663231289825E-05
   2.737245207249274E-05   2.806537984444191E-05   2.877584869725783E-05
   2.950430266146088E-05   3.025119700702421E-05   3.101699852783865E-05
   3.180218583337551E-05   3.260724964772979E-05   3.343269311622952E-05
   3.427903211980383E-05   3.514679559730474E-05   3.603652587598493E-05
   3.694877901033700E-05   3.788412512950569E-05   3.884314879349046E-05
   3.982644935835974E-05   4.083464135070590E-05   4.186835485157369E-05
   4.292823589010152E-05   4.401494684712272E-05   4.512916686897610E-05
   4.627159229178656E-05   4.744293707647838E-05   4.864393325479380E-05
   4.987533138659416E-05   5.113790102873002E-05   5.243243121577098E-05
   5.375973095289711E-05   5.512062972125718E-05   5.651597799611101E-05
   5.794664777807616E-05   5.941353313781403E-05   6.091755077449108E-05
   6.245964058836604E-05   6.404076626785877E-05   6.566191589146714E-05
   6.732410254490668E-05   6.902836495385822E-05   7.077576813271772E-05
   7.256740404975165E-05   7.440439230907421E-05   7.628788084986918E-05
   7.821904666329380E-05   8.019909652751001E-05   8.222926776130183E-05
   8.431082899674783E-05   8.644508097142927E-05   8.863335734066935E-05
   9.087702551030583E-05   9.317748749052031E-05   9.553618077125002E-05
   9.795457921973243E-05   1.004341940007379E-04   1.029765745200636E-04
   1.055833093918783E-04   1.082560274305159E-04   1.109963986673381E-04
   1.138061353932966E-04   1.166869932278467E-04   1.196407722148703E-04
   1.226693179462985E-04   1.257745227141259E-04   1.289583266915347E-04
   1.322227191438651E-04   1.355697396701802E-04   1.390014794762009E-04
   1.425200826794001E-04   1.461277476470661E-04   1.498267283681691E-04
   1.536193358598781E-04   1.575079396096084E-04   1.614949690534871E-04
   1.655829150921617E-04   1.697743316448876E-04   1.740718372428591E-04
   1.784781166627766E-04   1.829959226016570E-04   1.876280773939340E-04
   1.923774747719051E-04   1.972470816706178E-04   2.022399400783214E-04
   2.073591689336205E-04   2.126079660705128E-04   2.179896102125143E-04
   2.235074630171013E-04   2.291649711717459E-04   2.349656685428317E-04
   2.409131783787837E-04   2.470112155687786E-04   2.532635889584239E-04
   2.596742037238481E-04   2.662470638056609E-04   2.729862744042893E-04
   2.798960445382379E-04   2.869806896668419E-04   2.942446343791427E-04
   3.016924151505385E-04   3.093286831688884E-04   3.171582072319762E-04
   3.251858767176722E-04   3.334167046293208E-04   3.418558307175318E-04
   3.505085246808217E-04   3.593801894466589E-04   3.684763645353826E-04
   3.778027295085989E-04   3.873651075045702E-04   3.971694688623813E-04
   4.072219348375544E-04   4.175287814110532E-04   4.280964431941058E-04
   4.389315174313539E-04   4.500407681044905E-04   4.614311301394335E-04
   4.731097137189214E-04   4.850838087038784E-04   4.973608891655509E-04
   5.099486180318451E-04   5.228548518504063E-04   5.360876456709109E-04
   5.496552580507217E-04   5.635661561854954E-04   5.778290211693719E-04
   5.924527533862675E-04   6.074464780374508E-04   6.228195508070921E-04
   6.385815636702369E-04   6.547423508464072E-04   6.713119949024703E-04
   6.883008330084206E-04   7.057194633499745E-04   7.235787517019590E-04
   7.418898381660142E-04   7.606641440774199E-04   7.799133790844349E-04
   7.996495484052020E-04   8.198849602657085E-04   8.406322335244826E-04
   8.619043054870668E-04   8.837144399165317E-04   9.060762352438613E-04
   9.290036329834947E-04   9.525109263587448E-04   9.766127691430476E-04
   1.001324184721295E-03   1.026660575377465E-03   1.052637731813829E-03
   1.079271842907331E-03   1.106579505708919E-03   1.134577735692183E-03
   1.163283977257003E-03   1.192716114494421E-03   1.222892482219299E-03
   1.253831877277356E-03   1.285553570133136E-03   1.318077316745638E-03
   1.351423370738831E-03   1.385612495874197E-03   1.420665978832672E-03
   1.456605642312799E-03   1.493453858454186E-03   1.531233562592949E-03
   1.569968267356125E-03   1.609682077108313E-03   1.650399702751138E-03
   1.692146476889967E-03   1.734948369376262E-03   1.778832003230986E-03
   1.823824670961553E-03   1.869954351281850E-03   1.917249726241457E-03
   1.965740198777553E-03   2.015455910698283E-03   2.066427761107483E-03
   2.118687425280951E-03   2.172267374007320E-03   2.227200893399862E-03
   2.283522105196034E-03   2.341265987550938E-03   2.400468396342792E-03
   2.461166086991993E-03   2.523396736819095E-03   2.587198967943113E-03
   2.652612370738053E-03   2.719677527860615E-03   2.788436038860886E-03
   2.858930545389044E-03   2.931204757014621E-03   3.005303477669491E-03
   3.081272632730228E-03   3.159159296753997E-03   3.239011721884226E-03
   3.320879366939259E-03   3.404812927201601E-03   3.490864364921133E-03
   3.579086940550256E-03   3.669535244728988E-03   3.762265231031555E-03
   3.857334249496949E-03   3.954801080957413E-03   4.054725972185255E-03
   4.157170671873470E-03   4.262198467468756E-03   4.369874222878902E-03
   4.480264417068903E-03   4.593437183567457E-03   4.709462350904919E-03
   4.828411483999652E-03   4.950357926513905E-03   5.075376844202755E-03
   5.203545269271624E-03   5.334942145770486E-03   5.469648376037902E-03
   5.607746868225605E-03   5.749322584919934E-03   5.894462592883014E-03
   6.043256113940732E-03   6.195794577035260E-03   6.352171671469718E-03
   6.512483401364600E-03   6.676828141355502E-03   6.845306693549867E-03
   7.018022345772926E-03   7.195080931122994E-03   7.376590888865395E-03
   7.562663326685704E-03   7.753412084331368E-03   7.948953798665441E-03
   8.149407970157993E-03   8.354897030842752E-03   8.565546413762233E-03
   8.781484623929709E-03   9.002843310834971E-03   9.229757342515304E-03
   9.462364881224103E-03   9.700807460719935E-03   9.945230065201423E-03
   1.019578120991743E-02   1.045261302347539E-02   1.071588133187456E-02
   1.098574574429094E-02   1.126236974063854E-02   1.154592076093103E-02
   1.183657029647027E-02   1.213449398288517E-02   1.243987169504420E-02
   1.275288764386691E-02   1.307373047505429E-02   1.340259336976296E-02
   1.373967414724186E-02   1.408517536945443E-02   1.443930444770356E-02
   1.480227375127922E-02   1.517430071814677E-02   1.555560796768862E-02
   1.594642341552093E-02   1.634698039038910E-02   1.675751775316515E-02
   1.717828001794668E-02   1.760951747527290E-02   1.805148631746126E-02
   1.850444876606808E-02   1.896867320147762E-02   1.944443429461640E-02
   1.993201314079203E-02   2.043169739564683E-02   2.094378141322249E-02
   2.146856638611687E-02   2.200636048772397E-02   2.255747901653114E-02
   2.312224454245468E-02   2.370098705518316E-02   2.429404411449712E-02
   2.490176100252984E-02   2.552449087792325E-02   2.616259493183448E-02
   2.681644254573925E-02   2.748641145097117E-02   2.817288788993368E-02
   2.887626677890817E-02   2.959695187238345E-02   3.033535592881320E-02
   3.109190087771043E-02   3.186701798797342E-02   3.266114803732598E-02
   3.347474148275516E-02   3.430825863180978E-02   3.516216981461545E-02
   3.603695555645398E-02   3.693310675073642E-02   3.785112483219603E-02
   3.879152195010167E-02   3.975482114129147E-02   4.074155650280160E-02
   4.175227336385768E-02   4.278752845697294E-02   4.384789008788461E-02
   4.493393830404488E-02   4.604626506135581E-02   4.718547438882704E-02
   4.835218255080637E-02   4.954701820642088E-02   5.077062256583405E-02
   5.202364954290740E-02   5.330676590382979E-02   5.462065141124662E-02
   5.596599896340053E-02   5.734351472776303E-02   5.875391826860797E-02
   6.019794266794698E-02   6.167633463921290E-02   6.318985463304871E-02
   6.473927693451627E-02   6.632538975101149E-02   6.794899529012688E-02
   6.961090982666641E-02   7.131196375797860E-02   7.305300164672393E-02
   7.483488225015453E-02   7.665847853493629E-02   7.852467767649031E-02
   8.043438104178935E-02   8.238850415448713E-02   8.438797664120500E-02
   8.643374215774807E-02   8.852675829396218E-02   9.066799645588713E-02
   9.285844172379808E-02   9.509909268466415E-02   9.739096123748797E-02
   9.973507236992642E-02   1.021324639045180E-01   1.045841862127781E-01
   1.070913018953431E-01   1.096548854262802E-01   1.122760227595929E-01
   1.149558108958832E-01   1.176953574070465E-01   1.204957799167980E-01
   1.233582055347452E-01   1.262837702416392E-01   1.292736182233523E-01
   1.323289011510449E-01   1.354507774048976E-01   1.386404112387006E-01
   1.418989718825014E-01   1.452276325804329E-01   1.486275695607505E-01
   1.520999609350228E-01   1.556459855233449E-01   1.592668216023471E-01
   1.629636455727046E-01   1.667376305427663E-01   1.705899448248554E-01
   1.745217503407131E-01   1.785342009324991E-01   1.826284405757011E-01
   1.868056014902443E-01   1.910668021460502E-01   1.954131451592533E-01
   1.998457150752455E-01   2.043655760347128E-01   2.089737693187969E-01
   2.136713107695396E-01   2.184591880817665E-01   2.233383579626048E-01
   2.283097431548813E-01   2.333742293207113E-01   2.385326617816700E-01
   2.437858421120598E-01   2.491345245819082E-01   2.545794124465022E-01
   2.601211540794475E-01   2.657603389464551E-01   2.714974934173336E-01
   2.773330764139195E-01   2.832674748920484E-01   2.893009991560068E-01
   2.954338780043314E-01   3.016662537063085E-01   3.079981768089939E-01
   3.144296007752072E-01   3.209603764535218E-01   3.275902463820177E-01
   3.343188389282906E-01   3.411456622690439E-01   3.480700982135192E-01
   3.550913958759603E-01   3.622086652034058E-01   3.694208703662495E-01
   3.767268230202206E-01   3.841251754498231E-01   3.916144136046508E-01
   3.991928500415799E-01   4.068586167874652E-01   4.146096581386925E-01
   4.224437234158708E-01   4.303583596938512E-01   4.383509045294157E-01
   4.464184787111853E-01   4.545579790585945E-01   4.627660712993243E-01
   4.710391830570687E-01   4.793734969842832E-01   4.877649440773680E-01
   4.962091972146173E-01   5.047016649604003E-01   5.132374856820805E-01
   5.218115220294839E-01   5.304183558300132E-01   5.390522834558787E-01
   5.477073117233875E-01   5.563771543876657E-01   5.650552292996989E-01
   5.737346562960743E-01   5.824082558951692E-01   5.910685488770175E-01
   5.997077568272265E-01   6.083178037285156E-01   6.168903186863472E-01
   6.254166398777787E-01   6.338878198150842E-01   6.422946320176536E-01
   6.506275791873248E-01   6.588769029833500E-01   6.670325954936595E-01
   6.750844124989577E-01   6.830218886251671E-01   6.908343544779098E-01
   6.985109558498781E-01   7.060406750879851E-01   7.134123547020046E-01
   7.206147232898190E-01   7.276364238463193E-01   7.344660445132499E-01
   7.410921518156677E-01   7.475033264171526E-01   7.536882014101666E-01
   7.596355031398849E-01   7.653340945393399E-01   7.707730209304084E-01
   7.759415582192385E-01   7.808292633855738E-01   7.854260271332943E-01
   7.897221285339683E-01   7.937082914562947E-01   7.973757425318860E-01
   8.007162703617441E-01   8.037222856180871E-01   8.063868816427679E-01
   8.087038950865031E-01   8.106679660725418E-01   8.122745973044353E-01
   8.135202114704421E-01   8.144022062271974E-01   8.149190059727007E-01
   8.150701095443340E-01   8.148561329019287E-01   8.142788457797028E-01
   8.133412012150140E-01   8.120473567874196E-01   8.104026863298306E-01
   8.084137808058979E-01   8.060884369859398E-01   8.034356324994166E-01
   8.004654857974688E-01   7.971891995264060E-01   7.936189857951175E-01
   7.897679718186711E-01   7.856500844402066E-01   7.812799120767192E-01
   7.766725427050216E-01   7.718433766059261E-01   7.668079127212356E-01
   7.615815076536960E-01   7.561791065588072E-01   7.506149454434162E-01
   7.449022247038127E-01   7.390527541093177E-01   7.330765698703660E-01
   7.269815249261181E-01   7.207728541488277E-01   7.144527167929848E-01
   7.080197192182207E-01   7.014704611593274E-01   6.948067862719116E-01
   6.880322483214140E-01   6.811504525734202E-01   6.741650527287188E-01
   6.670797478976515E-01   6.598982796171768E-01   6.526244289109201E-01
   6.452620133871305E-01   6.378148843932303E-01   6.302869237015920E-01
   6.226820363523952E-01   6.150041579309345E-01   6.072572475373411E-01
   5.994452846317533E-01   5.915722664969906E-01   5.836422057494292E-01
   5.756591278909933E-01   5.676270688973312E-01   5.595500728366685E-01
   5.514321895129799E-01   5.432774721262744E-01   5.350899749419472E-01
   5.268737509603402E-01   5.186328495769114E-01   5.103713142226963E-01
   5.020931799741778E-01   4.938024711211884E-01   4.855031986811551E-01
   4.771993578478705E-01   4.688949253630527E-01   4.605938567993070E-01
   4.523000837437420E-01   4.440175108724241E-01   4.357500129071772E-01
   4.275014314478743E-01   4.192755716754016E-01   4.110761989228754E-01
   4.029070351154254E-01   3.947717550819406E-01   3.866739827454929E-01
   3.786172872027105E-01   3.706051787060625E-01   3.626411045667208E-01
   3.547284449993509E-01   3.468705089336652E-01   3.390705298208037E-01
   3.313316614654455E-01   3.236569739168711E-01   3.160494494539867E-01
   3.085119787003869E-01   3.010473569059274E-01   2.936582804309021E-01
   2.863473434677629E-01   2.791170350334518E-01   2.719697362627922E-01
   2.649077180301130E-01   2.579331389224583E-01   2.510480435833989E-01
   2.442543614417537E-01   2.375539058345519E-01   2.309483735284417E-01
   2.244393446385778E-01   2.180282829389115E-01   2.117165365528779E-01
   2.055053390087865E-01   1.993958106398890E-01   1.933889603051600E-01
   1.874856874033513E-01   1.816867841499193E-01   1.759929380839960E-01
   1.704047347707138E-01   1.649226606629173E-01   1.595471060855925E-01
   1.542783683062529E-01   1.491166546549888E-01   1.440620856589397E-01
   1.391146981575538E-01   1.342744483671182E-01   1.295412148656770E-01
   1.249148014725149E-01   1.203949399998721E-01   1.159812928583712E-01
   1.116734555017268E-01   1.074709587006074E-01   1.033732706399089E-01
   9.937979883812550E-02   9.548989189183772E-02   9.170284105250119E-02
   8.801788164661091E-02   8.443419435383959E-02   8.095090636083276E-02
   7.756709241091006E-02   7.428177577191945E-02   7.109392914588841E-02
   6.800247554488463E-02   6.500628915765023E-02   6.210419623112392E-02
   5.929497598994807E-02   5.657736161554029E-02   5.395004130433799E-02
   5.141165942249385E-02   4.896081777167823E-02   4.659607697782205E-02
   4.431595801169375E-02   4.211894384722033E-02   4.000348126051930E-02
   3.796798276976032E-02   3.601082871328519E-02   3.413036946092898E-02
   3.232492775123451E-02   3.059280114526891E-02   2.893226458604560E-02
   2.734157305113763E-02   2.581896428493768E-02   2.436266159616866E-02
   2.297087670566481E-02   2.164181262910965E-02   2.037366657931249E-02
   1.916463287271142E-02   1.801290582507973E-02   1.691668262186544E-02
   1.587416614918383E-02   1.488356777218893E-02   1.394311004835184E-02
   1.305102936404854E-02   1.220557848379243E-02   1.140502900241839E-02
   1.064767369152085E-02   9.931828732457000E-03   9.255835829232974E-03
   8.618064195589045E-03   8.016912411578673E-03   7.450810145889226E-03
   6.918219741074007E-03   6.417637659749845E-03   5.947595790658906E-03
   5.506662614294332E-03   5.093444228544033E-03   4.706585235514610E-03
   4.344769491356001E-03   4.006720721517142E-03   3.691203004422963E-03
   3.397021127073741E-03   3.123020816529795E-03   2.868088851657926E-03
   2.631153059882260E-03   2.411182204002189E-03   2.207185764414624E-03
   2.018213622309187E-03   1.843355649593424E-03   1.681741211453404E-03
   1.532538587563911E-03   1.394954318034888E-03   1.268232480220972E-03
   1.151653902488754E-03   1.044535321084017E-03   9.462284861014862E-04
   8.561192225097371E-04   7.736264520648532E-04   6.982011818071380E-04
   6.293254646762022E-04   5.665113376056143E-04   5.092997422059333E-04
   4.572594330500756E-04   4.099858782204598E-04   3.671001565944014E-04
   3.282478560828215E-04   2.930979767732707E-04   2.613418426582956E-04
   2.326920253543397E-04   2.068812829430171E-04   1.836620142425766E-04
   1.628091762462701E-04   1.441096591153894E-04   1.273661342642045E-04
   1.123966780338968E-04   9.903383224764124E-05   8.712369899010482E-05
   7.652507028521718E-05   6.710859317737147E-05   5.875597054959808E-05
   5.135919784961015E-05   4.481983573981760E-05   3.904831854520173E-05
   3.396329824032840E-05   2.949102359699466E-05   2.556475400730118E-05
   2.212420740437001E-05   1.911504162559664E-05   1.648836850249020E-05
   1.420029991830464E-05   1.221152505160416E-05   1.048691802289981E-05
   8.995175185402054E-06   7.708481353431403E-06   6.602204347861675E-06
   5.654617363302535E-06   4.833356533051959E-06   4.123013149102783E-06
   3.509859053350113E-06   2.981689077181894E-06   2.527675177538656E-06
   2.138231740988840E-06   1.804891515049520E-06   1.520191618366889E-06
   1.277569078144788E-06   1.071265344039235E-06   8.962392322775549E-07
   7.480877616545816E-07   6.229743539558138E-07   5.175638848785573E-07
   4.289640873388849E-07   3.546728267941856E-07   2.925307875542455E-07
   2.406791296721246E-07   1.975216975947732E-07   1.616913840257479E-07
   1.320202751423130E-07   1.075132261725760E-07   8.732453915339315E-08
   7.073743725840011E-08   5.714605223263564E-08   4.603966304410102E-08
   3.698894473409873E-08   2.963400651012885E-08   2.367401729121925E-08
   1.885823511925519E-08   1.497827404298576E-08   1.186145823264274E-08
   9.365128176589903E-09   7.371777844958278E-09   5.784914688768885E-09
   4.525546297051902E-09   3.529208488332270E-09   2.743459603347650E-09
   2.125774835741458E-09   1.641782634067893E-09   1.263792582443163E-09
   9.695707714654749E-10   7.413245596739225E-10   5.648638531711287E-10
   4.289106509380118E-10   3.245326684949580E-10   2.446804138656315E-10
   1.838101960676569E-10   1.375782438733655E-10   1.025934448811860E-10
   7.621822261738945E-11   5.640879003327504E-11   4.158748591022233E-11
   3.054114784608858E-11   2.234053022899470E-11   1.627666361986652E-11
   1.181079626372679E-11   8.535179479122964E-12   6.142474501906730E-12
   4.401984851103004E-12   3.141269293959922E-12   2.231978038453536E-12
   1.578989250546052E-12   1.112113282926328E-12   7.797857066282785E-13
   5.442937993371355E-13   3.781799985399141E-13   2.615445318443071E-13
   1.800317922133507E-13   1.233341852718576E-13   8.408573928702538E-14
   5.704786812122357E-14   3.851305211046444E-14   2.587026126931302E-14
   1.728982615266390E-14   1.149607537953852E-14   7.604131617961831E-15
   5.003365422995634E-15   3.274602332784105E-15   2.131618430448342E-15
   1.380019950865538E-15   8.884977533149120E-16   5.688425433214249E-16
   3.621278174527534E-16   2.292106101008354E-16   1.442378032824892E-16
   9.023253929446962E-17   5.611186470854283E-17   3.468334737560783E-17
   2.130732948880580E-17   1.300904044178136E-17   7.892885917610254E-18
   4.758459474394481E-18   2.850375971933420E-18   1.696320636762761E-18
   1.002878046010717E-18   5.889610771075560E-19   3.435475156113753E-19
   1.990268985225686E-19   1.145048853193774E-19   6.541624274079698E-20
   3.710719281386694E-20   2.089789930978008E-20   1.168368404815646E-20
   6.484100465498416E-21   3.571675897017495E-21   1.952566516893930E-21
   1.059277421579502E-21   5.702190895403037E-22   3.045506266768696E-22
   1.613689475460499E-22   8.481636090461189E-23   4.421752509015700E-23
   2.286228999431247E-23   1.172223283520052E-23   5.959646762352810E-24
   3.004027660424025E-24   1.501113932603215E-24   7.435363476746258E-25
   3.650240443387250E-25   1.775917387718079E-25   8.561635785461835E-26
   4.089531013739628E-26   1.935184907308053E-26   9.070942980891446E-27
   4.211255298350709E-27   1.936187333826304E-27   8.814682958086461E-28
   3.973156882352490E-28   1.772882398491311E-28   7.830403764672100E-29
   3.422886677290855E-29   1.480636469255629E-29   6.337159366039143E-30
   2.683323719030950E-30   1.123893148524690E-30   4.655764578856864E-31
   1.907263980810627E-31   7.725443577431438E-32   3.093621053156809E-32
   1.224557967524848E-32   4.790676140733666E-33   1.852061474179124E-33
   7.074409382451118E-34   0.000000000000000E+00   0.000000000000000E+00
    </PP_CHI.2>
  </PP_PSWFC>
  <PP_FULL_WFC number_of_wfc="4">
    <PP_AEWFC.1 index="1" label="2S" l="0">
   1.161664145701290E-03   1.176251005429797E-03   1.191021030385127E-03
   1.205976520548285E-03   1.221119623051881E-03   1.236452306996548E-03
   1.251977044498110E-03   1.267696219266222E-03   1.283612264434219E-03
   1.299727643453690E-03   1.316044850281614E-03   1.332566409972106E-03
   1.349294879232507E-03   1.366232846461042E-03   1.383382932158683E-03
   1.400747789356230E-03   1.418330104017110E-03   1.436132595964526E-03
   1.454158018936728E-03   1.472409160477357E-03   1.490888842814221E-03
   1.509599923399051E-03   1.528545295159670E-03   1.547727886968302E-03
   1.567150664024762E-03   1.586816628404332E-03   1.606728819562899E-03
   1.626890314682245E-03   1.647304229160863E-03   1.667973717104231E-03
   1.688901971805862E-03   1.710092226209485E-03   1.731547753358510E-03
   1.753271866948719E-03   1.775267921837049E-03   1.797539314516833E-03
   1.820089483633891E-03   1.842921910458853E-03   1.866040119467056E-03
   1.889447678878949E-03   1.913148201164073E-03   1.937145343591901E-03
   1.961442808770582E-03   1.986044345215865E-03   2.010953747912929E-03
   2.036174858879798E-03   2.061711567739545E-03   2.087567812311245E-03
   2.113747579192653E-03   2.140254904347328E-03   2.167093873723728E-03
   2.194268623868547E-03   2.221783342530093E-03   2.249642269283133E-03
   2.277849696170486E-03   2.306409968343586E-03   2.335327484702082E-03
   2.364606698553259E-03   2.394252118273185E-03   2.424268307977408E-03
   2.454659888199225E-03   2.485431536575577E-03   2.516587988543353E-03
   2.548134038049917E-03   2.580074538252158E-03   2.612414402213532E-03
   2.645158603673028E-03   2.678312177779655E-03   2.711880221789525E-03
   2.745867895850115E-03   2.780280423767580E-03   2.815123093771186E-03
   2.850401259314545E-03   2.886120339825712E-03   2.922285821512256E-03
   2.958903258217031E-03   2.995978272183987E-03   3.033516554882638E-03
   3.071523867869751E-03   3.110006043619296E-03   3.148968986382078E-03
   3.188418673049614E-03   3.228361154028924E-03   3.268802554127212E-03
   3.309749073446684E-03   3.351206988289648E-03   3.393182652073948E-03
   3.435682496258835E-03   3.478713031281409E-03   3.522280847503716E-03
   3.566392616170613E-03   3.611055090378530E-03   3.656275106055205E-03
   3.702059582950479E-03   3.748415525638291E-03   3.795350024529201E-03
   3.842870256899936E-03   3.890983487948262E-03   3.939697071816213E-03
   3.989018452608688E-03   4.038955165538236E-03   4.089514837965063E-03
   4.140705190449363E-03   4.192534037957843E-03   4.245009290971549E-03
   4.298138956567536E-03   4.351931139618116E-03   4.406394043915534E-03
   4.461535973298849E-03   4.517365332908726E-03   4.573890630347154E-03
   4.631120476898187E-03   4.689063588748829E-03   4.747728788225382E-03
   4.807125005043238E-03   4.867261277570208E-03   4.928146754103568E-03
   4.989790694160986E-03   5.052202469785376E-03   5.115391566863871E-03
   5.179367586460966E-03   5.244140246166006E-03   5.309719381455106E-03
   5.376114947067626E-03   5.443337018397345E-03   5.511395792898412E-03
   5.580301591506237E-03   5.650064860073406E-03   5.720696170820753E-03
   5.792206223803728E-03   5.864605848394129E-03   5.937906004777368E-03
   6.012117785465365E-03   6.087252416825177E-03   6.163321260623512E-03
   6.240335815587199E-03   6.318307718979778E-03   6.397248748194284E-03
   6.477170822362364E-03   6.558086003979842E-03   6.640006500548814E-03
   6.722944666236426E-03   6.806913003550424E-03   6.891924165031585E-03
   6.977990954963136E-03   7.065126331097292E-03   7.153343406398977E-03
   7.242655450806886E-03   7.333075893011937E-03   7.424618322253258E-03
   7.517296490131824E-03   7.611124312441840E-03   7.706115871018580E-03
   7.802285415612190E-03   7.899647365806315E-03   7.998216312900182E-03
   8.098007021729409E-03   8.199034432626378E-03   8.301313663425496E-03
   8.404860011559472E-03   8.509688956039005E-03   8.615816159270553E-03
   8.723257469183439E-03   8.832028921317119E-03   8.942146740853488E-03
   9.053627344719185E-03   9.166487343690638E-03   9.280743544520721E-03
   9.396412952084284E-03   9.513512771542793E-03   9.632060410528061E-03
   9.752073481345210E-03   9.873569803194810E-03   9.996567404414281E-03
   1.012108452473859E-02   1.024713961758020E-02   1.037475135232841E-02
   1.050393861666798E-02   1.063472051891708E-02   1.076711639038465E-02
   1.090114578774707E-02   1.103682849544408E-02   1.117418452809420E-02
   1.131323413292923E-02   1.145399779224817E-02   1.159649622589033E-02
   1.174075039372757E-02   1.188678149817573E-02   1.203461098672516E-02
   1.218426055449019E-02   1.233575214677758E-02   1.248910796167386E-02
   1.264435045265136E-02   1.280150233119294E-02   1.296058656943531E-02
   1.312162640283072E-02   1.328464533282701E-02   1.344966712956581E-02
   1.361671583459872E-02   1.378581576362143E-02   1.395699150922543E-02
   1.413026794366731E-02   1.430567022165526E-02   1.448322378315278E-02
   1.466295435619921E-02   1.484488795974685E-02   1.502905090651460E-02
   1.521546980585758E-02   1.540417156665276E-02   1.559518340020002E-02
   1.578853282313859E-02   1.598424766037828E-02   1.618235604804548E-02
   1.638288643644327E-02   1.658586759302546E-02   1.679132860538412E-02
   1.699929888425013E-02   1.720980816650647E-02   1.742288651821362E-02
   1.763856433764675E-02   1.785687235834412E-02   1.807784165216631E-02
   1.830150363236556E-02   1.852789005666481E-02   1.875703303034589E-02
   1.898896500934611E-02   1.922371880336278E-02   1.946132757896497E-02
   1.970182486271178E-02   1.994524454427649E-02   2.019162087957584E-02
   2.044098849390370E-02   2.069338238506836E-02   2.094883792653255E-02
   2.120739087055548E-02   2.146907735133593E-02   2.173393388815551E-02
   2.200199738852122E-02   2.227330515130622E-02   2.254789486988793E-02
   2.282580463528232E-02   2.310707293927347E-02   2.339173867753704E-02
   2.367984115275679E-02   2.397142007773276E-02   2.426651557847994E-02
   2.456516819731622E-02   2.486741889593823E-02   2.517330905848374E-02
   2.548288049457929E-02   2.579617544237148E-02   2.611323657154061E-02
   2.643410698629491E-02   2.675883022834399E-02   2.708745027984974E-02
   2.742001156635307E-02   2.775655895967468E-02   2.809713778078817E-02
   2.844179380266348E-02   2.879057325307900E-02   2.914352281740010E-02
   2.950068964132237E-02   2.986212133357713E-02   3.022786596859748E-02
   3.059797208914228E-02   3.097248870887612E-02   3.135146531490266E-02
   3.173495187024922E-02   3.212299881629988E-02   3.251565707517468E-02
   3.291297805205225E-02   3.331501363743335E-02   3.372181620934211E-02
   3.413343863546268E-02   3.454993427520785E-02   3.497135698171705E-02
   3.539776110378027E-02   3.582920148768498E-02   3.626573347898263E-02
   3.670741292417141E-02   3.715429617229188E-02   3.760644007643178E-02
   3.806390199513646E-02   3.852673979372129E-02   3.899501184548197E-02
   3.946877703279898E-02   3.994809474813207E-02   4.043302489490067E-02
   4.092362788824575E-02   4.141996465566915E-02   4.192209663754546E-02
   4.243008578750205E-02   4.294399457266267E-02   4.346388597374938E-02
   4.398982348503821E-02   4.452187111416324E-02   4.506009338176397E-02
   4.560455532097055E-02   4.615532247672141E-02   4.671246090490768E-02
   4.727603717133858E-02   4.784611835052190E-02   4.842277202425347E-02
   4.900606628000950E-02   4.959606970913533E-02   5.019285140482404E-02
   5.079648095987854E-02   5.140702846424981E-02   5.202456450234483E-02
   5.264916015009658E-02   5.328088697178918E-02   5.391981701663032E-02
   5.456602281506348E-02   5.521957737481221E-02   5.588055417664801E-02
   5.654902716987412E-02   5.722507076751636E-02   5.790875984121265E-02
   5.860016971579245E-02   5.929937616353687E-02   6.000645539811047E-02
   6.072148406815536E-02   6.144453925053785E-02   6.217569844323777E-02
   6.291503955787080E-02   6.366264091183298E-02   6.441858122005747E-02
   6.518293958637247E-02   6.595579549444947E-02   6.673722879833086E-02
   6.752731971252511E-02   6.832614880165828E-02   6.913379696966958E-02
   6.995034544853929E-02   7.077587578653621E-02   7.161046983597241E-02
   7.245420974045190E-02   7.330717792160076E-02   7.416945706526458E-02
   7.504113010716004E-02   7.592228021796650E-02   7.681299078784340E-02
   7.771334541035887E-02   7.862342786581508E-02   7.954332210395484E-02
   8.047311222603458E-02   8.141288246624759E-02   8.236271717248220E-02
   8.332270078639807E-02   8.429291782280449E-02   8.527345284832384E-02
   8.626439045932302E-02   8.726581525909539E-02   8.827781183427579E-02
   8.930046473047031E-02   9.033385842708277E-02   9.137807731131911E-02
   9.243320565135070E-02   9.349932756861769E-02   9.457652700925230E-02
   9.566488771460270E-02   9.676449319083692E-02   9.787542667760650E-02
   9.899777111574898E-02   1.001316091140081E-01   1.012770229147505E-01
   1.024340943586566E-01   1.036029048483639E-01   1.047835353110414E-01
   1.059760661598699E-01   1.071805772544076E-01   1.083971478598169E-01
   1.096258566049283E-01   1.108667814391180E-01   1.121199995879752E-01
   1.133855875077338E-01   1.146636208384445E-01   1.159541743558623E-01
   1.172573219220227E-01   1.185731364344835E-01   1.199016897742031E-01
   1.212430527520323E-01   1.225972950537909E-01   1.239644851839037E-01
   1.253446904075685E-01   1.267379766914292E-01   1.281444086427269E-01
   1.295640494469003E-01   1.309969608036098E-01   1.324432028611551E-01
   1.339028341492600E-01   1.353759115101951E-01   1.368624900282106E-01
   1.383626229572500E-01   1.398763616469173E-01   1.414037554666678E-01
   1.429448517281940E-01   1.444996956059788E-01   1.460683300559847E-01
   1.476507957324540E-01   1.492471309027860E-01   1.508573713604679E-01
   1.524815503360256E-01   1.541196984059693E-01   1.557718433997038E-01
   1.574380103043741E-01   1.591182211676205E-01   1.608124949982129E-01
   1.625208476645366E-01   1.642432917909041E-01   1.659798366516619E-01
   1.677304880630699E-01   1.694952482729218E-01   1.712741158478848E-01
   1.730670855585297E-01   1.748741482620277E-01   1.766952907824889E-01
   1.785304957889180E-01   1.803797416707641E-01   1.822430024110418E-01
   1.841202474570014E-01   1.860114415883265E-01   1.879165447828401E-01
   1.898355120796971E-01   1.917682934400481E-01   1.937148336051530E-01
   1.956750719519317E-01   1.976489423459343E-01   1.996363729917172E-01
   2.016372862806137E-01   2.036515986358851E-01   2.056792203552454E-01
   2.077200554507488E-01   2.097740014860352E-01   2.118409494109264E-01
   2.139207833933720E-01   2.160133806487417E-01   2.181186112664658E-01
   2.202363380340258E-01   2.223664162582993E-01   2.245086935842680E-01
   2.266630098110955E-01   2.288291967055889E-01   2.310070778130567E-01
   2.331964682655815E-01   2.353971745877254E-01   2.376089944996930E-01
   2.398317167179749E-01   2.420651207535023E-01   2.443089767073442E-01
   2.465630450639819E-01   2.488270764822003E-01   2.511008115836377E-01
   2.533839807390412E-01   2.556763038522770E-01   2.579774901421488E-01
   2.602872379220856E-01   2.626052343777571E-01   2.649311553426880E-01
   2.672646650719390E-01   2.696054160139342E-01   2.719530485805130E-01
   2.743071909152954E-01   2.766674586604506E-01   2.790334547219660E-01
   2.814047690335200E-01   2.837809783190651E-01   2.861616458542365E-01
   2.885463212267052E-01   2.909345400956027E-01   2.933258239501488E-01
   2.957196798676221E-01   2.981156002708185E-01   3.005130626851507E-01
   3.029115294955474E-01   3.053104477033197E-01   3.077092486831688E-01
   3.101073479405158E-01   3.125041448693439E-01   3.148990225107500E-01
   3.172913473124100E-01   3.196804688891730E-01   3.220657197850048E-01
   3.244464152365110E-01   3.268218529382813E-01   3.291913128102993E-01
   3.315540567676768E-01   3.339093284929799E-01   3.362563532114199E-01
   3.385943374691958E-01   3.409224689152824E-01   3.432399160869692E-01
   3.455458281994627E-01   3.478393349398790E-01   3.501195462659589E-01
   3.523855522098522E-01   3.546364226873251E-01   3.568712073127578E-01
   3.590889352203069E-01   3.612886148916223E-01   3.634692339905138E-01
   3.656297592049782E-01   3.677691360970055E-01   3.698862889605954E-01
   3.719801206884255E-01   3.740495126476248E-01   3.760933245651151E-01
   3.781103944229965E-01   3.800995383644628E-01   3.820595506107436E-01
   3.839892033895819E-01   3.858872468757664E-01   3.877524091442482E-01
   3.895833961363842E-01   3.913788916398583E-01   3.931375572828422E-01
   3.948580325429715E-01   3.965389347717180E-01   3.981788592347531E-01
   3.997763791689072E-01   4.013300458563362E-01   4.028383887165218E-01
   4.042999154167343E-01   4.057131120016033E-01   4.070764430424451E-01
   4.083883518070043E-01   4.096472604502796E-01   4.108515702271061E-01
   4.119996617271765E-01   4.130898951331901E-01   4.141206105028250E-01
   4.150901280752330E-01   4.159967486027650E-01   4.168387537086353E-01
   4.176144062712415E-01   4.183219508358580E-01   4.189596140544222E-01
   4.195256051541375E-01   4.200181164356165E-01   4.204353238012887E-01
   4.207753873147955E-01   4.210364517920958E-01   4.212166474249995E-01
   4.213140904378477E-01   4.213268837780478E-01   4.212531178411721E-01
   4.210908712313154E-01   4.208382115574045E-01   4.204931962661386E-01
   4.200538735122311E-01   4.195182830666099E-01   4.188844572632198E-01
   4.181504219850540E-01   4.173141976900262E-01   4.163738004772744E-01
   4.153272431944668E-01   4.141725365866578E-01   4.129076904872176E-01
   4.115307150513317E-01   4.100396220325362E-01   4.084324261027272E-01
   4.067071462160443E-01   4.048618070169955E-01   4.028944402931504E-01
   4.008030864726884E-01   3.985857961670429E-01   3.962406317588378E-01
   3.937656690352590E-01   3.911589988669572E-01   3.884187289325126E-01
   3.855429854884432E-01   3.825299151846670E-01   3.793776869252681E-01
   3.760844937743432E-01   3.726485549066352E-01   3.690681176025795E-01
   3.653414592873119E-01   3.614668896131009E-01   3.574427525845770E-01
   3.532674287260431E-01   3.489393372900509E-01   3.444569385063296E-01
   3.398187358700488E-01   3.350232784682907E-01   3.300691633434940E-01
   3.249550378925173E-01   3.196796022998512E-01   3.142416120033872E-01
   3.086398801910240E-01   3.028732803262663E-01   2.969407487008386E-01
   2.908412870122048E-01   2.845739649637479E-01   2.781379228852294E-01
   2.715323743710084E-01   2.647566089333641E-01   2.578099946681260E-01
   2.506919809296787E-01   2.434021010122717E-01   2.359399748344308E-01
   2.283053116231338E-01   2.204979125942847E-01   2.125176736258963E-01
   2.043645879202660E-01   1.960387486513164E-01   1.875403515931577E-01
   1.788696977258210E-01   1.700271958140110E-01   1.610133649546259E-01
   1.518288370886985E-01   1.424743594733215E-01   1.329507971090248E-01
   1.232591351179838E-01   1.134004810683385E-01   1.033760672398008E-01
   9.318725282561019E-02   8.283552606576959E-02   7.232250630633889E-02
   6.164994597938660E-02   5.081973249798721E-02   3.983389006040322E-02
   2.869458135729306E-02   1.740410917543939E-02   5.964917891096227E-03
  -5.620405154402834E-03  -1.734912840464451E-02  -2.921837497216393E-02
  -4.122512166550747E-02  -5.336619816893062E-02  -6.563828638489767E-02
  -7.803791995003910E-02  -9.056148393556664E-02  -1.032052147432577E-01
  -1.159652002078866E-01  -1.288373799162686E-01  -1.418175457517287E-01
  -1.549013426706472E-01  -1.680842697145614E-01  -1.813616812569642E-01
  -1.947287884782541E-01  -2.081806610551948E-01  -2.217122290427193E-01
  -2.353182849161256E-01  -2.489934857310021E-01  -2.627323553471523E-01
  -2.765292866522021E-01  -2.903785437115565E-01  -3.042742637652334E-01
  -3.182104589902884E-01  -3.321810179515294E-01  -3.461797066742681E-01
  -3.602001692919556E-01  -3.742359282490492E-01  -3.882803840750684E-01
  -4.023268147883319E-01  -4.163683750352025E-01  -4.303980951197572E-01
  -4.444088801256131E-01  -4.583935093713804E-01  -4.723446364685303E-01
  -4.862547902599813E-01  -5.001163769047948E-01  -5.139216833361838E-01
  -5.276628822566055E-01  -5.413320387488276E-01  -5.549211184832754E-01
  -5.684219974007484E-01  -5.818264726583666E-01  -5.951262745571890E-01
  -6.083130791309602E-01  -6.213785210704209E-01  -6.343142066845769E-01
  -6.471117266523698E-01  -6.597626683855237E-01  -6.722586278953252E-01
  -6.845912211234509E-01  -6.967520947529734E-01  -7.087329365568437E-01
  -7.205254853667424E-01  -7.321215407567180E-01  -7.435129725362148E-01
  -7.546917301391565E-01  -7.656498519827277E-01  -7.763794748540064E-01
  -7.868728433665118E-01  -7.971223195134005E-01  -8.071203923302118E-01
  -8.168596876680916E-01  -8.263329780684235E-01  -8.355331927216673E-01
  -8.444534274867848E-01  -8.530869549427305E-01  -8.614272344398676E-01
  -8.694679221166719E-01  -8.772028808455163E-01  -8.846261900705426E-01
  -8.917321555004889E-01  -8.985153186197462E-01  -9.049704659817414E-01
  -9.110926382499358E-01  -9.168771389531646E-01  -9.223195429237016E-01
  -9.274157043882251E-01  -9.321617646837553E-01  -9.365541595725779E-01
  -9.405896261321518E-01  -9.442652091979684E-01  -9.475782673392955E-01
  -9.505264783496669E-01  -9.531078442358778E-01  -9.553206956910997E-01
  -9.571636960395349E-01  -9.586358446418114E-01  -9.597364797520332E-01
  -9.604652808191023E-01  -9.608222702265719E-01  -9.608078144669162E-01
  -9.604226247476770E-01  -9.596677570285086E-01  -9.585446114896582E-01
  -9.570549314339083E-01  -9.552008016254633E-01  -9.529846460706853E-01
  -9.504092252469659E-01  -9.474776327873650E-01  -9.441932916299559E-01
  -9.405599496420640E-01  -9.365816747308018E-01  -9.322628494524527E-01
  -9.276081651343592E-01  -9.226226155240074E-01  -9.173114899809796E-01
  -9.116803662283562E-01  -9.057351026809938E-01  -8.994818303688764E-01
  -8.929269444744413E-01  -8.860770955034044E-01  -8.789391801091632E-01
  -8.715203315913340E-01  -8.638279100893761E-01  -8.558694924925838E-01
  -8.476528620879796E-01  -8.391859979678108E-01  -8.304770642184641E-01
  -8.215343989126430E-01  -8.123665029266138E-01  -8.029820286042338E-01
  -7.933897682893040E-01  -7.835986427475654E-01  -7.736176894993811E-01
  -7.634560510838011E-01  -7.531229632743288E-01  -7.426277432662685E-01
  -7.319797778550555E-01  -7.211885116244522E-01  -7.102634351661604E-01
  -6.992140733337355E-01  -6.880499735748702E-01  -6.767806943343471E-01
  -6.654157935540331E-01  -6.539648172831797E-01  -6.424372884133852E-01
  -6.308426955517774E-01  -6.191904820452304E-01  -6.074900351676857E-01
  -5.957506754818745E-01  -5.839816463859128E-01  -5.721921038544642E-01
  -5.603911063833698E-01  -5.485876051458556E-01  -5.367904343676807E-01
  -5.250083019278574E-01  -5.132497801908791E-01  -5.015232970757357E-01
  -4.898371273664134E-01  -4.781993842680698E-01  -4.666180112126579E-01
  -4.551007739174751E-01  -4.436552526999484E-01  -4.322888350519417E-01
  -4.210087084770280E-01  -4.098218535944990E-01  -3.987350375144163E-01
  -3.877548074887431E-01  -3.768874848445349E-01  -3.661391592063185E-01
  -3.555156830161137E-01  -3.450226663610600E-01  -3.346654721202382E-01
  -3.244492114440017E-01  -3.143787395808874E-01  -3.044586520689043E-01
  -2.946932813096229E-01  -2.850866935449343E-01  -2.756426862575365E-01
  -2.663647860170484E-01  -2.572562467940865E-01  -2.483200487645831E-01
  -2.395588976260359E-01  -2.309752244462114E-01  -2.225711860630513E-01
  -2.143486660521702E-01  -2.063092762753795E-01  -1.984543590201933E-01
  -1.907849897363058E-01  -1.833019803706893E-01  -1.760058832982983E-01
  -1.688969958405117E-01  -1.619753653585265E-01  -1.552407949040105E-01
  -1.486928494045597E-01  -1.423308623569950E-01  -1.361539429973626E-01
  -1.301609839127512E-01  -1.243506690567852E-01  -1.187214821279326E-01
  -1.132717152676284E-01  -1.079994780336714E-01  -1.029027066034059E-01
  -9.797917316084877E-02  -9.322649542213503E-02  -8.864214625440875E-02
  -8.422346334453193E-02  -7.996765887568207E-02  -7.587182917200373E-02
  -7.193296427391568E-02  -6.814795740939637E-02  -6.451361432951778E-02
  -6.102666247961062E-02  -5.768375998066461E-02  -5.448150439883834E-02
  -5.141644128421605E-02  -4.848507246315043E-02  -4.568386407161910E-02
  -4.300925431994911E-02  -4.045766098198508E-02  -3.802548860425475E-02
  -3.570913543288642E-02  -3.350500005793444E-02  -3.140948777635133E-02
  -2.941901667610349E-02  -2.753002344486155E-02  -2.573896890731739E-02
  -2.404234329550817E-02  -2.243667125659091E-02  -2.091851660234464E-02
  -1.948448680432282E-02  -1.813123723808074E-02  -1.685547517930908E-02
  -1.565396355406252E-02  -1.452352444462832E-02  -1.346104235197411E-02
  -1.246346721518720E-02  -1.152781718789784E-02  -1.065118117139246E-02
  -9.830721103986044E-03  -9.063674006245317E-03  -8.347353781838944E-03
  -7.679152774133410E-03  -7.056543079143785E-03  -6.477077616072857E-03
  -5.938390957411508E-03  -5.438199921406639E-03  -4.974303930607807E-03
  -4.544585141156008E-03  -4.147008348454628E-03  -3.779620675840636E-03
  -3.440551053832284E-03  -3.128009498448850E-03  -2.840286197960886E-03
  -2.575750418221654E-03  -2.332849237439576E-03  -2.110106121868299E-03
  -1.906119354408183E-03  -1.719560328526065E-03  -1.549171720206710E-03
  -1.393765550848895E-03  -1.252221154113088E-03  -1.123483059719246E-03
  -1.006558807086544E-03  -9.005167015076022E-04  -8.044835252642182E-04
  -7.176422157269963E-04  -6.392295220452590E-04  -5.685336515342371E-04
  -5.048919163120645E-04  -4.476883901378695E-04  -3.963515847625407E-04
  -3.503521544336991E-04  -3.092006365039389E-04  -2.724452353840576E-04
  -2.396696563680210E-04  -2.104909951405371E-04  -1.845576880676523E-04
  -1.615475276715155E-04  -1.411657470076267E-04  -1.231431760012231E-04
  -1.072344721630888E-04  -9.321642749763734E-05  -8.088635284063410E-05
  -7.006054032293868E-05  -6.057280415212776E-05  -5.227309943738434E-05
  -4.502621835516865E-05  -3.871056256615855E-05  -3.321699044376639E-05
  -2.844773736738616E-05  -2.431540706298110E-05  -2.074203174078962E-05
  -1.765819858468087E-05  -1.500223998731339E-05  -1.271948479787351E-05
  -1.076156775466819E-05  -9.085794207150686E-06  -7.654557195126201E-06
  -6.434803939115417E-06  -5.397548804576330E-06  -4.517429835233071E-06
  -3.772305983734624E-06  -3.142892402647115E-06  -2.612429597628037E-06
  -2.166394015852729E-06  -1.792203358968669E-06  -1.479038494037547E-06
  -1.217590368224100E-06  -9.998418618523801E-07  -8.189190934888402E-07
  -6.689487726779018E-07  -5.449243071171872E-07  -4.425876282077234E-07
  -3.583251059081045E-07  -2.890760370669677E-07  -2.322522812931622E-07
  -1.856677970989086E-07  -1.474763629518645E-07  -1.161190112934595E-07
  -9.026749171655698E-08  -6.890702090728068E-08  -5.053055134008171E-08
   0.000000000000000E+00   0.000000000000000E+00   0.000000000000000E+00
   0.000000000000000E+00   0.000000000000000E+00   0.000000000000000E+00
   0.000000000000000E+00   0.000000000000000E+00   0.000000000000000E+00
   0.000000000000000E+00   0.000000000000000E+00   0.000000000000000E+00
   0.000000000000000E+00   0.000000000000000E+00   0.000000000000000E+00
   0.000000000000000E+00   0.000000000000000E+00   0.000000000000000E+00
   0.000000000000000E+00   0.000000000000000E+00   0.000000000000000E+00
   0.000000000000000E+00   0.000000000000000E+00   0.000000000000000E+00
   0.000000000000000E+00   0.000000000000000E+00   0.000000000000000E+00
   0.000000000000000E+00   0.000000000000000E+00   0.000000000000000E+00
   0.000000000000000E+00   0.000000000000000E+00   0.000000000000000E+00
   0.000000000000000E+00   0.000000000000000E+00   0.000000000000000E+00
   0.000000000000000E+00   0.000000000000000E+00   0.000000000000000E+00
   0.000000000000000E+00   0.000000000000000E+00   0.000000000000000E+00
   0.000000000000000E+00   0.000000000000000E+00   0.000000000000000E+00
   0.000000000000000E+00   0.000000000000000E+00   0.000000000000000E+00
   0.000000000000000E+00   0.000000000000000E+00   0.000000000000000E+00
   0.000000000000000E+00   0.000000000000000E+00   0.000000000000000E+00
   0.000000000000000E+00   0.000000000000000E+00   0.000000000000000E+00
   0.000000000000000E+00   0.000000000000000E+00   0.000000000000000E+00
   0.000000000000000E+00   0.000000000000000E+00   0.000000000000000E+00
   0.000000000000000E+00   0.000000000000000E+00   0.000000000000000E+00
   0.000000000000000E+00   0.000000000000000E+00   0.000000000000000E+00
   0.000000000000000E+00   0.000000000000000E+00   0.000000000000000E+00
   0.000000000000000E+00   0.000000000000000E+00   0.000000000000000E+00
   0.000000000000000E+00   0.000000000000000E+00   0.000000000000000E+00
   0.000000000000000E+00   0.000000000000000E+00   0.000000000000000E+00
   0.000000000000000E+00   0.000000000000000E+00   0.000000000000000E+00
   0.000000000000000E+00   0.000000000000000E+00   0.000000000000000E+00
   0.000000000000000E+00   0.000000000000000E+00   0.000000000000000E+00
   0.000000000000000E+00   0.000000000000000E+00   0.000000000000000E+00
   0.000000000000000E+00   0.000000000000000E+00   0.000000000000000E+00
   0.000000000000000E+00   0.000000000000000E+00   0.000000000000000E+00
   0.000000000000000E+00   0.000000000000000E+00   0.000000000000000E+00
   0.000000000000000E+00   0.000000000000000E+00   0.000000000000000E+00
   0.000000000000000E+00   0.000000000000000E+00   0.000000000000000E+00
   0.000000000000000E+00   0.000000000000000E+00   0.000000000000000E+00
   0.000000000000000E+00   0.000000000000000E+00   0.000000000000000E+00
   0.000000000000000E+00   0.000000000000000E+00   0.000000000000000E+00
   0.000000000000000E+00   0.000000000000000E+00   0.000000000000000E+00
   0.000000000000000E+00   0.000000000000000E+00   0.000000000000000E+00
   0.000000000000000E+00   0.000000000000000E+00   0.000000000000000E+00
   0.000000000000000E+00   0.000000000000000E+00   0.000000000000000E+00
   0.000000000000000E+00   0.000000000000000E+00   0.000000000000000E+00
   0.000000000000000E+00   0.000000000000000E+00   0.000000000000000E+00
   0.000000000000000E+00   0.000000000000000E+00   0.000000000000000E+00
   0.000000000000000E+00   0.000000000000000E+00   0.000000000000000E+00
   0.000000000000000E+00   0.000000000000000E+00   0.000000000000000E+00
   0.000000000000000E+00   0.000000000000000E+00   0.000000000000000E+00
   0.000000000000000E+00   0.000000000000000E+00   0.000000000000000E+00
   0.000000000000000E+00   0.000000000000000E+00   0.000000000000000E+00
   0.000000000000000E+00   0.000000000000000E+00   0.000000000000000E+00
    </PP_AEWFC.1>
    <PP_AEWFC.2 index="2" label="2S" l="0">
   9.214700265896121E-04   9.330408012163630E-04   9.447568684968083E-04
   9.566200528511693E-04   9.686320574443829E-04   9.807944442080687E-04
   9.931091741103325E-04   1.005578137985519E-03   1.018203265873580E-03
   1.030986511863866E-03   1.043929854243564E-03   1.057035295967093E-03
   1.070304865097204E-03   1.083740614834856E-03   1.097344623845918E-03
   1.111118996599939E-03   1.125065863689663E-03   1.139187382566471E-03
   1.153485737584222E-03   1.167963139912271E-03   1.182621828232539E-03
   1.197464069167665E-03   1.212492157481033E-03   1.227708416448249E-03
   1.243115198161092E-03   1.258714883962115E-03   1.274509884845330E-03
   1.290502641730102E-03   1.306695625850477E-03   1.323091339144084E-03
   1.339692314633718E-03   1.356501116793949E-03   1.373520341907659E-03
   1.390752618504445E-03   1.408200607764202E-03   1.425867003894102E-03
   1.443754534537963E-03   1.461865961150918E-03   1.480204079459395E-03
   1.498771719889792E-03   1.517571747968241E-03   1.536607064757550E-03
   1.555880607284552E-03   1.575395348991387E-03   1.595154300181164E-03
   1.615160508464876E-03   1.635417059215288E-03   1.655927076035694E-03
   1.676693721222115E-03   1.697720196229020E-03   1.719009742160411E-03
   1.740565640256335E-03   1.762391212371500E-03   1.784489821470915E-03
   1.806864872138824E-03   1.829519811086815E-03   1.852458127661163E-03
   1.875683354365903E-03   1.899199067387268E-03   1.923008887125700E-03
   1.947116478733874E-03   1.971525552660761E-03   1.996239865203960E-03
   2.021263219073298E-03   2.046599463945339E-03   2.072252497016292E-03
   2.098226263611970E-03   2.124524757770409E-03   2.151152022794802E-03
   2.178112151875601E-03   2.205409288699162E-03   2.233047628054113E-03
   2.261031416466911E-03   2.289364952796834E-03   2.318052588874583E-03
   2.347098730181100E-03   2.376507836455015E-03   2.406284422346648E-03
   2.436433058101501E-03   2.466958370218604E-03   2.497865042132389E-03
   2.529157814897931E-03   2.560841487884854E-03   2.592920919479073E-03
   2.625401027792584E-03   2.658286791381407E-03   2.691583249971719E-03
   2.725295505194279E-03   2.759428721327226E-03   2.793988126047333E-03
   2.828979011189807E-03   2.864406733516715E-03   2.900276715494142E-03
   2.936594446078093E-03   2.973365481509295E-03   3.010595446116350E-03
   3.048290033132374E-03   3.086455005531756E-03   3.125096196841778E-03
   3.164219511950588E-03   3.203830928015262E-03   3.243936495286741E-03
   3.284542337944561E-03   3.325654655053883E-03   3.367279721444225E-03
   3.409423888567466E-03   3.452093585449091E-03   3.495295319580303E-03
   3.539035677811867E-03   3.583321327349424E-03   3.628159016673399E-03
   3.673555576507278E-03   3.719517920786049E-03   3.766053047636866E-03
   3.813168040370389E-03   3.860870068482872E-03   3.909166388669115E-03
   3.958064345846429E-03   4.007571374189661E-03   4.057694998177390E-03
   4.108442833649395E-03   4.159822588875466E-03   4.211842065635693E-03
   4.264509160312275E-03   4.317831864993002E-03   4.371818268586450E-03
   4.426476557949025E-03   4.481815019023921E-03   4.537842037992115E-03
   4.594566102435462E-03   4.651995802512013E-03   4.710139832143623E-03
   4.769006990215960E-03   4.828606181791012E-03   4.888946419332164E-03
   4.950036823941954E-03   5.011886626612591E-03   5.074505169489338E-03
   5.137901907146834E-03   5.202086407878461E-03   5.267068354998823E-03
   5.332857548159466E-03   5.399463904677874E-03   5.466897460879874E-03
   5.535168373455512E-03   5.604286920828486E-03   5.674263504539233E-03
   5.745108650641737E-03   5.816833011114156E-03   5.889447365283340E-03
   5.962962621263344E-03   6.037389817408019E-03   6.112740123776648E-03
   6.189024843620176E-03   6.266255414902993E-03   6.344443411795719E-03
   6.423600546119373E-03   6.503738668900252E-03   6.584869771960420E-03
   6.667005989580377E-03   6.750159600069254E-03   6.834343027206527E-03
   6.919568841929124E-03   7.005849763986945E-03   7.093198663554740E-03
   7.181628562899531E-03   7.271152638050182E-03   7.361784220484130E-03
   7.453536798829045E-03   7.546424020579664E-03   7.640459693829772E-03
   7.735657789019380E-03   7.832032440697162E-03   7.929597949298128E-03
   8.028368782936597E-03   8.128359579214454E-03   8.229585147044739E-03
   8.332060468490549E-03   8.435800700619271E-03   8.540821177372164E-03
   8.647137411449242E-03   8.754765096209502E-03   8.863720107586456E-03
   8.974018506018941E-03   9.085676538397217E-03   9.198710640024286E-03
   9.313137436592418E-03   9.428973746174848E-03   9.546236581232589E-03
   9.664943150636299E-03   9.785110861703163E-03   9.906757322248716E-03
   1.002990034265351E-02   1.015455793794461E-02   1.028074832989174E-02
   1.040848994911807E-02   1.053780143722545E-02   1.066870164893414E-02
   1.080120965423666E-02   1.093534474056590E-02   1.107112641497719E-02
   1.120857440634421E-02   1.134770866756863E-02   1.148854937780324E-02
   1.163111694468852E-02   1.177543200660228E-02   1.192151543492232E-02
   1.206938833630189E-02   1.221907205495761E-02   1.237058817496980E-02
   1.252395852259478E-02   1.267920516858905E-02   1.283635043054499E-02
   1.299541687523781E-02   1.315642732098350E-02   1.331940484000734E-02
   1.348437276082286E-02   1.365135467062071E-02   1.382037441766716E-02
   1.399145611371188E-02   1.416462413640461E-02   1.433990313172024E-02
   1.451731801639203E-02   1.469689398035234E-02   1.487865648918055E-02
   1.506263128655771E-02   1.524884439672729E-02   1.543732212696160E-02
   1.562809107003343E-02   1.582117810669218E-02   1.601661040814397E-02
   1.621441543853527E-02   1.641462095743916E-02   1.661725502234383E-02
   1.682234599114248E-02   1.702992252462406E-02   1.724001358896394E-02
   1.745264845821403E-02   1.766785671679133E-02   1.788566826196428E-02
   1.810611330633597E-02   1.832922238032347E-02   1.855502633463225E-02
   1.878355634272499E-02   1.901484390328351E-02   1.924892084266326E-02
   1.948581931733894E-02   1.972557181634054E-02   1.996821116367851E-02
   2.021377052075705E-02   2.046228338877435E-02   2.071378361110860E-02
   2.096830537568849E-02   2.122588321734702E-02   2.148655202015729E-02
   2.175034701974886E-02   2.201730380560344E-02   2.228745832332832E-02
   2.256084687690617E-02   2.283750613091968E-02   2.311747311274940E-02
   2.340078521474334E-02   2.368748019635645E-02   2.397759618625845E-02
   2.427117168440818E-02   2.456824556409260E-02   2.486885707392876E-02
   2.517304583982653E-02   2.548085186691049E-02   2.579231554139853E-02
   2.610747763243542E-02   2.642637929387903E-02   2.674906206603697E-02
   2.707556787735148E-02   2.740593904603015E-02   2.774021828162008E-02
   2.807844868652302E-02   2.842067375744898E-02   2.876693738680557E-02
   2.911728386402065E-02   2.947175787679521E-02   2.983040451228384E-02
   3.019326925819993E-02   3.056039800384243E-02   3.093183704104131E-02
   3.130763306501832E-02   3.168783317516014E-02   3.207248487570029E-02
   3.246163607630659E-02   3.285533509257062E-02   3.325363064639557E-02
   3.365657186627883E-02   3.406420828748555E-02   3.447658985210927E-02
   3.489376690901564E-02   3.531579021366529E-02   3.574271092781141E-02
   3.617458061906804E-02   3.661145126034449E-02   3.705337522914156E-02
   3.750040530670466E-02   3.795259467702953E-02   3.840999692571526E-02
   3.887266603866010E-02   3.934065640059451E-02   3.981402279344667E-02
   4.029282039453488E-02   4.077710477458140E-02   4.126693189554227E-02
   4.176235810824722E-02   4.226344014984396E-02   4.277023514104070E-02
   4.328280058314096E-02   4.380119435486417E-02   4.432547470894577E-02
   4.485570026851025E-02   4.539193002321022E-02   4.593422332512487E-02
   4.648263988441068E-02   4.703723976469697E-02   4.759808337821945E-02
   4.816523148068358E-02   4.873874516585064E-02   4.931868585983823E-02
   4.990511531512744E-02   5.049809560426827E-02   5.109768911327500E-02
   5.170395853470306E-02   5.231696686039832E-02   5.293677737391023E-02
   5.356345364255934E-02   5.419705950915017E-02   5.483765908331966E-02
   5.548531673251163E-02   5.614009707256724E-02   5.680206495792138E-02
   5.747128547139467E-02   5.814782391357042E-02   5.883174579174591E-02
   5.952311680844700E-02   6.022200284949483E-02   6.092846997161318E-02
   6.164258438956501E-02   6.236441246280617E-02   6.309402068164426E-02
   6.383147565289035E-02   6.457684408499091E-02   6.533019277262733E-02
   6.609158858076988E-02   6.686109842817296E-02   6.763878927029801E-02
   6.842472808165045E-02   6.921898183751669E-02   7.002161749508680E-02
   7.083270197394861E-02   7.165230213593837E-02   7.248048476433284E-02
   7.331731654236796E-02   7.416286403106828E-02   7.501719364637151E-02
   7.588037163553223E-02   7.675246405278842E-02   7.763353673427455E-02
   7.852365527216389E-02   7.942288498802383E-02   8.033129090536607E-02
   8.124893772137491E-02   8.217588977779521E-02   8.311221103096236E-02
   8.405796502095582E-02   8.501321483985760E-02   8.597802309909712E-02
   8.695245189586294E-02   8.793656277856246E-02   8.893041671130994E-02
   8.993407403742273E-02   9.094759444190616E-02   9.197103691290633E-02
   9.300445970211066E-02   9.404792028407523E-02   9.510147531445802E-02
   9.616518058713683E-02   9.723909099019054E-02   9.832326046072204E-02
   9.941774193850110E-02   1.005225873184050E-01   1.016378474016349E-01
   1.027635718456856E-01   1.038998091130462E-01   1.050466064186083E-01
   1.062040096757599E-01   1.073720634411418E-01   1.085508108580424E-01
   1.097402935984085E-01   1.109405518034497E-01   1.121516240228100E-01
   1.133735471522868E-01   1.146063563700710E-01   1.158500850714852E-01
   1.171047648021977E-01   1.183704251898863E-01   1.196470938743304E-01
   1.209347964359064E-01   1.222335563224634E-01   1.235433947745556E-01
   1.248643307490073E-01   1.261963808407886E-01   1.275395592031769E-01
   1.288938774661826E-01   1.302593446532148E-01   1.316359670959661E-01
   1.330237483474915E-01   1.344226890934625E-01   1.358327870615719E-01
   1.372540369290685E-01   1.386864302284019E-01   1.401299552509546E-01
   1.415845969488432E-01   1.430503368347665E-01   1.445271528798837E-01
   1.460150194097027E-01   1.475139069979600E-01   1.490237823584757E-01
   1.505446082349663E-01   1.520763432887996E-01   1.536189419846758E-01
   1.551723544742210E-01   1.567365264774799E-01   1.583113991622941E-01
   1.598969090215555E-01   1.614929877483231E-01   1.630995621087961E-01
   1.647165538131323E-01   1.663438793841066E-01   1.679814500236043E-01
   1.696291714769438E-01   1.712869438950264E-01   1.729546616943125E-01
   1.746322134146243E-01   1.763194815747766E-01   1.780163425260396E-01
   1.797226663034411E-01   1.814383164749122E-01   1.831631499882900E-01
   1.848970170161862E-01   1.866397607987366E-01   1.883912174842480E-01
   1.901512159677597E-01   1.919195777275423E-01   1.936961166595566E-01
   1.954806389098979E-01   1.972729427052570E-01   1.990728181814273E-01
   2.008800472098949E-01   2.026944032225486E-01   2.045156510345511E-01
   2.063435466654169E-01   2.081778371583431E-01   2.100182603978467E-01
   2.118645449257617E-01   2.137164097556573E-01   2.155735641857375E-01
   2.174357076102912E-01   2.193025293297637E-01   2.211737083595239E-01
   2.230489132374092E-01   2.249278018301311E-01   2.268100211386313E-01
   2.286952071024832E-01   2.305829844034368E-01   2.324729662682125E-01
   2.343647542706527E-01   2.362579381333471E-01   2.381520955288508E-01
   2.400467918806238E-01   2.419415801638227E-01   2.438360007060826E-01
   2.457295809884354E-01   2.476218354465133E-01   2.495122652721964E-01
   2.514003582158668E-01   2.532855883894415E-01   2.551674160703599E-01
   2.570452875067121E-01   2.589186347236985E-01   2.607868753316213E-01
   2.626494123356126E-01   2.645056339473164E-01   2.663549133987432E-01
   2.681966087585296E-01   2.700300627508414E-01   2.718546025771637E-01
   2.736695397412358E-01   2.754741698773929E-01   2.772677725825857E-01
   2.790496112523586E-01   2.808189329210777E-01   2.825749681067037E-01
   2.843169306604200E-01   2.860440176214301E-01   2.877554090772529E-01
   2.894502680298479E-01   2.911277402679175E-01   2.927869542457398E-01
   2.944270209688952E-01   2.960470338872608E-01   2.976460687956569E-01
   2.992231837425360E-01   3.007774189471207E-01   3.023077967254006E-01
   3.038133214254127E-01   3.052929793722367E-01   3.067457388231492E-01
   3.081705499333884E-01   3.095663447329920E-01   3.109320371151810E-01
   3.122665228367715E-01   3.135686795311068E-01   3.148373667340096E-01
   3.160714259232699E-01   3.172696805721848E-01   3.184309362176831E-01
   3.195539805435745E-01   3.206375834794706E-01   3.216804973159361E-01
   3.226814568364373E-01   3.236391794666621E-01   3.245523654417942E-01
   3.254196979923347E-01   3.262398435490686E-01   3.270114519677833E-01
   3.277331567743535E-01   3.284035754308120E-01   3.290213096230347E-01
   3.295849455706720E-01   3.300930543599652E-01   3.305441923000924E-01
   3.309369013036915E-01   3.312697092922133E-01   3.315411306267600E-01
   3.317496665650687E-01   3.318938057453002E-01   3.319720246972968E-01
   3.319827883819716E-01   3.319245507594927E-01   3.317957553869262E-01
   3.315948360459982E-01   3.313202174016353E-01   3.309703156919367E-01
   3.305435394502318E-01   3.300382902598649E-01   3.294529635423478E-01
   3.287859493795083E-01   3.280356333702589E-01   3.272003975225928E-01
   3.262786211814080E-01   3.252686819927454E-01   3.241689569050094E-01
   3.229778232077264E-01   3.216936596083774E-01   3.203148473478194E-01
   3.188397713547903E-01   3.172668214399686E-01   3.155943935300317E-01
   3.138208909421292E-01   3.119447256991608E-01   3.099643198862106E-01
   3.078781070484599E-01   3.056845336308606E-01   3.033820604598140E-01
   3.009691642670552E-01   2.984443392558995E-01   2.958060987099609E-01
   2.930529766443985E-01   2.901835294996980E-01   2.871963378779334E-01
   2.840900083213996E-01   2.808631751334388E-01   2.775145022412220E-01
   2.740426851001736E-01   2.704464526396576E-01   2.667245692494652E-01
   2.628758368065674E-01   2.588990967415091E-01   2.547932321437414E-01
   2.505571699050941E-01   2.461898829005011E-01   2.416903922049964E-01
   2.370577693458986E-01   2.322911385890036E-01   2.273896792574983E-01
   2.223526280822073E-01   2.171792815816716E-01   2.118689984704549E-01
   2.064212020939573E-01   2.008353828879080E-01   1.951111008605946E-01
   1.892479880957759E-01   1.832457512741116E-01   1.771041742108307E-01
   1.708231204072528E-01   1.644025356136645E-01   1.578424504009489E-01
   1.511429827382624E-01   1.443043405739472E-01   1.373268244167760E-01
   1.302108299145222E-01   1.229568504267593E-01   1.155654795887003E-01
   1.080374138627982E-01   1.003734550747362E-01   9.257451293034857E-02
   8.464160750991652E-02   7.657587173618390E-02   6.837855381233103E-02
   6.005101962602538E-02   5.159475511553294E-02   4.301136859372168E-02
   3.430259302560910E-02   2.547028825490024E-02   1.651644317472101E-02
   7.443177837472287E-03  -1.747254501592710E-03  -1.105246541282939E-02
  -2.046992939887596E-02  -2.999698208617184E-02  -3.963081850843945E-02
  -4.936849148976185E-02  -5.920691013540301E-02  -6.914283843900251E-02
  -7.917289401518998E-02  -8.929354696694886E-02  -9.950111889713939E-02
  -1.097917820733761E-01  -1.201615587548312E-01  -1.306063206883753E-01
  -1.411217887796270E-01  -1.517035329418138E-01  -1.623469721217077E-01
  -1.730473744971786E-01  -1.837998578350423E-01  -1.945993899908911E-01
  -2.054407895246386E-01  -2.163187263968733E-01  -2.272277227023177E-01
  -2.381621533884113E-01  -2.491162469002129E-01  -2.600840856885136E-01
  -2.710596065174637E-01  -2.820366005122978E-01  -2.930087128979224E-01
  -3.039694423959017E-01  -3.149121402709723E-01  -3.258300090482725E-01
  -3.367161009578988E-01  -3.475633162023768E-01  -3.583644011825321E-01
  -3.691119468547400E-01  -3.797983874236499E-01  -3.904159995948896E-01
  -4.009569026176709E-01  -4.114130593340358E-01  -4.217762784176523E-01
  -4.320382179309250E-01  -4.421903902581638E-01  -4.522241683912770E-01
  -4.621307934621341E-01  -4.719013833426968E-01  -4.815269420797466E-01
  -4.909983699022402E-01  -5.003064735384783E-01  -5.094419766053094E-01
  -5.183955298765529E-01  -5.271577212944504E-01  -5.357190856475432E-01
  -5.440701138933738E-01  -5.522012621495623E-01  -5.601029604094162E-01
  -5.677656210579483E-01  -5.751796472723903E-01  -5.823354413903548E-01
  -5.892234133214096E-01  -5.958339890665161E-01  -6.021576193966407E-01
  -6.081847887284242E-01  -6.139060242221362E-01  -6.193119051158201E-01
  -6.243930722998390E-01  -6.291402381280057E-01  -6.335441964550254E-01
  -6.375958328849597E-01  -6.412861352116545E-01  -6.446062040293706E-01
  -6.475472634900749E-01  -6.501006721828174E-01  -6.522579341102378E-01
  -6.540107097373719E-01  -6.553508270884938E-01  -6.562702928686354E-01
  -6.567613035876004E-01  -6.568162566656709E-01  -6.564277615017438E-01
  -6.555886504862735E-01  -6.542919899431042E-01  -6.525310909860236E-01
  -6.502995202776169E-01  -6.475911106797566E-01  -6.443999717867775E-01
  -6.407205003340868E-01  -6.365473904766059E-01  -6.318756439330585E-01
  -6.267005799936828E-01  -6.210178453904711E-01  -6.148234240305183E-01
  -6.081136465944930E-01  -6.008852000036365E-01  -5.931351367600377E-01
  -5.848608841662276E-01  -5.760602534313893E-01  -5.667314486726718E-01
  -5.568730758212433E-01  -5.464841514437944E-01  -5.355641114912250E-01
  -5.241128199871896E-01  -5.121305776700433E-01  -4.996181306025135E-01
  -4.865766787641104E-01  -4.730078846418753E-01  -4.589138818355470E-01
  -4.442972836935825E-01  -4.291611919967052E-01  -4.135092057057501E-01
  -3.973454297905307E-01  -3.806744841562537E-01  -3.635015126836509E-01
  -3.458321923984670E-01  -3.276727427852399E-01  -3.090299352594216E-01
  -2.899111028108022E-01  -2.703241498299253E-01  -2.502775621276916E-01
  -2.297804171566511E-01  -2.088423944405683E-01  -1.874737862167035E-01
  -1.656855082928856E-01  -1.434891111188489E-01  -1.208967910684711E-01
  -9.792140192646977E-02  -7.457646656979544E-02  -5.087618883039835E-02
  -2.683546552223555E-02  -2.469898611337525E-03   2.220419249654059E-02
   4.716975858068850E-02   7.240900817740127E-02   9.790339513889308E-02
   1.236336062241356E-01   1.495795487720158E-01   1.757203385128192E-01
   2.020342875798292E-01   2.284988927887830E-01   2.550908242590232E-01
   2.817859144563579E-01   3.085591477439011E-01   3.353846505334813E-01
   3.622356821365237E-01   3.890846264195663E-01   4.159029843757348E-01
   4.426613677295253E-01   4.693294936980718E-01   4.958761810376291E-01
   5.222693475092827E-01   5.484760089027774E-01   5.744622797618412E-01
   6.001933759583949E-01   6.256336192665830E-01   6.507464440905932E-01
   6.754944065027874E-01   6.998391957507459E-01   7.237416483935269E-01
   7.471617652288262E-01   7.700587311739552E-01   7.923909382647913E-01
   8.141160119383282E-01   8.351908407664137E-01   8.555716098110315E-01
   8.752138377753548E-01   8.940724181301719E-01   9.121016644024904E-01
   9.292553598225289E-01   9.454868115372489E-01   9.607489096133173E-01
   9.749941910701608E-01   9.881749092046509E-01   1.000243108492966E+00
   1.011150705382132E+00   1.020849575313349E+00   1.029291646350967E+00
   1.036428999824237E+00   1.042213978422846E+00   1.046599302220807E+00
   1.049538193135247E+00   1.050984508355828E+00   1.050892883305456E+00
   1.049218884712126E+00   1.045919174383725E+00   1.040951684280820E+00
   1.034275803475323E+00   1.025852577564115E+00   1.015644921074911E+00
   1.003617843355392E+00   9.897386883750268E-01   9.739773887910494E-01
   9.563067345349655E-01   9.367026560630687E-01   9.151445222834937E-01
   8.916154530229981E-01   8.661026457290647E-01   8.385977159172641E-01
   8.090970506706485E-01   7.776021742780018E-01   7.441201248620795E-01
   7.086638405988238E-01   6.712525538654908E-01   6.319121913814990E-01
   5.906757781226791E-01   5.475838424997452E-01   5.026848199977134E-01
   4.560354521772669E-01   4.077011776443931E-01   3.577565113037143E-01
   3.062854079264217E-01   2.533816057881180E-01   1.991489458674731E-01
   1.437016618454381E-01   8.716463590857930E-02   2.967361514031184E-02
  -2.862461691845219E-02  -8.757211914161546E-02  -1.469997278903511E-01
  -2.067270541979856E-01  -2.665625491042347E-01  -3.263036432788988E-01
  -3.857369671553615E-01  -4.446386578493900E-01  -5.027747591658134E-01
  -5.599017209905978E-01  -6.157670043234241E-01  -6.701097981195274E-01
  -7.226618539713205E-01  -7.731484444607937E-01  -8.212894507420152E-01
  -8.668005845570536E-01  -9.093947494348098E-01  -9.487835452559976E-01
  -9.846789196732865E-01  -1.016794969037184E+00  -1.044849890478887E+00
  -1.068568085624197E+00  -1.087682415041030E+00  -1.101936600940883E+00
  -1.111087773846705E+00  -1.114909156892134E+00  -1.113192879118121E+00
  -1.105752906573162E+00  -1.092428077196195E+00  -1.073085222364130E+00
  -1.047622354620620E+00  -1.015971897476120E+00  -9.781039292946029E-01
  -9.340294091796876E-01  -8.838033484705340E-01  -8.275278869929530E-01
  -7.653552286311054E-01  -6.974903861485237E-01  -6.241936805648539E-01
  -5.457829358708818E-01  -4.626353055375548E-01  -3.751886632584654E-01
  -2.839424867889975E-01  -1.894581607547062E-01  -9.235862205844909E-02
   6.672729801607524E-03   1.068939353892909E-01   2.075072677209379E-01
   3.076629884725374E-01   4.064641376372168E-01   5.029724198071538E-01
   5.962152415485664E-01   6.851939431560065E-01   7.688932541931432E-01
   8.462919854518742E-01   9.163749501197535E-01   9.781460839078461E-01
   1.030642707580806E+00   1.072950845738831E+00   1.104221482900035E+00
   1.123687602092900E+00   1.130681812578748E+00   1.124654332403391E+00
   1.105191048795834E+00   1.072031335727951E+00   1.025085264143008E+00
   9.644497975691168E-01   8.904235253787228E-01   8.035194493656403E-01
   7.044753083225940E-01   5.942609018808456E-01   4.740818611111694E-01
   3.453793115156811E-01   2.098248865650209E-01   6.931057913657120E-02
  -7.406703341339324E-02  -2.180285850104265E-01  -3.601400386262830E-01
  -4.978473087289010E-01  -6.285174262228886E-01  -7.494861118763658E-01
  -8.581114258199732E-01  -9.518329370511265E-01  -1.028235610562502E+00
  -1.085117344748145E+00  -1.120558813788036E+00  -1.132999163832399E+00
  -1.121316409135618E+00  -1.084870578137646E+00  -1.023539415195631E+00
  -9.378150385460300E-01  -8.288243810859515E-01  -6.983612610894083E-01
  -5.488956450620347E-01  -3.835642964673520E-01  -2.061396632966178E-01
  -2.097508329275645E-02   1.670750660917546E-01   3.527609220794471E-01
   5.305681493000080E-01   6.948731158893993E-01   8.401197505416068E-01
   9.610142998408705E-01   1.052732835679874E+00   1.111134974208562E+00
   1.132975926095338E+00   1.116107781077313E+00   1.059659927198748E+00
   9.641878148485780E-01   8.317790006867928E-01   6.661056495449047E-01
   4.724135293647360E-01   2.574390864735965E-01   2.924849346265068E-02
  -2.030043566283305E-01  -4.294000985443927E-01  -6.396510548716504E-01
  -8.235629134800468E-01  -9.715451261226653E-01  -1.075148771128341E+00
  -1.127605452694721E+00  -1.124336341284616E+00  -1.063397153357919E+00
  -9.458232071734072E-01  -7.758391491565111E-01  -5.609009474940428E-01
  -3.115436237832566E-01  -4.101711636902608E-02   2.352953890315063E-01
   5.006676524511443E-01   7.380032718882298E-01   9.309474091557938E-01
   1.065075466020659E+00   1.129080381983803E+00   1.115867135456157E+00
   1.023455200772062E+00   8.555890129496680E-01   6.219645528576871E-01
   3.379981509465406E-01   2.409196257937645E-02  -2.956112244143181E-01
  -5.949448107092318E-01  -8.478162203325749E-01  -1.030542640708263E+00
  -1.124233584471266E+00  -1.116992001241270E+00  -1.005685827664171E+00
  -7.970454983507463E-01  -5.078748451601078E-01  -1.642254721655298E-01
   2.005226797643064E-01   5.486141269185594E-01   8.417100717636867E-01
   1.045190775233182E+00   1.132519070923778E+00   1.089131717600176E+00
   9.152960089220658E-01   6.274112847581504E-01   2.573586374050432E-01
  -1.502928447947010E-01  -5.431412311623824E-01  -8.674707081561167E-01
  -1.075719862023206E+00  -1.133917400674356E+00  -1.027940789407093E+00
  -7.674464290543815E-01  -3.865052502703561E-01   5.963440439416467E-02
   5.016681719986769E-01   8.665718522716414E-01   1.089789841938384E+00
   1.127339011255674E+00   9.655757196835999E-01   6.264390379330125E-01
   1.665022061003283E-01  -3.308697134710376E-01  -7.696519909124169E-01
  -1.059542739841485E+00  -1.135285608599051E+00  -9.728467291727571E-01
  -5.983744231729891E-01  -8.685062836168454E-02   4.507329775409554E-01
   8.902447660717381E-01   1.123148057977833E+00   1.084705231196959E+00
   7.742967185585899E-01   2.613496426207764E-01  -3.268013172417806E-01
  -8.343591535629292E-01  -1.117950847620482E+00  -1.088716440300903E+00
  -7.432409349173870E-01  -1.722856190801139E-01   4.586126347732705E-01
   9.545289794046917E-01   1.151406049175941E+00   9.731022583392255E-01
   4.651568521590943E-01  -2.099880250123524E-01  -8.201683410606575E-01
  -1.141799612665692E+00  -1.044184166653661E+00  -5.480167995095298E-01
   1.688948693144424E-01   8.287103846753539E-01   1.158814766143635E+00
   1.007368320415920E+00   4.201321741737957E-01  -3.615201356569066E-01
  -9.920744759754687E-01  -1.173011419061817E+00  -7.996272235289607E-01
  -3.045658657300642E-02   7.672963238410652E-01   1.186535189449452E+00
   9.907705927065544E-01   2.581381780945135E-01  -6.313469361524517E-01
  -1.181791805740263E+00  -1.058253729989210E+00  -3.023101668014421E-01
   6.555750676699360E-01   1.226257722105424E+00   1.024034924932499E+00
   1.418338303432977E-01  -8.611046685713575E-01  -1.296750574029230E+00
  -8.231975543850681E-01   2.677339556104961E-01   1.197126901892445E+00
   1.240477755390951E+00   3.046834007147107E-01  -9.202296228092181E-01
  -1.436158093793737E+00  -7.476184215110355E-01   6.384952742866592E-01
   1.531258725735959E+00   1.057568219762757E+00  -4.636382666984888E-01
  -1.649418270874990E+00  -1.266701837505996E+00   4.743354140925450E-01
   1.889353200321924E+00   1.379116059546024E+00  -7.662719229312235E-01
  -2.313492614541526E+00  -1.305109269522694E+00   1.496839692305098E+00
   2.901399488006591E+00   7.648533032429300E-01  -2.885572221659454E+00
  -3.389631163287581E+00   8.479368418488917E-01   5.050448517893368E+00
   2.882195760548738E+00  -4.522792754959139E+00  -7.360380284153227E+00
    </PP_AEWFC.2>
    <PP_AEWFC.3 index="3" label="2P" l="1">
   3.060269681848667E-07   3.124649662186039E-07   3.190384027038221E-07
   3.257501269073340E-07   3.326119058810081E-07   3.396456816583105E-07
   3.468504160893892E-07   3.542309100639390E-07   3.617911084340694E-07
   3.695350545395715E-07   3.774669089008179E-07   3.855909281172320E-07
   3.939114518594358E-07   4.024329426005593E-07   4.111599838004532E-07
   4.200972801267668E-07   4.292496581463231E-07   4.386220165236662E-07
   4.482193708982323E-07   4.580469080171613E-07   4.681099388298198E-07
   4.784138918374462E-07   4.889643347532631E-07   4.997669744493452E-07
   5.108276662501826E-07   5.221524061469377E-07   5.337473300251258E-07
   5.456187290619772E-07   5.577730504080518E-07   5.702168988923843E-07
   5.829570403828914E-07   5.960004079411077E-07   6.093541096432321E-07
   6.230254261162927E-07   6.370218143071528E-07   6.513509148379303E-07
   6.660205561707782E-07   6.810387637548241E-07   6.964137583801599E-07
   7.121539603352340E-07   7.282679976286163E-07   7.447647102859443E-07
   7.616531564990842E-07   7.789426165318313E-07   7.966425982180424E-07
   8.147628431968904E-07   8.333133329479193E-07   8.523042937535437E-07
   8.717462034910864E-07   8.916497987548301E-07   9.120260793838965E-07
   9.328863147895358E-07   9.542420521661563E-07   9.761051233087953E-07
   9.984876505344993E-07   1.021402053883799E-06   1.044861059306514E-06
   1.068877705725694E-06   1.093465352949212E-06   1.118637689580437E-06
   1.144408741163404E-06   1.170792878572767E-06   1.197804826339134E-06
   1.225459670531104E-06   1.253772869188420E-06   1.282760263912949E-06
   1.312438084344041E-06   1.342822958443985E-06   1.373931927693226E-06
   1.405782453468038E-06   1.438392427007649E-06   1.471780180757901E-06
   1.505964496940423E-06   1.540964623525269E-06   1.576800284464030E-06
   1.613491686069489E-06   1.651059535354994E-06   1.689525052239345E-06
   1.728909979319795E-06   1.769236596683805E-06   1.810527734718172E-06
   1.852806787914246E-06   1.896097728900510E-06   1.940425122845606E-06
   1.985814142222258E-06   2.032290581936414E-06   2.079880874838404E-06
   2.128612107623325E-06   2.178512037129244E-06   2.229609107044714E-06
   2.281932465034633E-06   2.335511980293925E-06   2.390378261541381E-06
   2.446562675469526E-06   2.504097365656940E-06   2.563015272052833E-06
   2.623350150231018E-06   2.685136589499073E-06   2.748410037228234E-06
   2.813206825089163E-06   2.879564181261534E-06   2.947520259358356E-06
   3.017114165832191E-06   3.088385971147320E-06   3.161376736050303E-06
   3.236128543168908E-06   3.312684514944474E-06   3.391088845182521E-06
   3.471386830242947E-06   3.553624887620344E-06   3.637850588731221E-06
   3.724112686274086E-06   3.812461144011284E-06   3.902947167016042E-06
   3.995623232685357E-06   4.090543122535806E-06   4.187761954798594E-06
   4.287336217826123E-06   4.389323804337429E-06   4.493784046520080E-06
   4.600777752010966E-06   4.710367240777699E-06   4.822616382923121E-06
   4.937590637435956E-06   5.055357091911208E-06   5.175984503264513E-06
   5.299543339465222E-06   5.426105822313627E-06   5.555745971288367E-06
   5.688539648490710E-06   5.824564604713023E-06   5.963900526659506E-06
   6.106629085347852E-06   6.252833985721289E-06   6.402601017501167E-06
   6.556018107310967E-06   6.713175372103426E-06   6.874165173923224E-06
   7.039082176038474E-06   7.208023400475109E-06   7.381088286989068E-06
   7.558378753512088E-06   7.739999258107744E-06   7.926056862475323E-06
   8.116661297040038E-06   8.311925027668991E-06   8.511963324053396E-06
   8.716894329798376E-06   8.926839134263046E-06   9.141921846193309E-06
   9.362269669188343E-06   9.588012979048412E-06   9.819285403254124E-06
   1.005622390122233E-05   1.029896884292769E-05   1.054766409833272E-05
   1.080245713909926E-05   1.106349912306612E-05   1.133094497919715E-05
   1.160495348360296E-05   1.188568736269239E-05   1.217331341978600E-05
   1.246800262077050E-05   1.276993019353961E-05   1.307927573988363E-05
   1.339622334266174E-05   1.372096167809605E-05   1.405368413045873E-05
   1.439458890964209E-05   1.474387917165232E-05   1.510176314210732E-05
   1.546845424280617E-05   1.584417122144882E-05   1.622913828458324E-05
   1.662358523385985E-05   1.702774760567486E-05   1.744186681428634E-05
   1.786619029848848E-05   1.830097167193210E-05   1.874647087718120E-05
   1.920295434359769E-05   1.967069514914882E-05   2.014997318623376E-05
   2.064107533162852E-05   2.114429562065056E-05   2.165993542564708E-05
   2.218830363891327E-05   2.272971686014961E-05   2.328449958856982E-05
   2.385298441977388E-05   2.443551224750316E-05   2.503243247039766E-05
   2.564410320387816E-05   2.627089149727919E-05   2.691317355636166E-05
   2.757133497133712E-05   2.824577095053880E-05   2.893688655987790E-05
   2.964509696822693E-05   3.037082769887517E-05   3.111451488720503E-05
   3.187660554474156E-05   3.265755782973097E-05   3.345784132440792E-05
   3.427793731911492E-05   3.511833910344149E-05   3.597955226455433E-05
   3.686209499289413E-05   3.776649839541874E-05   3.869330681657681E-05
   3.964307816720028E-05   4.061638426150871E-05   4.161381116242305E-05
   4.263595953539099E-05   4.368344501093120E-05   4.475689855610829E-05
   4.585696685515571E-05   4.698431269946867E-05   4.813961538719476E-05
   4.932357113265505E-05   5.053689348583429E-05   5.178031376218406E-05
   5.305458148298885E-05   5.436046482655098E-05   5.569875109045593E-05
   5.707024716518630E-05   5.847578001935858E-05   5.991619719686358E-05
   6.139236732619795E-05   6.290518064228083E-05   6.445554952105685E-05
   6.604440902719350E-05   6.767271747518820E-05   6.934145700420799E-05
   7.105163416699189E-05   7.280428053315407E-05   7.460045330723382E-05
   7.644123596184602E-05   7.832773888629455E-05   8.026110005101921E-05
   8.224248568825526E-05   8.427309098929391E-05   8.635414081874044E-05
   8.848689044617641E-05   9.067262629564160E-05   9.291266671336076E-05
   9.520836275415015E-05   9.756109898694917E-05   9.997229431993210E-05
   1.024434028456658E-04   1.049759147067896E-04   1.075713569827052E-04
   1.102312945977743E-04   1.129573312515343E-04   1.157511103714538E-04
   1.186143160887604E-04   1.215486742378869E-04   1.245559533800939E-04
   1.276379658518388E-04   1.307965688384748E-04   1.340336654738763E-04
   1.373512059666017E-04   1.407511887532155E-04   1.442356616794093E-04
   1.478067232095732E-04   1.514665236654835E-04   1.552172664947895E-04
   1.590612095699955E-04   1.630006665186504E-04   1.670380080854734E-04
   1.711756635271597E-04   1.754161220406268E-04   1.797619342254798E-04
   1.842157135814903E-04   1.887801380418997E-04   1.934579515433792E-04
   1.982519656334928E-04   2.031650611165316E-04   2.082001897386039E-04
   2.133603759128869E-04   2.186487184859642E-04   2.240683925461940E-04
   2.296226512750723E-04   2.353148278425792E-04   2.411483373475116E-04
   2.471266788038350E-04   2.532534371741020E-04   2.595322854510123E-04
   2.659669867882095E-04   2.725613966814334E-04   2.793194652011722E-04
   2.862452392779793E-04   2.933428650416482E-04   3.006165902154603E-04
   3.080707665667494E-04   3.157098524150489E-04   3.235384151991157E-04
   3.315611341041548E-04   3.397828027505882E-04   3.482083319457478E-04
   3.568427524998938E-04   3.656912181079936E-04   3.747590082987217E-04
   3.840515314521723E-04   3.935743278878066E-04   4.033330730241880E-04
   4.133335806120869E-04   4.235818060425720E-04   4.340838497317334E-04
   4.448459605837193E-04   4.558745395337984E-04   4.671761431731934E-04
   4.787574874574684E-04   4.906254515002842E-04   5.027870814543718E-04
   5.152495944816111E-04   5.280203828141365E-04   5.411070179084283E-04
   5.545172546943862E-04   5.682590359214182E-04   5.823404966036182E-04
   5.967699685661412E-04   6.115559850949259E-04   6.267072856919571E-04
   6.422328209382927E-04   6.581417574671299E-04   6.744434830492199E-04
   6.911476117929829E-04   7.082639894617223E-04   7.258026989103701E-04
   7.437740656442490E-04   7.621886635023726E-04   7.810573204678501E-04
   8.003911246080103E-04   8.202014301469001E-04   8.404998636728566E-04
   8.612983304839048E-04   8.826090210737686E-04   9.044444177613362E-04
   9.268173014664654E-04   9.497407586350596E-04   9.732281883163935E-04
   9.972933093957152E-04   1.021950167985198E-03   1.047213144976366E-03
   1.073096963757154E-03   1.099616698096832E-03   1.126787780202052E-03
   1.154626008947328E-03   1.183147558283322E-03   1.212368985826336E-03
   1.242307241632476E-03   1.272979677159994E-03   1.304404054423357E-03
   1.336598555342663E-03   1.369581791292039E-03   1.403372812850721E-03
   1.437991119760589E-03   1.473456671093907E-03   1.509789895635153E-03
   1.547011702480798E-03   1.585143491860975E-03   1.624207166187021E-03
   1.664225141328911E-03   1.705220358126652E-03   1.747216294139742E-03
   1.790236975638856E-03   1.834306989843949E-03   1.879451497413007E-03
   1.925696245185718E-03   1.973067579186392E-03   2.021592457890448E-03
   2.071298465758887E-03   2.122213827045140E-03   2.174367419878755E-03
   2.227788790630408E-03   2.282508168562739E-03   2.338556480771551E-03
   2.395965367421943E-03   2.454767197283951E-03   2.514995083572307E-03
   2.576682900094945E-03   2.639865297714879E-03   2.704577721130117E-03
   2.770856425976269E-03   2.838738496256507E-03   2.908261862103571E-03
   2.979465317878465E-03   3.052388540610528E-03   3.127072108783539E-03
   3.203557521472506E-03   3.281887217835762E-03   3.362104596966999E-03
   3.444254038111820E-03   3.528380921253371E-03   3.614531648071591E-03
   3.702753663280542E-03   3.793095476348304E-03   3.885606683603783E-03
   3.980337990734798E-03   4.077341235681721E-03   4.176669411930847E-03
   4.278376692211662E-03   4.382518452602029E-03   4.489151297045250E-03
   4.598333082282873E-03   4.710122943206985E-03   4.824581318635634E-03
   4.941769977514896E-03   5.061752045550960E-03   5.184592032275486E-03
   5.310355858547322E-03   5.439110884493495E-03   5.570925937892267E-03
   5.705871343000796E-03   5.844018949829808E-03   5.985442163867457E-03
   6.130215976254320E-03   6.278416994411271E-03   6.430123473121729E-03
   6.585415346069488E-03   6.744374257833126E-03   6.907083596337651E-03
   7.073628525763777E-03   7.244096019914895E-03   7.418574896041480E-03
   7.597155849122324E-03   7.779931486601644E-03   7.966996363580690E-03
   8.158447018462130E-03   8.354382009045052E-03   8.554901949067970E-03
   8.760109545196813E-03   8.970109634454344E-03   9.185009222087022E-03
   9.404917519864763E-03   9.629945984808517E-03   9.860208358340063E-03
   1.009582070584778E-02   1.033690145666160E-02   1.058357144442967E-02
   1.083595394788865E-02   1.109417473201883E-02   1.135836208957461E-02
   1.162864688298007E-02   1.190516258657870E-02   1.218804532922549E-02
   1.247743393720873E-02   1.277346997748818E-02   1.307629780123525E-02
   1.338606458765988E-02   1.370292038810811E-02   1.402701817041307E-02
   1.435851386348126E-02   1.469756640209508E-02   1.504433777191107E-02
   1.539899305463282E-02   1.576170047333585E-02   1.613263143792071E-02
   1.651196059066973E-02   1.689986585188081E-02   1.729652846555122E-02
   1.770213304508238E-02   1.811686761897556E-02   1.854092367648697E-02
   1.897449621320926E-02   1.941778377654485E-02   1.987098851103515E-02
   2.033431620350806E-02   2.080797632800456E-02   2.129218209044351E-02
   2.178715047298206E-02   2.229310227802746E-02   2.281026217185404E-02
   2.333885872777754E-02   2.387912446883695E-02   2.443129590993208E-02
   2.499561359936323E-02   2.557232215971715E-02   2.616167032804170E-02
   2.676391099524908E-02   2.737930124468583E-02   2.800810238980524E-02
   2.865058001087583E-02   2.930700399065695E-02   2.997764854897069E-02
   3.066279227609645E-02   3.136271816491232E-02   3.207771364170507E-02
   3.280807059556773E-02   3.355408540630150E-02   3.431605897073595E-02
   3.509429672737886E-02   3.588910867930462E-02   3.670080941518678E-02
   3.752971812837860E-02   3.837615863394142E-02   3.924045938351900E-02
   4.012295347795241E-02   4.102397867752743E-02   4.194387740974335E-02
   4.288299677448947E-02   4.384168854651208E-02   4.482030917505225E-02
   4.581921978053132E-02   4.683878614815837E-02   4.787937871833033E-02
   4.894137257369299E-02   5.002514742272762E-02   5.113108757972492E-02
   5.225958194100522E-02   5.341102395724039E-02   5.458581160173013E-02
   5.578434733448207E-02   5.700703806194236E-02   5.825429509221991E-02
   5.952653408564506E-02   6.082417500049998E-02   6.214764203375551E-02
   6.349736355664606E-02   6.487377204491170E-02   6.627730400353311E-02
   6.770839988578357E-02   6.916750400641804E-02   7.065506444881803E-02
   7.217153296590832E-02   7.371736487465846E-02   7.529301894398083E-02
   7.689895727583426E-02   7.853564517934045E-02   8.020355103771859E-02
   8.190314616784190E-02   8.363490467221837E-02   8.539930328319661E-02
   8.719682119919661E-02   8.902793991276446E-02   9.089314303024916E-02
   9.279291608289948E-02   9.472774632917852E-02   9.669812254809367E-02
   9.870453482334066E-02   1.007474743180599E-01   1.028274330400062E-01
   1.049449035969322E-01   1.071003789419899E-01   1.092943521089551E-01
   1.115273159370832E-01   1.137997627854081E-01   1.161121842362976E-01
   1.184650707880859E-01   1.208589115366059E-01   1.232941938454499E-01
   1.257714030047928E-01   1.282910218786195E-01   1.308535305402030E-01
   1.334594058956896E-01   1.361091212956532E-01   1.388031461344931E-01
   1.415419454375572E-01   1.443259794358821E-01   1.471557031284570E-01
   1.500315658319263E-01   1.529540107176603E-01   1.559234743361393E-01
   1.589403861286076E-01   1.620051679259735E-01   1.651182334349447E-01
   1.682799877114091E-01   1.714908266210884E-01   1.747511362875112E-01
   1.780612925273738E-01   1.814216602733796E-01   1.848325929846681E-01
   1.882944320449707E-01   1.918075061486552E-01   1.953721306748448E-01
   1.989886070498263E-01   2.026572220979887E-01   2.063782473815622E-01
   2.101519385294571E-01   2.139785345555328E-01   2.178582571666557E-01
   2.217913100609403E-01   2.257778782165959E-01   2.298181271718353E-01
   2.339122022963358E-01   2.380602280547736E-01   2.422623072629864E-01
   2.465185203373530E-01   2.508289245380096E-01   2.551935532065563E-01
   2.596124149989370E-01   2.640854931142091E-01   2.686127445199485E-01
   2.731940991750642E-01   2.778294592508257E-01   2.825186983509350E-01
   2.872616607314966E-01   2.920581605217705E-01   2.969079809466125E-01
   3.018108735515307E-01   3.067665574313144E-01   3.117747184632103E-01
   3.168350085456480E-01   3.219470448435467E-01   3.271104090412566E-01
   3.323246466042326E-01   3.375892660505684E-01   3.429037382335738E-01
   3.482674956366290E-01   3.536799316816271E-01   3.591404000523933E-01
   3.646482140345794E-01   3.702026458736545E-01   3.758029261527633E-01
   3.814482431924060E-01   3.871377424741033E-01   3.928705260904614E-01
   3.986456522243358E-01   4.044621346601246E-01   4.103189423305897E-01
   4.162149989030177E-01   4.221491824089543E-01   4.281203249222353E-01
   4.341272122905328E-01   4.401685839260817E-01   4.462431326617055E-01
   4.523495046786342E-01   4.584862995128493E-01   4.646520701467496E-01
   4.708453231927294E-01   4.770645191746860E-01   4.833080729124295E-01
   4.895743540123088E-01   4.958616874649569E-01   5.021683543477529E-01
   5.084925926252385E-01   5.148325980352244E-01   5.211865250415695E-01
   5.275524878266717E-01   5.339285612876553E-01   5.403127819903875E-01
   5.467031490252818E-01   5.530976246990293E-01   5.594941349878984E-01
   5.658905696721995E-01   5.722847820692361E-01   5.786745882849372E-01
   5.850577659136893E-01   5.914320521326804E-01   5.977951411619562E-01
   6.041446810943190E-01   6.104782701394028E-01   6.167934523721208E-01
   6.230877131247186E-01   6.293584742106357E-01   6.356030892132796E-01
   6.418188391091061E-01   6.480029285171851E-01   6.541524828718306E-01
   6.602645467966594E-01   6.663360839148444E-01   6.723639782611064E-01
   6.783450373693266E-01   6.842759970027730E-01   6.901535273826283E-01
   6.959742406679995E-01   7.017346993600950E-01   7.074314252554404E-01
   7.130609085635751E-01   7.186196168331556E-01   7.241040033903849E-01
   7.295105150744511E-01   7.348355991436357E-01   7.400757093111252E-01
   7.452273109421925E-01   7.502868854989374E-01   7.552509343534862E-01
   7.601159821068147E-01   7.648785795514439E-01   7.695353064062991E-01
   7.740827739351566E-01   7.785176275398338E-01   7.828365493983477E-01
   7.870362611984755E-01   7.911135269995764E-01   7.950651562406644E-01
   7.988880069006128E-01   8.025789888068607E-01   8.061350670817862E-01
   8.095532657106342E-01   8.128306712112384E-01   8.159644363834143E-01
   8.189517841145855E-01   8.217900112176930E-01   8.244764922775718E-01
   8.270086834825757E-01   8.293841264192088E-01   8.316004518087365E-01
   8.336553831661581E-01   8.355467403634210E-01   8.372724430803279E-01
   8.388305141281447E-01   8.402190826324752E-01   8.414363870634558E-01
   8.424807781027506E-01   8.433507213381831E-01   8.440447997780998E-01
   8.445617161787419E-01   8.449002951789966E-01   8.450594852379130E-01
   8.450383603713079E-01   8.448361216846605E-01   8.444520987003068E-01
   8.438857504777013E-01   8.431366665262283E-01   8.422045675107166E-01
   8.410893057504447E-01   8.397908655130316E-01   8.383093631051866E-01
   8.366450467628426E-01   8.347982963437325E-01   8.327696228259756E-01
   8.305596676167313E-01   8.281692016754506E-01   8.255991244566964E-01
   8.228504626779402E-01   8.199243689181422E-01   8.168221200533019E-01
   8.135451155355273E-01   8.100948755224964E-01   8.064730388644876E-01
   8.026813609564312E-01   7.987217114626691E-01   7.945960719223328E-01
   7.903065332434127E-01   7.858552930937511E-01   7.812446531972890E-01
   7.764770165439798E-01   7.715548845218232E-01   7.664808539794699E-01
   7.612576142278280E-01   7.558879439890285E-01   7.503747083010084E-01
   7.447208553858399E-01   7.389294134897585E-01   7.330034877026483E-01
   7.269462567645036E-01   7.207609698661256E-01   7.144509434510159E-01
   7.080195580251015E-01   7.014702549805778E-01   6.948065334397677E-01
   6.880319471244942E-01   6.811501012560234E-01   6.741646494901665E-01
   6.670792908916429E-01   6.598977669513237E-01   6.526238586494137E-01
   6.452613835691153E-01   6.378141930522151E-01   6.302861694187566E-01
   6.226812232307067E-01   6.150032906097893E-01   6.072563306067277E-01
   5.994443226204429E-01   5.915712638649563E-01   5.836411668809771E-01
   5.756580570883374E-01   5.676259703745988E-01   5.595489507143200E-01
   5.514310478126305E-01   5.432763147659024E-01   5.350888057314733E-01
   5.268725735975683E-01   5.186316676438091E-01   5.103701311820108E-01
   5.020919991663683E-01   4.938012957616647E-01   4.855020318578137E-01
   4.771982025189151E-01   4.688937843550930E-01   4.605927328057282E-01
   4.522989793233326E-01   4.440164284482648E-01   4.357489547657808E-01
   4.275003997385752E-01   4.192745684099933E-01   4.110752259754921E-01
   4.029060942226703E-01   3.947708478432570E-01   3.866731106237810E-01
   3.786164515251929E-01   3.706043806653949E-01   3.626403452223526E-01
   3.547277252791336E-01   3.468698296357114E-01   3.390698916155996E-01
   3.313310648982078E-01   3.236564194101579E-01   3.160489373105500E-01
   3.085115091062672E-01   3.010469299337852E-01   2.936578960435760E-01
   2.863470015220455E-01   2.791167352840726E-01   2.719694783665934E-01
   2.649075015504014E-01   2.579329633335150E-01   2.510479082751284E-01
   2.442542657244486E-01   2.375538489437521E-01   2.309483546298636E-01
   2.244393628330872E-01   2.180283372675179E-01   2.117166260017229E-01
   2.055054625141048E-01   1.993959670929171E-01   1.933891485569716E-01
   1.874859062695990E-01   1.816870324154654E-01   1.759932145074155E-01
   1.704050380886576E-01   1.649229895943208E-01   1.595474593357260E-01
   1.542787445706021E-01   1.491170526229630E-01   1.440625040174058E-01
   1.391151355941927E-01   1.342749035736069E-01   1.295416865406955E-01
   1.249152883245826E-01   1.203954407500170E-01   1.159818062426347E-01
   1.116739802735105E-01   1.074714936328649E-01   1.033738145271885E-01
   9.938035049846890E-02   9.549045016853835E-02   9.170340481572876E-02
   8.801844979490553E-02   8.443476581548159E-02   8.095148009509258E-02
   7.756766740918238E-02   7.428235105874746E-02   7.109450377988184E-02
   6.800304861953671E-02   6.500685980205780E-02   6.210476361061382E-02
   5.929553930661475E-02   5.657792010869648E-02   5.395059425088203E-02
   5.141220613719536E-02   4.896135760738374E-02   4.659660932558204E-02
   4.431648230081095E-02   4.211945954522044E-02   4.000398787304352E-02
   3.796847984037918E-02   3.601131582323352E-02   3.413084622876125E-02
   3.232539383240032E-02   3.059325623160825E-02   2.893270840520399E-02
   2.734200536590147E-02   2.581938489249059E-02   2.436307032727014E-02
   2.297127342375301E-02   2.164219722933014E-02   2.037403898747608E-02
   1.916499304418386E-02   1.801325374360710E-02   1.691701829833903E-02
   1.587448962034860E-02   1.488387909930034E-02   1.394340931578534E-02
   1.305131667786674E-02   1.220585397027462E-02   1.140529280655699E-02
   1.064792597548960E-02   9.932069674054949E-03   9.256065620308476E-03
   8.618283040447334E-03   8.017120525376112E-03   7.451007753016878E-03
   6.918407073532393E-03   6.417814955516079E-03   5.947763292046554E-03
   5.506820566305305E-03   5.093592877210881E-03   4.706724826230277E-03
   4.344900267186858E-03   4.006842921493620E-03   3.691316861800397E-03
   3.397126867554285E-03   3.123118656434067E-03   2.868178996032760E-03
   2.631235700528312E-03   2.411257517401975E-03   2.207253909538307E-03
   2.018274738271310E-03   1.843409853129127E-03   1.681788594179362E-03
   1.532579212974089E-03   1.394988218199228E-03   1.268259652102601E-03
   1.151674303837529E-03   1.044548865813219E-03   9.462350390608715E-04
   8.561185935468725E-04   7.736183892523806E-04   6.981853636780283E-04
   6.293014913228503E-04   5.664787203996343E-04   5.092578919409056E-04
   4.572076462036238E-04   4.099233210214792E-04   3.670258465001351E-04
   3.281606399458607E-04   2.929965179379513E-04   2.612244679845006E-04
   2.325574846223129E-04   2.067261421365090E-04   1.834850038728994E-04
   1.626070001601354E-04   1.438789566192359E-04   1.271029976706983E-04
   1.120965610853818E-04   9.869144174233133E-05   8.673286639821100E-05
   7.607859941449464E-05   6.659807913288335E-05   5.817158423253070E-05
   5.068942901608275E-05   4.405118614438932E-05   3.816493484782792E-05
   3.294653218635681E-05   2.831890393276667E-05   2.421134766979782E-05
   2.055890376514163E-05   1.730135213126818E-05   1.439393445894504E-05
   1.173151892712262E-05   0.000000000000000E+00   0.000000000000000E+00
   0.000000000000000E+00   0.000000000000000E+00   0.000000000000000E+00
   0.000000000000000E+00   0.000000000000000E+00   0.000000000000000E+00
   0.000000000000000E+00   0.000000000000000E+00   0.000000000000000E+00
   0.000000000000000E+00   0.000000000000000E+00   0.000000000000000E+00
   0.000000000000000E+00   0.000000000000000E+00   0.000000000000000E+00
   0.000000000000000E+00   0.000000000000000E+00   0.000000000000000E+00
   0.000000000000000E+00   0.000000000000000E+00   0.000000000000000E+00
   0.000000000000000E+00   0.000000000000000E+00   0.000000000000000E+00
   0.000000000000000E+00   0.000000000000000E+00   0.000000000000000E+00
   0.000000000000000E+00   0.000000000000000E+00   0.000000000000000E+00
   0.000000000000000E+00   0.000000000000000E+00   0.000000000000000E+00
   0.000000000000000E+00   0.000000000000000E+00   0.000000000000000E+00
   0.000000000000000E+00   0.000000000000000E+00   0.000000000000000E+00
   0.000000000000000E+00   0.000000000000000E+00   0.000000000000000E+00
   0.000000000000000E+00   0.000000000000000E+00   0.000000000000000E+00
   0.000000000000000E+00   0.000000000000000E+00   0.000000000000000E+00
   0.000000000000000E+00   0.000000000000000E+00   0.000000000000000E+00
   0.000000000000000E+00   0.000000000000000E+00   0.000000000000000E+00
   0.000000000000000E+00   0.000000000000000E+00   0.000000000000000E+00
   0.000000000000000E+00   0.000000000000000E+00   0.000000000000000E+00
   0.000000000000000E+00   0.000000000000000E+00   0.000000000000000E+00
   0.000000000000000E+00   0.000000000000000E+00   0.000000000000000E+00
   0.000000000000000E+00   0.000000000000000E+00   0.000000000000000E+00
   0.000000000000000E+00   0.000000000000000E+00   0.000000000000000E+00
   0.000000000000000E+00   0.000000000000000E+00   0.000000000000000E+00
   0.000000000000000E+00   0.000000000000000E+00   0.000000000000000E+00
   0.000000000000000E+00   0.000000000000000E+00   0.000000000000000E+00
   0.000000000000000E+00   0.000000000000000E+00   0.000000000000000E+00
   0.000000000000000E+00   0.000000000000000E+00   0.000000000000000E+00
   0.000000000000000E+00   0.000000000000000E+00   0.000000000000000E+00
   0.000000000000000E+00   0.000000000000000E+00   0.000000000000000E+00
   0.000000000000000E+00   0.000000000000000E+00   0.000000000000000E+00
   0.000000000000000E+00   0.000000000000000E+00   0.000000000000000E+00
   0.000000000000000E+00   0.000000000000000E+00   0.000000000000000E+00
   0.000000000000000E+00   0.000000000000000E+00   0.000000000000000E+00
   0.000000000000000E+00   0.000000000000000E+00   0.000000000000000E+00
   0.000000000000000E+00   0.000000000000000E+00   0.000000000000000E+00
   0.000000000000000E+00   0.000000000000000E+00   0.000000000000000E+00
   0.000000000000000E+00   0.000000000000000E+00   0.000000000000000E+00
   0.000000000000000E+00   0.000000000000000E+00   0.000000000000000E+00
   0.000000000000000E+00   0.000000000000000E+00   0.000000000000000E+00
   0.000000000000000E+00   0.000000000000000E+00   0.000000000000000E+00
   0.000000000000000E+00   0.000000000000000E+00   0.000000000000000E+00
   0.000000000000000E+00   0.000000000000000E+00   0.000000000000000E+00
   0.000000000000000E+00   0.000000000000000E+00   0.000000000000000E+00
   0.000000000000000E+00   0.000000000000000E+00   0.000000000000000E+00
   0.000000000000000E+00   0.000000000000000E+00   0.000000000000000E+00
   0.000000000000000E+00   0.000000000000000E+00   0.000000000000000E+00
   0.000000000000000E+00   0.000000000000000E+00   0.000000000000000E+00
   0.000000000000000E+00   0.000000000000000E+00   0.000000000000000E+00
    </PP_AEWFC.3>
    <PP_AEWFC.4 index="4" label="2P" l="1">
   2.172595033870324E-07   2.218300687326704E-07   2.264967866849981E-07
   2.312616800405563E-07   2.361331026700889E-07   2.411266320503034E-07
   2.462415311531457E-07   2.514812083062188E-07   2.568484641034668E-07
   2.623461690588298E-07   2.679772768769806E-07   2.737448094726504E-07
   2.796518477359280E-07   2.857015597388527E-07   2.918971994463339E-07
   2.982421068731113E-07   3.047397085745941E-07   3.113934822911572E-07
   3.182069888079533E-07   3.251839103856113E-07   3.323280174604833E-07
   3.396431639233470E-07   3.471333024966526E-07   3.548024846968134E-07
   3.626548674320281E-07   3.706947074749335E-07   3.789263609143222E-07
   3.873542940862552E-07   3.959830840579750E-07   4.048174198384586E-07
   4.138621047640964E-07   4.231220608681575E-07   4.326023344332247E-07
   4.423080942420516E-07   4.522446342533200E-07   4.624173788235120E-07
   4.728318856636428E-07   4.834938523329922E-07   4.944091150705653E-07
   5.055836517465800E-07   5.170235876993893E-07   5.287351987860434E-07
   5.407249157478026E-07   5.529993269829433E-07   5.655651824500834E-07
   5.784293980948178E-07   5.915990601342240E-07   6.050814285799274E-07
   6.188839420600150E-07   6.330142228752397E-07   6.474800802135332E-07
   6.622895146419846E-07   6.774507239361440E-07   6.929721079199989E-07
   7.088622726697816E-07   7.251300356265613E-07   7.417844314076469E-07
   7.588347168215385E-07   7.762903764846578E-07   7.941611284374272E-07
   8.124569299268239E-07   8.311879833627166E-07   8.503647422283276E-07
   8.699979166759856E-07   8.900984809339955E-07   9.106776815354944E-07
   9.317470404956938E-07   9.533183626138977E-07   9.754037462611259E-07
   9.980155879078761E-07   1.021166589200149E-06   1.044869765012730E-06
   1.069138449532771E-06   1.093986307599329E-06   1.119427341968238E-06
   1.145475897841278E-06   1.172146675885950E-06   1.199454740900167E-06
   1.227415528750486E-06   1.256044856887503E-06   1.285358933439526E-06
   1.315374367013410E-06   1.346108176656796E-06   1.377577802083348E-06
   1.409801114154202E-06   1.442796425618706E-06   1.476582502126352E-06
   1.511178573515044E-06   1.546604345381795E-06   1.582880010943998E-06
   1.620026263197706E-06   1.658064307379630E-06   1.697015873741630E-06
   1.736903230648948E-06   1.777749198006758E-06   1.819577161092980E-06
   1.862411084227383E-06   1.906275523627950E-06   1.951195644683548E-06
   1.997197240579635E-06   2.044306740966337E-06   2.092551232492852E-06
   2.141958478264111E-06   2.192556925772358E-06   2.244375725547570E-06
   2.297444753590671E-06   2.351794624104395E-06   2.407456711892196E-06
   2.464463174501293E-06   2.522846965413542E-06   2.582641857322275E-06
   2.643882461556216E-06   2.706604249222699E-06   2.770843572681149E-06
   2.836637687560259E-06   2.904024775330990E-06   2.973043966446999E-06
   3.043735364061156E-06   3.116140068337650E-06   3.190300201372086E-06
   3.266258932735568E-06   3.344060505658143E-06   3.423750263867594E-06
   3.505374679099937E-06   3.588981379298383E-06   3.674619177517921E-06
   3.762338101553158E-06   3.852189424307425E-06   3.944225694921636E-06
   4.038500770681869E-06   4.135069849725041E-06   4.233989504562613E-06
   4.335317716442691E-06   4.439113910571403E-06   4.545438992214990E-06
   4.654355383704534E-06   4.765927062365793E-06   4.880219599397222E-06
   4.997300199719738E-06   5.117237742822462E-06   5.240102824629193E-06
   5.365967800411069E-06   5.494906828771377E-06   5.626995916729252E-06
   5.762312965929552E-06   5.900937820006934E-06   6.042952313132831E-06
   6.188440319774738E-06   6.337487805698055E-06   6.490182880240648E-06
   6.646615849889218E-06   6.806879273191287E-06   6.971068017180356E-06
   7.139279314352449E-06   7.311612818482404E-06   7.488170668113420E-06
   7.669057558765606E-06   7.854380802909694E-06   8.044250390274735E-06
   8.238779041818712E-06   8.438082282959361E-06   8.642278533461543E-06
   8.851489168246359E-06   9.065838587987823E-06   9.285454298547161E-06
   9.510466987058263E-06   9.741010601649169E-06   9.977222432862542E-06
   1.021924319712280E-05   1.046721712227887E-05   1.072129203527964E-05
   1.098161945203008E-05   1.124835466948384E-05   1.152165686002702E-05
   1.180168916821001E-05   1.208861880988522E-05   1.238261717381010E-05
   1.268385992577636E-05   1.299252711532774E-05   1.330880328513009E-05
   1.363287758305926E-05   1.396494387707378E-05   1.430520087294091E-05
   1.465385223488638E-05   1.501110670923993E-05   1.537717825115024E-05
   1.575228615444489E-05   1.613665518471278E-05   1.653051571568811E-05
   1.693410386901731E-05   1.734766165749186E-05   1.777143713183232E-05
   1.820568453111070E-05   1.865066443690049E-05   1.910664393124596E-05
   1.957389675854422E-05   2.005270349143627E-05   2.054335170080501E-05
   2.104613612998112E-05   2.156135887325974E-05   2.208932955883353E-05
   2.263036553625018E-05   2.318479206850514E-05   2.375294252888283E-05
   2.433515860266241E-05   2.493179049380707E-05   2.554319713675841E-05
   2.616974641346064E-05   2.681181537574217E-05   2.746979047318516E-05
   2.814406778661707E-05   2.883505326736089E-05   2.954316298238454E-05
   3.026882336549284E-05   3.101247147470928E-05   3.177455525599794E-05
   3.255553381347978E-05   3.335587768630094E-05   3.417606913231473E-05
   3.501660241874256E-05   3.587798411998304E-05   3.676073342274268E-05
   3.766538243866542E-05   3.859247652464263E-05   3.954257461098953E-05
   4.051624953767814E-05   4.151408839882163E-05   4.253669289560928E-05
   4.358467969789627E-05   4.465868081465686E-05   4.575934397351495E-05
   4.688733300957062E-05   4.804332826374648E-05   4.922802699088308E-05
   5.044214377781777E-05   5.168641097168703E-05   5.296157911869765E-05
   5.426841741361833E-05   5.560771416024849E-05   5.698027724312767E-05
   5.838693461075471E-05   5.982853477059193E-05   6.130594729613654E-05
   6.282006334634739E-05   6.437179619772213E-05   6.596208178932683E-05
   6.759187928108659E-05   6.926217162565336E-05   7.097396615417388E-05
   7.272829517628866E-05   7.452621659469992E-05   7.636881453465457E-05
   7.825719998869610E-05   8.019251147704729E-05   8.217591572399383E-05
   8.420860835064767E-05   8.629181458447708E-05   8.842678998599963E-05
   9.061482119304301E-05   9.285722668298767E-05   9.515535755341505E-05
   9.751059832159430E-05   9.992436774325019E-05   1.023981196510652E-04
   1.049333438133786E-04   1.075315668135551E-04   1.101943529505088E-04
   1.129233051608744E-04   1.157200659633337E-04   1.185863184256131E-04
   1.215237871546802E-04   1.245342393106807E-04   1.276194856451662E-04
   1.307813815641785E-04   1.340218282167651E-04   1.373427736095177E-04
   1.407462137477327E-04   1.442341938038118E-04   1.478088093135295E-04
   1.514722074008114E-04   1.552265880316774E-04   1.590742052980237E-04
   1.630173687319245E-04   1.670584446511573E-04   1.711998575366636E-04
   1.754440914426763E-04   1.797936914402599E-04   1.842512650950245E-04
   1.888194839797919E-04   1.935010852230077E-04   1.982988730937117E-04
   2.032157206238929E-04   2.082545712690770E-04   2.134184406080082E-04
   2.187104180823079E-04   2.241336687770088E-04   2.296914352428845E-04
   2.353870393615108E-04   2.412238842540171E-04   2.472054562345019E-04
   2.533353268091122E-04   2.596171547218010E-04   2.660546880478023E-04
   2.726517663358809E-04   2.794123228004382E-04   2.863403865645748E-04
   2.934400849552344E-04   3.007156458515745E-04   3.081714000877338E-04
   3.158117839111881E-04   3.236413414979094E-04   3.316647275255696E-04
   3.398867098060507E-04   3.483121719785506E-04   3.569461162645983E-04
   3.657936662863149E-04   3.748600699492872E-04   3.841507023914416E-04
   3.936710689993365E-04   4.034268084933157E-04   4.134236960829920E-04
   4.236676466945613E-04   4.341647182714699E-04   4.449211151499902E-04
   4.559431915112859E-04   4.672374549115784E-04   4.788105698920537E-04
   4.906693616701796E-04   5.028208199141319E-04   5.152721026020599E-04
   5.280305399679500E-04   5.411036385358790E-04   5.544990852444772E-04
   5.682247516634559E-04   5.822886983040828E-04   5.966991790255215E-04
   6.114646455389859E-04   6.265937520116857E-04   6.420953597725830E-04
   6.579785421220015E-04   6.742525892471694E-04   6.909270132458099E-04
   7.080115532599252E-04   7.255161807219528E-04   7.434511047155083E-04
   7.618267774529646E-04   7.806538998721460E-04   7.999434273544539E-04
   8.197065755667765E-04   8.399548264295630E-04   8.606999342134822E-04
   8.819539317671197E-04   9.037291368781980E-04   9.260381587708415E-04
   9.488939047414419E-04   9.723095869357107E-04   9.962987292695439E-04
   1.020875174496354E-03   1.046053091423555E-03   1.071846982280931E-03
   1.098271690243633E-03   1.125342407112601E-03   1.153074681155220E-03
   1.181484425109070E-03   1.210587924351649E-03   1.240401845238975E-03
   1.270943243616014E-03   1.302229573501908E-03   1.334278695952991E-03
   1.367108888106631E-03   1.400738852408944E-03   1.435187726029463E-03
   1.470475090465860E-03   1.506620981341861E-03   1.543645898401487E-03
   1.581570815702807E-03   1.620417192014386E-03   1.660206981417641E-03
   1.700962644118335E-03   1.742707157470446E-03   1.785464027215673E-03
   1.829257298941842E-03   1.874111569763501E-03   1.920052000227985E-03
   1.967104326450240E-03   2.015294872479716E-03   2.064650562902620E-03
   2.115198935682832E-03   2.166968155244770E-03   2.219987025801517E-03
   2.274285004931455E-03   2.329892217406712E-03   2.386839469276645E-03
   2.445158262209621E-03   2.504880808096284E-03   2.566040043917520E-03
   2.628669646880261E-03   2.692804049824267E-03   2.758478456902966E-03
   2.825728859541413E-03   2.894592052674349E-03   2.965105651267333E-03
   3.037308107123831E-03   3.111238725981094E-03   3.186937684897608E-03
   3.264446049934800E-03   3.343805794135627E-03   3.425059815802583E-03
   3.508251957077580E-03   3.593427022826038E-03   3.680630799827455E-03
   3.769910076274579E-03   3.861312661583212E-03   3.954887406514555E-03
   4.050684223611839E-03   4.148754107952888E-03   4.249149158220083E-03
   4.351922598089049E-03   4.457128797937224E-03   4.564823296873276E-03
   4.675062825088184E-03   4.787905326528556E-03   4.903409981892599E-03
   5.021637231948907E-03   5.142648801178015E-03   5.266507721736446E-03
   5.393278357742692E-03   5.523026429884345E-03   5.655819040345295E-03
   5.791724698051641E-03   5.930813344234630E-03   6.073156378308684E-03
   6.218826684062167E-03   6.367898656158275E-03   6.520448226943025E-03
   6.676552893556967E-03   6.836291745346853E-03   6.999745491573086E-03
   7.166996489408350E-03   7.338128772222389E-03   7.513228078147443E-03
   7.692381878918380E-03   7.875679408981042E-03   8.063211694861867E-03
   8.255071584791258E-03   8.451353778572642E-03   8.652154857688624E-03
   8.857573315634963E-03   9.067709588472595E-03   9.282666085587178E-03
   9.502547220645068E-03   9.727459442733883E-03   9.957511267675176E-03
   1.019281330949593E-02   1.043347831204491E-02   1.067962118073906E-02
   1.093135901442437E-02   1.118881113733490E-02   1.145209913113247E-02
   1.172134686700911E-02   1.199668053783302E-02   1.227822869031819E-02
   1.256612225719662E-02   1.286049458937112E-02   1.316148148802591E-02
   1.346922123667077E-02   1.378385463309370E-02   1.410552502119587E-02
   1.443437832268139E-02   1.477056306857352E-02   1.511423043052720E-02
   1.546553425190736E-02   1.582463107860025E-02   1.619168018952453E-02
   1.656684362680703E-02   1.695028622558691E-02   1.734217564341052E-02
   1.774268238917782E-02   1.815197985159965E-02   1.857024432712384E-02
   1.899765504728642E-02   1.943439420544269E-02   1.988064698283127E-02
   2.033660157392265E-02   2.080244921100211E-02   2.127838418793495E-02
   2.176460388306061E-02   2.226130878116012E-02   2.276870249443958E-02
   2.328699178247078E-02   2.381638657102788E-02   2.435709996975722E-02
   2.490934828861558E-02   2.547335105301001E-02   2.604933101757035E-02
   2.663751417848384E-02   2.723812978431864E-02   2.785141034526143E-02
   2.847759164069196E-02   2.911691272501515E-02   2.976961593166954E-02
   3.043594687522821E-02   3.111615445150644E-02   3.181049083558806E-02
   3.251921147767996E-02   3.324257509670245E-02   3.398084367152009E-02
   3.473428242971635E-02   3.550315983381196E-02   3.628774756482563E-02
   3.708832050307255E-02   3.790515670609441E-02   3.873853738361195E-02
   3.958874686938890E-02   4.045607258989380E-02   4.134080502964393E-02
   4.224323769311310E-02   4.316366706308306E-02   4.410239255531567E-02
   4.505971646942113E-02   4.603594393579503E-02   4.703138285849492E-02
   4.804634385392512E-02   4.908114018519610E-02   5.013608769202312E-02
   5.121150471602646E-02   5.230771202129395E-02   5.342503271006453E-02
   5.456379213338987E-02   5.572431779662948E-02   5.690693925963294E-02
   5.811198803146181E-02   5.933979745950192E-02   6.059070261281607E-02
   6.186504015958566E-02   6.316314823848887E-02   6.448536632386258E-02
   6.583203508449396E-02   6.720349623588789E-02   6.860009238585549E-02
   7.002216687326962E-02   7.147006359983242E-02   7.294412685470182E-02
   7.444470113182269E-02   7.597213093981116E-02   7.752676060424007E-02
   7.910893406217635E-02   8.071899464882187E-02   8.235728487611214E-02
   8.402414620312927E-02   8.571991879818844E-02   8.744494129246053E-02
   8.919955052499690E-02   9.098408127902656E-02   9.279886600940024E-02
   9.464423456106068E-02   9.652051387842445E-02   9.842802770556562E-02
   1.003670962770987E-01   1.023380359996653E-01   1.043411591239351E-01
   1.063767734070433E-01   1.084451817653900E-01   1.105466819177419E-01
   1.126815660185832E-01   1.148501202816745E-01   1.170526245937886E-01
   1.192893521186071E-01   1.215605688907701E-01   1.238665334000884E-01
   1.262074961659402E-01   1.285836993018883E-01   1.309953760705713E-01
   1.334427504289377E-01   1.359260365639076E-01   1.384454384185664E-01
   1.410011492090125E-01   1.435933509319993E-01   1.462222138635315E-01
   1.488878960485988E-01   1.515905427822456E-01   1.543302860822018E-01
   1.571072441533179E-01   1.599215208440723E-01   1.627732050954386E-01
   1.656623703824257E-01   1.685890741486251E-01   1.715533572341220E-01
   1.745552432971506E-01   1.775947382298974E-01   1.806718295688753E-01
   1.837864859003170E-01   1.869386562610569E-01   1.901282695353881E-01
   1.933552338484069E-01   1.966194359563736E-01   1.999207406346357E-01
   2.032589900636835E-01   2.066340032139183E-01   2.100455752297369E-01
   2.134934768135487E-01   2.169774536103585E-01   2.204972255935680E-01
   2.240524864526613E-01   2.276429029834641E-01   2.312681144816823E-01
   2.349277321404536E-01   2.386213384526705E-01   2.423484866188701E-01
   2.461086999615244E-01   2.499014713466153E-01   2.537262626134391E-01
   2.575825040136587E-01   2.614695936607099E-01   2.653868969907767E-01
   2.693337462366753E-01   2.733094399161387E-01   2.773132423361692E-01
   2.813443831153268E-01   2.854020567260538E-01   2.894854220594000E-01
   2.935936020147951E-01   2.977256831178196E-01   3.018807151692637E-01
   3.060577109291117E-01   3.102556458394023E-01   3.144734577902285E-01
   3.187100469334043E-01   3.229642755484836E-01   3.272349679658588E-01
   3.315209105515116E-01   3.358208517575791E-01   3.401335022421544E-01
   3.444575350605644E-01   3.487915859286675E-01   3.531342535563796E-01
   3.574841000465727E-01   3.618396513506224E-01   3.661993977671480E-01
   3.705617944649237E-01   3.749252620046122E-01   3.792881868271061E-01
   3.836489216691754E-01   3.880057858603286E-01   3.923570654489346E-01
   3.967010131015528E-01   4.010358477179783E-01   4.053597537067075E-01
   4.096708798722430E-01   4.139673378776231E-01   4.182472002631580E-01
   4.225084980255627E-01   4.267492177899040E-01   4.309672986388888E-01
   4.351606286982452E-01   4.393270416110037E-01   4.434643130645589E-01
   4.475701575593201E-01   4.516422256231160E-01   4.556781016779531E-01
   4.596753027523098E-01   4.636312782010357E-01   4.675434105460121E-01
   4.714090174863573E-01   4.752253550521849E-01   4.789896217984060E-01
   4.826989638639674E-01   4.863504806664665E-01   4.899412309695992E-01
   4.934682390552577E-01   4.969285007528313E-01   5.003189891208101E-01
   5.036366596325700E-01   5.068784547804649E-01   5.100413080718197E-01
   5.131221474408232E-01   5.161178981379422E-01   5.190254851822547E-01
   5.218418354729902E-01   5.245638796569386E-01   5.271885538411132E-01
   5.297128012280576E-01   5.321335737368778E-01   5.344478336583931E-01
   5.366525553789483E-01   5.387447271951757E-01   5.407213532316457E-01
   5.425794554649513E-01   5.443160758511997E-01   5.459282785489160E-01
   5.474131522257674E-01   5.487678124350291E-01   5.499894040461500E-01
   5.510751037129156E-01   5.520221223624263E-01   5.528277076882573E-01
   5.534891466316542E-01   5.540037678353433E-01   5.543689440554531E-01
   5.545820945180586E-01   5.546406872079679E-01   5.545422410784981E-01
   5.542843281721233E-01   5.538645756429954E-01   5.532806676734210E-01
   5.525303472774029E-01   5.516114179853417E-01   5.505217454049013E-01
   5.492592586539052E-01   5.478219516619294E-01   5.462078843380012E-01
   5.444151836025062E-01   5.424420442820553E-01   5.402867298666678E-01
   5.379475731291967E-01   5.354229766074615E-01   5.327114129500629E-01
   5.298114251273409E-01   5.267216265094051E-01   5.234407008136057E-01
   5.199674019242495E-01   5.163005535877739E-01   5.124390489869877E-01
   5.083818501983692E-01   5.041279875367763E-01   4.996765587922678E-01
   4.950267283640702E-01   4.901777262970258E-01   4.851288472261543E-01
   4.798794492352251E-01   4.744289526354786E-01   4.687768386708572E-01
   4.629226481562972E-01   4.568659800557934E-01   4.506064900070867E-01
   4.441438887999240E-01   4.374779408149111E-01   4.306084624300153E-01
   4.235353204017759E-01   4.162584302282483E-01   4.087777545006332E-01
   4.010933012504373E-01   3.932051222988637E-01   3.851133116149467E-01
   3.768180036887204E-01   3.683193719254465E-01   3.596176270666281E-01
   3.507130156431871E-01   3.416058184658065E-01   3.322963491570129E-01
   3.227849527291176E-01   3.130720042116292E-01   3.031579073312169E-01
   2.930430932467271E-01   2.827280193411397E-01   2.722131680717057E-01
   2.614990458788183E-01   2.505861821534788E-01   2.394751282624585E-01
   2.281664566294822E-01   2.166607598699850E-01   2.049586499762117E-01
   1.930607575485838E-01   1.809677310684512E-01   1.686802362065625E-01
   1.561989551608109E-01   1.435245860160641E-01   1.306578421181979E-01
   1.175994514538440E-01   1.043501560268498E-01   9.091071122205632E-02
   7.728188514677495E-02   6.346445794029250E-02   4.945922104191652E-02
   3.526697640851301E-02   2.088853567323773E-02   6.324719238255970E-03
  -8.423644704272286E-03  -2.335572122675594E-02  -3.847066979772720E-02
  -5.376764548896669E-02  -6.924580025340585E-02  -8.490428426512282E-02
  -1.007422473083479E-01  -1.167588401975113E-01  -1.329532162050465E-01
  -1.493245324679757E-01  -1.658719513383494E-01  -1.825946416365038E-01
  -1.994917797599886E-01  -2.165625505950722E-01  -2.338061481721367E-01
  -2.512217760012403E-01  -2.688086470198608E-01  -2.865659830815571E-01
  -3.044930139122095E-01  -3.225889754598114E-01  -3.408531075646674E-01
  -3.592846508794390E-01  -3.778828429728759E-01  -3.966469135573352E-01
  -4.155760787883321E-01  -4.346695345943561E-01  -4.539264490069161E-01
  -4.733459534741359E-01  -4.929271331560202E-01  -5.126690162155397E-01
  -5.325705621366701E-01  -5.526306491182361E-01  -5.728480606105826E-01
  -5.932214710803387E-01  -6.137494311066326E-01  -6.344303519297433E-01
  -6.552624895900062E-01  -6.762439288105305E-01  -6.973725667916599E-01
  -7.186460970977976E-01  -7.400619938279451E-01  -7.616174962697757E-01
  -7.833095942430091E-01  -8.051350143409807E-01  -8.270902072793651E-01
  -8.491713365577547E-01  -8.713742686330059E-01  -8.936945647927625E-01
  -9.161274749032161E-01  -9.386679331869109E-01  -9.613105561642563E-01
  -9.840496428664794E-01  -1.006879177398283E+00  -1.029792833895758E+00
  -1.052783983889669E+00  -1.075845706046592E+00  -1.098970798221334E+00
  -1.122151791714329E+00  -1.145380967588272E+00  -1.168650374859959E+00
  -1.191951850347291E+00  -1.215277039918396E+00  -1.238617420861012E+00
  -1.261964325066166E+00  -1.285308962701684E+00  -1.308642446038537E+00
  -1.331955813086809E+00  -1.355240050698315E+00  -1.378486116799408E+00
  -1.401684961430083E+00  -1.424827546283541E+00  -1.447904862463314E+00
  -1.470907946202082E+00  -1.493827892316582E+00  -1.516655865205600E+00
  -1.539383107232010E+00  -1.562000944364379E+00  -1.584500788987806E+00
  -1.606874139826857E+00  -1.629112578954864E+00  -1.651207765893145E+00
  -1.673151428830266E+00  -1.694935353015272E+00  -1.716551366399445E+00
  -1.737991322618802E+00  -1.759247081424035E+00  -1.780310486676263E+00
  -1.801173342035789E+00  -1.821827384477478E+00  -1.842264255770447E+00
  -1.862475472062022E+00  -1.882452391706426E+00  -1.902186181477932E+00
  -1.921667781306397E+00  -1.940887867670540E+00  -1.959836815781272E+00
  -1.978504660684100E+00  -1.996881057406266E+00  -2.014955240271100E+00
  -2.032715981499223E+00  -2.050151549213789E+00  -2.067249664965181E+00
  -2.083997460889396E+00  -2.100381436614024E+00  -2.116387416026146E+00
  -2.132000504017837E+00  -2.147205043327217E+00  -2.161984571596165E+00
  -2.176321778770011E+00  -2.190198464969623E+00  -2.203595498972431E+00
  -2.216492777446006E+00  -2.228869185085878E+00  -2.240702555818276E+00
  -2.251969635238447E+00  -2.262646044466127E+00  -2.272706245611525E+00
  -2.282123509057946E+00  -2.290869882780788E+00  -2.298916163937091E+00
  -2.306231872975189E+00  -2.312785230530126E+00  -2.318543137387405E+00
  -2.323471157815361E+00  -2.327533506584816E+00  -2.330693040013760E+00
  -2.332911251394527E+00  -2.334148271183623E+00  -2.334362872353174E+00
  -2.333512481305211E+00  -2.331553194805343E+00  -2.328439803431896E+00
  -2.324125821963040E+00  -2.318563527252287E+00  -2.311704004106743E+00
  -2.303497199731110E+00  -2.293891987311157E+00  -2.282836239267302E+00
  -2.270276910843242E+00  -2.256160134773926E+00  -2.240431327469348E+00
  -2.223035307526857E+00  -2.203916427200790E+00  -2.183018717536346E+00
  -2.160286047843974E+00  -2.135662300486349E+00  -2.109101228225110E+00
  -2.080587554960847E+00  -2.050095681372690E+00  -2.017546043949511E+00
  -1.982889600359735E+00  -1.946069759000288E+00  -1.907033111678165E+00
  -1.865728290412572E+00  -1.822106412313770E+00  -1.776121438193696E+00
  -1.727730548721879E+00  -1.676894542826132E+00  -1.623578257971536E+00
  -1.567751012527150E+00  -1.509387070220409E+00  -1.448466126554772E+00
  -1.384973816902906E+00  -1.318902245810003E+00  -1.250250536842543E+00
  -1.179025402096587E+00  -1.105241730235145E+00  -1.028923191655066E+00
  -9.501028590890246E-01  -8.688238416264271E-01  -7.851399297873246E-01
  -6.991162489049518E-01  -6.108299176644084E-01  -5.203707082068846E-01
  -4.278417037403662E-01  -3.333599490989930E-01  -2.370570891645692E-01
  -1.390799895059311E-01  -3.959133300624992E-02   6.122981436330095E-02
   1.631874761003042E-01   2.660682841907027E-01   3.696410533957920E-01
   4.736564202949501E-01   5.778465572620216E-01   6.819249722418131E-01
   7.855864058728117E-01   8.885068381631060E-01   9.903436175584088E-01
   1.090735725831443E+00   1.189304192757074E+00   1.285652675001861E+00
   1.379368214032921E+00   1.470022188119916E+00   1.557171473644656E+00
   1.640359830922230E+00   1.719119529550810E+00   1.792973227917677E+00
   1.861436120867765E+00   1.924018368658028E+00   1.980227819144186E+00
   2.029573033642897E+00   2.071566625048037E+00   2.105728914519940E+00
   2.131591910376469E+00   2.148703609660659E+00   2.156632619208542E+00
   2.154973088862080E+00   2.143349944738520E+00   2.121424405155776E+00
   2.088899755906430E+00   2.045527355060193E+00   1.991112830354935E+00
   1.925522424518895E+00   1.848689435573247E+00   1.760620690331766E+00
   1.661402979996612E+00   1.551209377019815E+00   1.430305342354466E+00
   1.299054521978012E+00   1.157924121280023E+00   1.007489735745356E+00
   8.484395065400309E-01   6.815774603645437E-01   5.078258845567573E-01
   3.282265812197798E-01   1.439408384725163E-01  -4.375204683803406E-02
  -2.334578620376116E-01  -4.236723528246342E-01  -6.127880397768368E-01
  -7.991031296954751E-01  -9.808326615197553E-01  -1.156122008897638E+00
  -1.323062838486659E+00  -1.479711594187287E+00  -1.624110542332694E+00
  -1.754311370989545E+00  -1.868401287672371E+00  -1.964531503766476E+00
  -2.040947930769677E+00  -2.096023843265123E+00  -2.128294186712680E+00
  -2.136491125342258E+00  -2.119580337597538E+00  -2.076797475001116E+00
  -2.007684106658066E+00  -1.912122377961334E+00  -1.790367520925347E+00
  -1.643077267927999E+00  -1.471337143926430E+00  -1.276680548327776E+00
  -1.061102490975091E+00  -8.270658218681055E-01  -5.774987963057182E-01
  -3.157828513436799E-01  -4.572954110243314E-02   2.284543072821977E-01
   5.022139935507439E-01   7.707074630998341E-01   1.028879239182968E+00
   1.271547737366936E+00   1.493505547703005E+00   1.689631830557589E+00
   1.855015480385918E+00   1.985087174795480E+00   2.075757854191014E+00
   2.123560583924545E+00   2.125792153932695E+00   2.080650192181919E+00
   1.987361033851720E+00   1.846293128028733E+00   1.659050411285406E+00
   1.428539869266734E+00   1.159007481536967E+00   8.560369401170330E-01
   5.265059856923106E-01   1.784959511539375E-01  -1.788488324381023E-01
  -5.355137087306249E-01  -8.808586410670167E-01  -1.203913540247882E+00
  -1.493719697423717E+00  -1.739710401974170E+00  -1.932121004280806E+00
  -2.062415790004877E+00  -2.123716198138274E+00  -2.111212299561643E+00
  -2.022537240941632E+00  -1.858082755383811E+00  -1.621233063586725E+00
  -1.318494756389904E+00  -9.595017688022971E-01  -5.568775055600057E-01
  -1.259406899011527E-01   3.157523576348186E-01   7.490285744977386E-01
   1.153872529114501E+00   1.510334338031355E+00   1.799540041410625E+00
   2.004762059090256E+00   2.112496603708915E+00   2.113485588289385E+00
   2.003613595601083E+00   1.784606890179592E+00   1.464462248984947E+00
   1.057539457394854E+00   5.842633506631719E-01   7.039964310857645E-02
  -4.541065946597894E-01  -9.567106983976957E-01  -1.404212676980741E+00
  -1.764975207572786E+00  -2.011287778343986E+00  -2.121716105013954E+00
  -2.083249918058575E+00  -1.893047428256781E+00  -1.559575087168168E+00
    </PP_AEWFC.4>
    <PP_PSWFC.1 size="1095" index="1" label="2S" l="0">
  -2.435524227034526E-04  -2.466159349779078E-04  -2.497179814902954E-04
  -2.528590469415544E-04  -2.560396221294076E-04  -2.592602040250482E-04
  -2.625212958507938E-04  -2.658234071587148E-04  -2.691670539102526E-04
  -2.725527585568405E-04  -2.759810501215362E-04  -2.794524642816833E-04
  -2.829675434526112E-04  -2.865268368723886E-04  -2.901309006876437E-04
  -2.937802980404607E-04  -2.974755991563739E-04  -3.012173814334646E-04
  -3.050062295325812E-04  -3.088427354686941E-04  -3.127274987033968E-04
  -3.166611262385743E-04  -3.206442327112473E-04  -3.246774404896105E-04
  -3.287613797702785E-04  -3.328966886767540E-04  -3.370840133591366E-04
  -3.413240080950836E-04  -3.456173353920425E-04  -3.499646660907686E-04
  -3.543666794701439E-04  -3.588240633533164E-04  -3.633375142151722E-04
  -3.679077372911612E-04  -3.725354466874913E-04  -3.772213654927073E-04
  -3.819662258906752E-04  -3.867707692749862E-04  -3.916357463648002E-04
  -3.965619173221477E-04  -4.015500518707040E-04  -4.066009294160604E-04
  -4.117153391675073E-04  -4.168940802613477E-04  -4.221379618857653E-04
  -4.274478034072581E-04  -4.328244344986669E-04  -4.382686952688122E-04
  -4.437814363937605E-04  -4.493635192497464E-04  -4.550158160477591E-04
  -4.607392099698291E-04  -4.665345953070241E-04  -4.724028775991838E-04
  -4.783449737764115E-04  -4.843618123023429E-04  -4.904543333192206E-04
  -4.966234887947918E-04  -5.028702426710525E-04  -5.091955710148665E-04
  -5.156004621704729E-04  -5.220859169139171E-04  -5.286529486094225E-04
  -5.353025833677276E-04  -5.420358602064184E-04  -5.488538312122727E-04
  -5.557575617056496E-04  -5.627481304069461E-04  -5.698266296051467E-04
  -5.769941653284954E-04  -5.842518575173096E-04  -5.916008401989722E-04
  -5.990422616651236E-04  -6.065772846510806E-04  -6.142070865175157E-04
  -6.219328594344166E-04  -6.297558105673642E-04  -6.376771622661505E-04
  -6.456981522557706E-04  -6.538200338298175E-04  -6.620440760463062E-04
  -6.703715639259645E-04  -6.788037986530166E-04  -6.873420977784901E-04
  -6.959877954260862E-04  -7.047422425006303E-04  -7.136068068991521E-04
  -7.225828737246174E-04  -7.316718455023482E-04  -7.408751423991675E-04
  -7.501942024452948E-04  -7.596304817590387E-04  -7.691854547743117E-04
  -7.788606144710086E-04  -7.886574726082837E-04  -7.985775599607559E-04
  -8.086224265576932E-04  -8.187936419251996E-04  -8.290927953314494E-04
  -8.395214960350109E-04  -8.500813735362828E-04  -8.607740778321043E-04
  -8.716012796735604E-04  -8.825646708270326E-04  -8.936659643385347E-04
  -9.049068948013673E-04  -9.162892186271446E-04  -9.278147143202278E-04
  -9.394851827556094E-04  -9.513024474602971E-04  -9.632683548982273E-04
  -9.753847747587731E-04  -9.876536002488719E-04  -1.000076748388834E-03
  -1.012656160311869E-03  -1.025393801567377E-03  -1.038291662428056E-03
  -1.051351758200878E-03  -1.064576129541961E-03  -1.077966842775423E-03
  -1.091525990216225E-03  -1.105255690497086E-03  -1.119158088899510E-03
  -1.133235357688967E-03  -1.147489696454309E-03  -1.161923332451424E-03
  -1.176538520951248E-03  -1.191337545592123E-03  -1.206322718736603E-03
  -1.221496381832753E-03  -1.236860905779968E-03  -1.252418691299417E-03
  -1.268172169309135E-03  -1.284123801303835E-03  -1.300276079739496E-03
  -1.316631528422783E-03  -1.333192702905376E-03  -1.349962190883246E-03
  -1.366942612600959E-03  -1.384136621261071E-03  -1.401546903438649E-03
  -1.419176179501034E-03  -1.437027204032864E-03  -1.455102766266446E-03
  -1.473405690517547E-03  -1.491938836626652E-03  -1.510705100405788E-03
  -1.529707414090953E-03  -1.548948746800243E-03  -1.568432104997740E-03
  -1.588160532963224E-03  -1.608137113267805E-03  -1.628364967255529E-03
  -1.648847255531043E-03  -1.669587178453392E-03  -1.690587976636020E-03
  -1.711852931453070E-03  -1.733385365552041E-03  -1.755188643372896E-03
  -1.777266171673700E-03  -1.799621400062857E-03  -1.822257821538057E-03
  -1.845178973031984E-03  -1.868388435964890E-03  -1.891889836804137E-03
  -1.915686847630731E-03  -1.939783186713031E-03  -1.964182619087635E-03
  -1.988888957147580E-03  -2.013906061237958E-03  -2.039237840258975E-03
  -2.064888252276654E-03  -2.090861305141159E-03  -2.117161057112927E-03
  -2.143791617496674E-03  -2.170757147283341E-03  -2.198061859800158E-03
  -2.225710021368836E-03  -2.253705951972065E-03  -2.282054025928383E-03
  -2.310758672575513E-03  -2.339824376962328E-03  -2.369255680549475E-03
  -2.399057181918835E-03  -2.429233537491898E-03  -2.459789462257143E-03
  -2.490729730506614E-03  -2.522059176581702E-03  -2.553782695628333E-03
  -2.585905244361652E-03  -2.618431841840286E-03  -2.651367570250395E-03
  -2.684717575699521E-03  -2.718487069020456E-03  -2.752681326585208E-03
  -2.787305691129167E-03  -2.822365572585686E-03  -2.857866448931097E-03
  -2.893813867040383E-03  -2.930213443553604E-03  -2.967070865753173E-03
  -3.004391892452225E-03  -3.042182354894088E-03  -3.080448157663093E-03
  -3.119195279606834E-03  -3.158429774769977E-03  -3.198157773339871E-03
  -3.238385482603977E-03  -3.279119187919365E-03  -3.320365253694404E-03
  -3.362130124382731E-03  -3.404420325489789E-03  -3.447242464591945E-03
  -3.490603232368447E-03  -3.534509403646354E-03  -3.578967838458545E-03
  -3.623985483115105E-03  -3.669569371288079E-03  -3.715726625109921E-03
  -3.762464456285722E-03  -3.809790167219377E-03  -3.857711152153975E-03
  -3.906234898326427E-03  -3.955368987136660E-03  -4.005121095331477E-03
  -4.055498996203256E-03  -4.106510560803781E-03  -4.158163759173224E-03
  -4.210466661584626E-03  -4.263427439804003E-03  -4.317054368366220E-03
  -4.371355825866975E-03  -4.426340296270919E-03  -4.482016370236256E-03
  -4.538392746455974E-03  -4.595478233015850E-03  -4.653281748769616E-03
  -4.711812324731278E-03  -4.771079105484975E-03  -4.831091350612538E-03
  -4.891858436138904E-03  -4.953389855995780E-03  -5.015695223503560E-03
  -5.078784272871918E-03  -5.142666860719214E-03  -5.207352967610938E-03
  -5.272852699617508E-03  -5.339176289891555E-03  -5.406334100265042E-03
  -5.474336622866409E-03  -5.543194481757980E-03  -5.612918434593947E-03
  -5.683519374299109E-03  -5.755008330768697E-03  -5.827396472589505E-03
  -5.900695108782593E-03  -5.974915690567864E-03  -6.050069813150732E-03
  -6.126169217531224E-03  -6.203225792335744E-03  -6.281251575671785E-03
  -6.360258757005918E-03  -6.440259679065273E-03  -6.521266839762893E-03
  -6.603292894147192E-03  -6.686350656375816E-03  -6.770453101714282E-03
  -6.855613368559596E-03  -6.941844760489255E-03  -7.029160748335904E-03
  -7.117574972287948E-03  -7.207101244016498E-03  -7.297753548828918E-03
  -7.389546047849344E-03  -7.482493080226494E-03  -7.576609165369091E-03
  -7.671909005209290E-03  -7.768407486494388E-03  -7.866119683107214E-03
  -7.965060858415573E-03  -8.065246467651006E-03  -8.166692160317367E-03
  -8.269413782629451E-03  -8.373427379982151E-03  -8.478749199450460E-03
  -8.585395692320681E-03  -8.693383516653335E-03  -8.802729539878007E-03
  -8.913450841420645E-03  -9.025564715363681E-03  -9.139088673139303E-03
  -9.254040446256426E-03  -9.370437989061623E-03  -9.488299481534554E-03
  -9.607643332118273E-03  -9.728488180584785E-03  -9.850852900936412E-03
  -9.974756604343252E-03  -1.010021864211731E-02  -1.022725860872368E-02
  -1.035589634482923E-02  -1.048615194038924E-02  -1.061804573777256E-02
  -1.075159833492555E-02  -1.088683058857551E-02  -1.102376361747390E-02
  -1.116241880567994E-02  -1.130281780588504E-02  -1.144498254277851E-02
  -1.158893521645519E-02  -1.173469830586532E-02  -1.188229457230735E-02
  -1.203174706296407E-02  -1.218307911448260E-02  -1.233631435659887E-02
  -1.249147671580704E-02  -1.264859041907437E-02  -1.280767999760220E-02
  -1.296877029063347E-02  -1.313188644930746E-02  -1.329705394056221E-02
  -1.346429855108522E-02  -1.363364639131309E-02  -1.380512389948052E-02
  -1.397875784571943E-02  -1.415457533620874E-02  -1.433260381737525E-02
  -1.451287108014652E-02  -1.469540526425617E-02  -1.488023486260221E-02
  -1.506738872565919E-02  -1.525689606594456E-02  -1.544878646254009E-02
  -1.564308986566897E-02  -1.583983660132905E-02  -1.603905737598320E-02
  -1.624078328130710E-02  -1.644504579899541E-02  -1.665187680562689E-02
  -1.686130857758912E-02  -1.707337379606361E-02  -1.728810555207187E-02
  -1.750553735158321E-02  -1.772570312068507E-02  -1.794863721081640E-02
  -1.817437440406506E-02  -1.840294991852960E-02  -1.863439941374662E-02
  -1.886875899618411E-02  -1.910606522480156E-02  -1.934635511667790E-02
  -1.958966615270740E-02  -1.983603628336507E-02  -2.008550393454171E-02
  -2.033810801344974E-02  -2.059388791460045E-02  -2.085288352585342E-02
  -2.111513523453910E-02  -2.138068393365519E-02  -2.164957102813758E-02
  -2.192183844120692E-02  -2.219752862079131E-02  -2.247668454602613E-02
  -2.275934973383194E-02  -2.304556824557091E-02  -2.333538469378313E-02
  -2.362884424900309E-02  -2.392599264665769E-02  -2.422687619404626E-02
  -2.453154177740363E-02  -2.484003686904721E-02  -2.515240953460846E-02
  -2.546870844035037E-02  -2.578898286057110E-02  -2.611328268509517E-02
  -2.644165842685286E-02  -2.677416122954856E-02  -2.711084287541931E-02
  -2.745175579308410E-02  -2.779695306548498E-02  -2.814648843792096E-02
  -2.850041632617509E-02  -2.885879182473638E-02  -2.922167071511681E-02
  -2.958910947426469E-02  -2.996116528307492E-02  -3.033789603499763E-02
  -3.071936034474519E-02  -3.110561755709944E-02  -3.149672775581933E-02
  -3.189275177265012E-02  -3.229375119643520E-02  -3.269978838233073E-02
  -3.311092646112495E-02  -3.352722934866210E-02  -3.394876175537244E-02
  -3.437558919590893E-02  -3.480777799889134E-02  -3.524539531675886E-02
  -3.568850913573196E-02  -3.613718828588410E-02  -3.659150245132449E-02
  -3.705152218049219E-02  -3.751731889656279E-02  -3.798896490796824E-02
  -3.846653341903036E-02  -3.895009854070938E-02  -3.943973530146729E-02
  -3.993551965824763E-02  -4.043752850757189E-02  -4.094583969675306E-02
  -4.146053203522761E-02  -4.198168530600545E-02  -4.250938027723963E-02
  -4.304369871391545E-02  -4.358472338965985E-02  -4.413253809867178E-02
  -4.468722766777333E-02  -4.524887796858284E-02  -4.581757592980995E-02
  -4.639340954967294E-02  -4.697646790843886E-02  -4.756684118108642E-02
  -4.816462065009225E-02  -4.876989871834036E-02  -4.938276892215510E-02
  -5.000332594445789E-02  -5.063166562804693E-02  -5.126788498900108E-02
  -5.191208223020677E-02  -5.256435675500815E-02  -5.322480918098065E-02
  -5.389354135382664E-02  -5.457065636139389E-02  -5.525625854781581E-02
  -5.595045352777282E-02  -5.665334820087498E-02  -5.736505076616380E-02
  -5.808567073673407E-02  -5.881531895447355E-02  -5.955410760492003E-02
  -6.030215023223484E-02  -6.105956175429086E-02  -6.182645847787463E-02
  -6.260295811400035E-02  -6.338917979333464E-02  -6.418524408173015E-02
  -6.499127299586599E-02  -6.580739001899341E-02  -6.663372011678420E-02
  -6.747038975327958E-02  -6.831752690693750E-02  -6.917526108677473E-02
  -7.004372334860194E-02  -7.092304631134839E-02  -7.181336417347264E-02
  -7.271481272945660E-02  -7.362752938637829E-02  -7.455165318056058E-02
  -7.548732479429117E-02  -7.643468657260921E-02  -7.739388254015513E-02
  -7.836505841807716E-02  -7.934836164099124E-02  -8.034394137398754E-02
  -8.135194852967850E-02  -8.237253578528281E-02  -8.340585759973761E-02
  -8.445207023083412E-02  -8.551133175236836E-02  -8.658380207130006E-02
  -8.766964294491242E-02  -8.876901799796355E-02  -8.988209273982234E-02
  -9.100903458157913E-02  -9.215001285312178E-02  -9.330519882016781E-02
  -9.447476570124136E-02  -9.565888868458541E-02  -9.685774494499717E-02
  -9.807151366057479E-02  -9.930037602936359E-02  -1.005445152858880E-01
  -1.018041167175565E-01  -1.030793676809249E-01  -1.043704576178033E-01
  -1.056775780711916E-01  -1.070009227010257E-01  -1.083406872997210E-01
  -1.096970698074910E-01  -1.110702703274270E-01  -1.124604911403166E-01
  -1.138679367191815E-01  -1.152928137435160E-01  -1.167353311132002E-01
  -1.181956999620697E-01  -1.196741336711146E-01  -1.211708478812841E-01
  -1.226860605058722E-01  -1.242199917424563E-01  -1.257728640843600E-01
  -1.273449023316140E-01  -1.289363336013806E-01  -1.305473873378136E-01
  -1.321782953213194E-01  -1.338292916771847E-01  -1.355006128835363E-01
  -1.371924977785937E-01  -1.389051875671793E-01  -1.406389258264429E-01
  -1.423939585107609E-01  -1.441705339557657E-01  -1.459689028814599E-01
  -1.477893183943702E-01  -1.496320359886901E-01  -1.514973135463619E-01
  -1.533854113360462E-01  -1.552965920109211E-01  -1.572311206052583E-01
  -1.591892645297148E-01  -1.611712935652782E-01  -1.631774798558051E-01
  -1.652080978990829E-01  -1.672634245363487E-01  -1.693437389401942E-01
  -1.714493226007811E-01  -1.735804593102931E-01  -1.757374351455412E-01
  -1.779205384486440E-01  -1.801300598056950E-01  -1.823662920233287E-01
  -1.846295301030939E-01  -1.869200712135385E-01  -1.892382146599081E-01
  -1.915842618513542E-01  -1.939585162655480E-01  -1.963612834105886E-01
  -1.987928707840919E-01  -2.012535878293426E-01  -2.037437458883879E-01
  -2.062636581519449E-01  -2.088136396059929E-01  -2.113940069749126E-01
  -2.140050786610350E-01  -2.166471746804529E-01  -2.193206165949456E-01
  -2.220257274398630E-01  -2.247628316478051E-01  -2.275322549679357E-01
  -2.303343243807558E-01  -2.331693680081597E-01  -2.360377150185924E-01
  -2.389396955271172E-01  -2.418756404901993E-01  -2.448458815950032E-01
  -2.478507511429965E-01  -2.508905819276443E-01  -2.539657071059708E-01
  -2.570764600637640E-01  -2.602231742741816E-01  -2.634061831495194E-01
  -2.666258198858888E-01  -2.698824173005449E-01  -2.731763076615997E-01
  -2.765078225098463E-01  -2.798772924724094E-01  -2.832850470679342E-01
  -2.867314145030104E-01  -2.902167214595289E-01  -2.937412928726488E-01
  -2.973054516990528E-01  -3.009095186751564E-01  -3.045538120649244E-01
  -3.082386473969457E-01  -3.119643371904013E-01  -3.157311906695562E-01
  -3.195395134663929E-01  -3.233896073109953E-01  -3.272817697092860E-01
  -3.312162936077037E-01  -3.351934670444040E-01  -3.392135727865552E-01
  -3.432768879532867E-01  -3.473836836238482E-01  -3.515342244305180E-01
  -3.557287681357959E-01  -3.599675651934067E-01  -3.642508582926239E-01
  -3.685788818854293E-01  -3.729518616960003E-01  -3.773700142120173E-01
  -3.818335461572764E-01  -3.863426539450761E-01  -3.908975231118557E-01
  -3.954983277305395E-01  -4.001452298030471E-01  -4.048383786314214E-01
  -4.095779101670183E-01  -4.143639463372040E-01  -4.191965943490006E-01
  -4.240759459691170E-01  -4.290020767798060E-01  -4.339750454099827E-01
  -4.389948927410494E-01  -4.440616410868691E-01  -4.491752933473330E-01
  -4.543358321349846E-01  -4.595432188741538E-01  -4.647973928720839E-01
  -4.700982703615297E-01  -4.754457435143309E-01  -4.808396794254763E-01
  -4.862799190671919E-01  -4.917662762126175E-01  -4.972985363286490E-01
  -5.028764554375622E-01  -5.084997589470613E-01  -5.141681404484276E-01
  -5.198812604824929E-01  -5.256387452731947E-01  -5.314401854285266E-01
  -5.372851346087438E-01  -5.431731081617460E-01  -5.491035817256202E-01
  -5.550759897983966E-01  -5.610897242751416E-01  -5.671441329526022E-01
  -5.732385180016853E-01  -5.793721344081755E-01  -5.855441883821737E-01
  -5.917538357368631E-01  -5.980001802373247E-01  -6.042822719202415E-01
  -6.105991053854875E-01  -6.169496180607197E-01  -6.233326884402641E-01
  -6.297471342997463E-01  -6.361917108880895E-01  -6.426651090987058E-01
  -6.491659536218908E-01  -6.556928010806524E-01  -6.622441381524352E-01
  -6.688183796794216E-01  -6.754138667703788E-01  -6.820288648972436E-01
  -6.886615619899500E-01  -6.953100665333037E-01  -7.019724056699825E-01
  -7.086465233141256E-01  -7.153302782802641E-01  -7.220214424327404E-01
  -7.287176988611415E-01  -7.354166400876290E-01  -7.421157663125174E-01
  -7.488124837048227E-01  -7.555041027449811E-01  -7.621878366274075E-01
  -7.688607997309919E-01  -7.755200061661962E-01  -7.821623684078550E-01
  -7.887846960233513E-01  -7.953836945063679E-01  -8.019559642269392E-01
  -8.084979995091344E-01  -8.150061878482265E-01  -8.214768092798117E-01
  -8.279060359139282E-01  -8.342899316477779E-01  -8.406244520712954E-01
  -8.469054445803421E-01  -8.531286487129119E-01  -8.592896967243102E-01
  -8.653841144177845E-01  -8.714073222476688E-01  -8.773546367125680E-01
  -8.832212720566086E-01  -8.890023422972340E-01  -8.946928635983620E-01
  -9.002877570081391E-01  -9.057818515807220E-01  -9.111698879017756E-01
  -9.164465220374782E-01  -9.216063299268292E-01  -9.266438122370092E-01
  -9.315533997012996E-01  -9.363294589587534E-01  -9.409662989143152E-01
  -9.454581776374091E-01  -9.497993098162025E-01  -9.539838747836734E-01
  -9.580060251303564E-01  -9.618598959171213E-01  -9.655396144995417E-01
  -9.690393109733524E-01  -9.723531292480848E-01  -9.754752387532474E-01
  -9.783998467783205E-01  -9.811212114443216E-01  -9.836336553008090E-01
  -9.859315795377895E-01  -9.880094787971758E-01  -9.898619565630670E-01
  -9.914837411042223E-01  -9.928697019356604E-01  -9.940148667592268E-01
  -9.949144388353222E-01  -9.955638147296432E-01  -9.959586023698001E-01
  -9.960946393369984E-01  -9.959680113075818E-01  -9.955750705481393E-01
  -9.949124543560487E-01  -9.939771033247955E-01  -9.927662793001304E-01
  -9.912775828791827E-01  -9.895089702899973E-01  -9.874587694736966E-01
  -9.851256951756037E-01  -9.825088628352707E-01  -9.796078010485225E-01
  -9.764224623574501E-01  -9.729532321068530E-01  -9.692009350881665E-01
  -9.651668396744382E-01  -9.608526591327966E-01  -9.562605497841702E-01
  -9.513931056640679E-01  -9.462533493233847E-01  -9.408447183945780E-01
  -9.351710475367927E-01  -9.292365453637713E-01  -9.230457659512337E-01
  -9.166035745163748E-01  -9.099151068615938E-01  -9.029857221783550E-01
  -8.958209488155795E-01  -8.884264226310645E-01  -8.808078175647767E-01
  -8.729707681002079E-01  -8.649207833152640E-01  -8.566631522681489E-01
  -8.482028405173017E-01  -8.395443776387423E-01  -8.306917356798368E-01
  -8.216481985768176E-01  -8.124162226650231E-01  -8.029972885268882E-01
  -7.933917445540855E-01  -7.835986427475654E-01  -7.736176894993811E-01
  -7.634560510838011E-01  -7.531229632743288E-01  -7.426277432662685E-01
  -7.319797778550555E-01  -7.211885116244522E-01  -7.102634351661604E-01
  -6.992140733337355E-01  -6.880499735748702E-01  -6.767806943343471E-01
  -6.654157935540331E-01  -6.539648172831797E-01  -6.424372884133852E-01
  -6.308426955517774E-01  -6.191904820452304E-01  -6.074900351676857E-01
  -5.957506754818745E-01  -5.839816463859128E-01  -5.721921038544642E-01
  -5.603911063833698E-01  -5.485876051458556E-01  -5.367904343676807E-01
  -5.250083019278574E-01  -5.132497801908791E-01  -5.015232970757357E-01
  -4.898371273664134E-01  -4.781993842680698E-01  -4.666180112126579E-01
  -4.551007739174751E-01  -4.436552526999484E-01  -4.322888350519417E-01
  -4.210087084770280E-01  -4.098218535944990E-01  -3.987350375144163E-01
  -3.877548074887431E-01  -3.768874848445349E-01  -3.661391592063185E-01
  -3.555156830161137E-01  -3.450226663610600E-01  -3.346654721202382E-01
  -3.244492114440017E-01  -3.143787395808874E-01  -3.044586520689043E-01
  -2.946932813096229E-01  -2.850866935449343E-01  -2.756426862575365E-01
  -2.663647860170484E-01  -2.572562467940865E-01  -2.483200487645831E-01
  -2.395588976260359E-01  -2.309752244462114E-01  -2.225711860630513E-01
  -2.143486660521702E-01  -2.063092762753795E-01  -1.984543590201933E-01
  -1.907849897363058E-01  -1.833019803706893E-01  -1.760058832982983E-01
  -1.688969958405117E-01  -1.619753653585265E-01  -1.552407949040105E-01
  -1.486928494045597E-01  -1.423308623569950E-01  -1.361539429973626E-01
  -1.301609839127512E-01  -1.243506690567852E-01  -1.187214821279326E-01
  -1.132717152676284E-01  -1.079994780336714E-01  -1.029027066034059E-01
  -9.797917316084877E-02  -9.322649542213503E-02  -8.864214625440875E-02
  -8.422346334453193E-02  -7.996765887568207E-02  -7.587182917200373E-02
  -7.193296427391568E-02  -6.814795740939637E-02  -6.451361432951778E-02
  -6.102666247961062E-02  -5.768375998066461E-02  -5.448150439883834E-02
  -5.141644128421605E-02  -4.848507246315043E-02  -4.568386407161910E-02
  -4.300925431994911E-02  -4.045766098198508E-02  -3.802548860425475E-02
  -3.570913543288642E-02  -3.350500005793444E-02  -3.140948777635133E-02
  -2.941901667610349E-02  -2.753002344486155E-02  -2.573896890731739E-02
  -2.404234329550817E-02  -2.243667125659091E-02  -2.091851660234464E-02
  -1.948448680432282E-02  -1.813123723808074E-02  -1.685547517930908E-02
  -1.565396355406252E-02  -1.452352444462832E-02  -1.346104235197411E-02
  -1.246346721518720E-02  -1.152781718789784E-02  -1.065118117139246E-02
  -9.830721103986044E-03  -9.063674006245317E-03  -8.347353781838944E-03
  -7.679152774133410E-03  -7.056543079143785E-03  -6.477077616072857E-03
  -5.938390957411508E-03  -5.438199921406639E-03  -4.974303930607807E-03
  -4.544585141156008E-03  -4.147008348454628E-03  -3.779620675840636E-03
  -3.440551053832284E-03  -3.128009498448850E-03  -2.840286197960886E-03
  -2.575750418221654E-03  -2.332849237439576E-03  -2.110106121868299E-03
  -1.906119354408183E-03  -1.719560328526065E-03  -1.549171720206710E-03
  -1.393765550848895E-03  -1.252221154113088E-03  -1.123483059719246E-03
  -1.006558807086544E-03  -9.005167015076022E-04  -8.044835252642182E-04
  -7.176422157269963E-04  -6.392295220452590E-04  -5.685336515342371E-04
  -5.048919163120645E-04  -4.476883901378695E-04  -3.963515847625407E-04
  -3.503521544336991E-04  -3.092006365039389E-04  -2.724452353840576E-04
  -2.396696563680210E-04  -2.104909951405371E-04  -1.845576880676523E-04
  -1.615475276715155E-04  -1.411657470076267E-04  -1.231431760012231E-04
  -1.072344721630888E-04  -9.321642749763734E-05  -8.088635284063410E-05
  -7.006054032293868E-05  -6.057280415212776E-05  -5.227309943738434E-05
  -4.502621835516865E-05  -3.871056256615855E-05  -3.321699044376639E-05
  -2.844773736738616E-05  -2.431540706298110E-05  -2.074203174078962E-05
  -1.765819858468087E-05  -1.500223998731339E-05  -1.271948479787351E-05
  -1.076156775466819E-05  -9.085794207150686E-06  -7.654557195126201E-06
  -6.434803939115417E-06  -5.397548804576330E-06  -4.517429835233071E-06
  -3.772305983734624E-06  -3.142892402647115E-06  -2.612429597628037E-06
  -2.166394015852729E-06  -1.792203358968669E-06  -1.479038494037547E-06
  -1.217590368224100E-06  -9.998418618523801E-07  -8.189190934888402E-07
  -6.689487726779018E-07  -5.449243071171872E-07  -4.425876282077234E-07
  -3.583251059081045E-07  -2.890760370669677E-07  -2.322522812931622E-07
  -1.856677970989086E-07  -1.474763629518645E-07  -1.161190112934595E-07
  -9.026749171655698E-08  -6.890702090728068E-08  -5.053055134008171E-08
   0.000000000000000E+00   0.000000000000000E+00   0.000000000000000E+00
   0.000000000000000E+00   0.000000000000000E+00   0.000000000000000E+00
   0.000000000000000E+00   0.000000000000000E+00   0.000000000000000E+00
   0.000000000000000E+00   0.000000000000000E+00   0.000000000000000E+00
   0.000000000000000E+00   0.000000000000000E+00   0.000000000000000E+00
   0.000000000000000E+00   0.000000000000000E+00   0.000000000000000E+00
   0.000000000000000E+00   0.000000000000000E+00   0.000000000000000E+00
   0.000000000000000E+00   0.000000000000000E+00   0.000000000000000E+00
   0.000000000000000E+00   0.000000000000000E+00   0.000000000000000E+00
   0.000000000000000E+00   0.000000000000000E+00   0.000000000000000E+00
   0.000000000000000E+00   0.000000000000000E+00   0.000000000000000E+00
   0.000000000000000E+00   0.000000000000000E+00   0.000000000000000E+00
   0.000000000000000E+00   0.000000000000000E+00   0.000000000000000E+00
   0.000000000000000E+00   0.000000000000000E+00   0.000000000000000E+00
   0.000000000000000E+00   0.000000000000000E+00   0.000000000000000E+00
   0.000000000000000E+00   0.000000000000000E+00   0.000000000000000E+00
   0.000000000000000E+00   0.000000000000000E+00   0.000000000000000E+00
   0.000000000000000E+00   0.000000000000000E+00   0.000000000000000E+00
   0.000000000000000E+00   0.000000000000000E+00   0.000000000000000E+00
   0.000000000000000E+00   0.000000000000000E+00   0.000000000000000E+00
   0.000000000000000E+00   0.000000000000000E+00   0.000000000000000E+00
   0.000000000000000E+00   0.000000000000000E+00   0.000000000000000E+00
   0.000000000000000E+00   0.000000000000000E+00   0.000000000000000E+00
   0.000000000000000E+00   0.000000000000000E+00   0.000000000000000E+00
   0.000000000000000E+00   0.000000000000000E+00   0.000000000000000E+00
   0.000000000000000E+00   0.000000000000000E+00   0.000000000000000E+00
   0.000000000000000E+00   0.000000000000000E+00   0.000000000000000E+00
   0.000000000000000E+00   0.000000000000000E+00   0.000000000000000E+00
   0.000000000000000E+00   0.000000000000000E+00   0.000000000000000E+00
   0.000000000000000E+00   0.000000000000000E+00   0.000000000000000E+00
   0.000000000000000E+00   0.000000000000000E+00   0.000000000000000E+00
   0.000000000000000E+00   0.000000000000000E+00   0.000000000000000E+00
   0.000000000000000E+00   0.000000000000000E+00   0.000000000000000E+00
   0.000000000000000E+00   0.000000000000000E+00   0.000000000000000E+00
   0.000000000000000E+00   0.000000000000000E+00   0.000000000000000E+00
   0.000000000000000E+00   0.000000000000000E+00   0.000000000000000E+00
   0.000000000000000E+00   0.000000000000000E+00   0.000000000000000E+00
   0.000000000000000E+00   0.000000000000000E+00   0.000000000000000E+00
   0.000000000000000E+00   0.000000000000000E+00   0.000000000000000E+00
   0.000000000000000E+00   0.000000000000000E+00   0.000000000000000E+00
   0.000000000000000E+00   0.000000000000000E+00   0.000000000000000E+00
   0.000000000000000E+00   0.000000000000000E+00   0.000000000000000E+00
   0.000000000000000E+00   0.000000000000000E+00   0.000000000000000E+00
   0.000000000000000E+00   0.000000000000000E+00   0.000000000000000E+00
   0.000000000000000E+00   0.000000000000000E+00   0.000000000000000E+00
   0.000000000000000E+00   0.000000000000000E+00   0.000000000000000E+00
   0.000000000000000E+00   0.000000000000000E+00   0.000000000000000E+00
   0.000000000000000E+00   0.000000000000000E+00   0.000000000000000E+00
   0.000000000000000E+00   0.000000000000000E+00   0.000000000000000E+00
   0.000000000000000E+00   0.000000000000000E+00   0.000000000000000E+00
   0.000000000000000E+00   0.000000000000000E+00   0.000000000000000E+00
   0.000000000000000E+00   0.000000000000000E+00   0.000000000000000E+00
    </PP_PSWFC.1>
    <PP_PSWFC.2 size="1095" index="2" label="2S" l="0">
  -2.118309202957099E-04  -2.144954251778832E-04  -2.171934454024032E-04
  -2.199254025402572E-04  -2.226917234651387E-04  -2.254928404201459E-04
  -2.283291910853209E-04  -2.312012186460379E-04  -2.341093718622512E-04
  -2.370541051386154E-04  -2.400358785954857E-04  -2.430551581408128E-04
  -2.461124155429418E-04  -2.492081285043264E-04  -2.523427807361713E-04
  -2.555168620340113E-04  -2.587308683542436E-04  -2.619853018916216E-04
  -2.652806711577223E-04  -2.686174910604041E-04  -2.719962829842593E-04
  -2.754175748720828E-04  -2.788819013073629E-04  -2.823898035978108E-04
  -2.859418298599413E-04  -2.895385351047154E-04  -2.931804813242619E-04
  -2.968682375796897E-04  -3.006023800900032E-04  -3.043834923221385E-04
  -3.082121650821295E-04  -3.120889966074222E-04  -3.160145926603501E-04
  -3.199895666227851E-04  -3.240145395919791E-04  -3.280901404776105E-04
  -3.322170061000519E-04  -3.363957812898745E-04  -3.406271189886024E-04
  -3.449116803507365E-04  -3.492501348470588E-04  -3.536431603692387E-04
  -3.580914433357536E-04  -3.625956787991421E-04  -3.671565705546077E-04
  -3.717748312499848E-04  -3.764511824970920E-04  -3.811863549844839E-04
  -3.859810885916207E-04  -3.908361325044768E-04  -3.957522453325986E-04
  -4.007301952276393E-04  -4.057707600033819E-04  -4.108747272572730E-04
  -4.160428944934860E-04  -4.212760692475297E-04  -4.265750692124261E-04
  -4.319407223664757E-04  -4.373738671026279E-04  -4.428753523594819E-04
  -4.484460377539307E-04  -4.540867937154774E-04  -4.597985016222395E-04
  -4.655820539386634E-04  -4.714383543549732E-04  -4.773683179283697E-04
  -4.833728712260088E-04  -4.894529524697776E-04  -4.956095116828888E-04
  -5.018435108383251E-04  -5.081559240091424E-04  -5.145477375206704E-04
  -5.210199501046245E-04  -5.275735730551560E-04  -5.342096303868678E-04
  -5.409291589948126E-04  -5.477332088165084E-04  -5.546228429959892E-04
  -5.615991380499197E-04  -5.686631840358006E-04  -5.758160847222867E-04
  -5.830589577616496E-04  -5.903929348644091E-04  -5.978191619761605E-04
  -6.053387994566273E-04  -6.129530222609636E-04  -6.206630201233393E-04
  -6.284699977428328E-04  -6.363751749716626E-04  -6.443797870057871E-04
  -6.524850845778994E-04  -6.606923341528509E-04  -6.690028181255341E-04
  -6.774178350212510E-04  -6.859386996986071E-04  -6.945667435549501E-04
  -7.033033147343975E-04  -7.121497783384809E-04  -7.211075166394355E-04
  -7.301779292961793E-04  -7.393624335729984E-04  -7.486624645609935E-04
  -7.580794754023047E-04  -7.676149375171586E-04  -7.772703408337738E-04
  -7.870471940211502E-04  -7.969470247247952E-04  -8.069713798054092E-04
  -8.171218255805738E-04  -8.273999480694833E-04  -8.378073532407473E-04
  -8.483456672633163E-04  -8.590165367605610E-04  -8.698216290675455E-04
  -8.807626324915407E-04  -8.918412565758072E-04  -9.030592323667028E-04
  -9.144183126841443E-04  -9.259202723954736E-04  -9.375669086927696E-04
  -9.493600413736413E-04  -9.613015131255592E-04  -9.733931898137588E-04
  -9.856369607727674E-04  -9.980347391015960E-04  -1.010588461962643E-03
  -1.023300090884355E-03  -1.036171612067703E-03  -1.049205036696499E-03
  -1.062402401251633E-03  -1.075765767829239E-03  -1.089297224462885E-03
  -1.102998885449801E-03  -1.116872891681212E-03  -1.130921410976832E-03
  -1.145146638423554E-03  -1.159550796718409E-03  -1.174136136515827E-03
  -1.188904936779280E-03  -1.203859505137335E-03  -1.219002178244186E-03
  -1.234335322144725E-03  -1.249861332644203E-03  -1.265582635682531E-03
  -1.281501687713304E-03  -1.297620976087573E-03  -1.313943019442458E-03
  -1.330470368094638E-03  -1.347205604438794E-03  -1.364151343351066E-03
  -1.381310232597568E-03  -1.398684953248059E-03  -1.416278220094806E-03
  -1.434092782076709E-03  -1.452131422708776E-03  -1.470396960516977E-03
  -1.488892249478582E-03  -1.507620179468029E-03  -1.526583676708398E-03
  -1.545785704228568E-03  -1.565229262326110E-03  -1.584917389036014E-03
  -1.604853160605300E-03  -1.625039691973598E-03  -1.645480137259782E-03
  -1.666177690254691E-03  -1.687135584920092E-03  -1.708357095893871E-03
  -1.729845539001604E-03  -1.751604271774553E-03  -1.773636693974160E-03
  -1.795946248123165E-03  -1.818536420043367E-03  -1.841410739400171E-03
  -1.864572780253977E-03  -1.888026161618474E-03  -1.911774548026005E-03
  -1.935821650099983E-03  -1.960171225134537E-03  -1.984827077681446E-03
  -2.009793060144417E-03  -2.035073073380884E-03  -2.060671067311328E-03
  -2.086591041536275E-03  -2.112837045961058E-03  -2.139413181428398E-03
  -2.166323600358991E-03  -2.193572507400092E-03  -2.221164160082276E-03
  -2.249102869484468E-03  -2.277393000907288E-03  -2.306038974554914E-03
  -2.335045266225466E-03  -2.364416408010088E-03  -2.394156989000831E-03
  -2.424271656007387E-03  -2.454765114282886E-03  -2.485642128258763E-03
  -2.516907522288892E-03  -2.548566181403068E-03  -2.580623052069923E-03
  -2.613083142969488E-03  -2.645951525775401E-03  -2.679233335946983E-03
  -2.712933773531255E-03  -2.747058103975013E-03  -2.781611658947146E-03
  -2.816599837171239E-03  -2.852028105268663E-03  -2.887901998612264E-03
  -2.924227122190728E-03  -2.961009151483878E-03  -2.998253833348894E-03
  -3.035966986917704E-03  -3.074154504505649E-03  -3.112822352531518E-03
  -3.151976572449207E-03  -3.191623281691010E-03  -3.231768674622792E-03
  -3.272419023511165E-03  -3.313580679502758E-03  -3.355260073615867E-03
  -3.397463717744462E-03  -3.440198205674871E-03  -3.483470214115205E-03
  -3.527286503737672E-03  -3.571653920234051E-03  -3.616579395384342E-03
  -3.662069948138861E-03  -3.708132685713936E-03  -3.754774804701301E-03
  -3.802003592191482E-03  -3.849826426911218E-03  -3.898250780375189E-03
  -3.947284218052209E-03  -3.996934400545984E-03  -4.047209084790790E-03
  -4.098116125262048E-03  -4.149663475202148E-03  -4.201859187861642E-03
  -4.254711417755956E-03  -4.308228421937958E-03  -4.362418561286385E-03
  -4.417290301810491E-03  -4.472852215971035E-03  -4.529112984017829E-03
  -4.586081395344061E-03  -4.643766349857592E-03  -4.702176859369439E-03
  -4.761322048999679E-03  -4.821211158600946E-03  -4.881853544199790E-03
  -4.943258679456081E-03  -5.005436157140710E-03  -5.068395690631802E-03
  -5.132147115429649E-03  -5.196700390690668E-03  -5.262065600780506E-03
  -5.328252956846646E-03  -5.395272798410689E-03  -5.463135594980551E-03
  -5.531851947682883E-03  -5.601432590915869E-03  -5.671888394022766E-03
  -5.743230362986351E-03  -5.815469642144573E-03  -5.888617515927685E-03
  -5.962685410617081E-03  -6.037684896126153E-03  -6.113627687803405E-03
  -6.190525648258112E-03  -6.268390789208812E-03  -6.347235273354888E-03
  -6.427071416271551E-03  -6.507911688328499E-03  -6.589768716632544E-03
  -6.672655286994508E-03  -6.756584345920674E-03  -6.841569002629109E-03
  -6.927622531091176E-03  -7.014758372098489E-03  -7.102990135355706E-03
  -7.192331601599385E-03  -7.282796724743327E-03  -7.374399634050633E-03
  -7.467154636332839E-03  -7.561076218176526E-03  -7.656179048197591E-03
  -7.752477979323680E-03  -7.849988051105029E-03  -7.948724492054063E-03
  -8.048702722014174E-03  -8.149938354557922E-03  -8.252447199415142E-03
  -8.356245264931228E-03  -8.461348760555978E-03  -8.567774099363426E-03
  -8.675537900602950E-03  -8.784656992282121E-03  -8.895148413781624E-03
  -9.007029418502630E-03  -9.120317476547070E-03  -9.235030277431153E-03
  -9.351185732832539E-03  -9.468801979371630E-03  -9.587897381427251E-03
  -9.708490533987325E-03  -9.830600265534797E-03  -9.954245640969308E-03
  -1.007944596456506E-02  -1.020622078296522E-02  -1.033458988821345E-02
  -1.046457332082279E-02  -1.059619137288261E-02  -1.072946459120377E-02
  -1.086441378050277E-02  -1.100106000662509E-02  -1.113942459980829E-02
  -1.127952915798537E-02  -1.142139555012884E-02  -1.156504591963588E-02
  -1.171050268775530E-02  -1.185778855705651E-02  -1.200692651494122E-02
  -1.215793983719831E-02  -1.231085209160226E-02  -1.246568714155575E-02
  -1.262246914977705E-02  -1.278122258203238E-02  -1.294197221091423E-02
  -1.310474311966572E-02  -1.326956070605179E-02  -1.343645068627775E-02
  -1.360543909895560E-02  -1.377655230911880E-02  -1.394981701228602E-02
  -1.412526023857421E-02  -1.430290935686199E-02  -1.448279207900351E-02
  -1.466493646409354E-02  -1.484937092278437E-02  -1.503612422165501E-02
  -1.522522548763339E-02  -1.541670421247208E-02  -1.561059025727804E-02
  -1.580691385709729E-02  -1.600570562555468E-02  -1.620699655954970E-02
  -1.641081804400886E-02  -1.661720185669515E-02  -1.682618017307538E-02
  -1.703778557124570E-02  -1.725205103691640E-02  -1.746900996845622E-02
  -1.768869618199696E-02  -1.791114391659905E-02  -1.813638783947864E-02
  -1.836446305129695E-02  -1.859540509151241E-02  -1.882924994379639E-02
  -1.906603404151307E-02  -1.930579427326401E-02  -1.954856798849837E-02
  -1.979439300318919E-02  -2.004330760557639E-02  -2.029535056197740E-02
  -2.055056112266575E-02  -2.080897902781857E-02  -2.107064451353347E-02
  -2.133559831791566E-02  -2.160388168723582E-02  -2.187553638215937E-02
  -2.215060468404802E-02  -2.242912940133408E-02  -2.271115387596819E-02
  -2.299672198994139E-02  -2.328587817188179E-02  -2.357866740372687E-02
  -2.387513522747191E-02  -2.417532775199523E-02  -2.447929165996091E-02
  -2.478707421479960E-02  -2.509872326776813E-02  -2.541428726508862E-02
  -2.573381525516751E-02  -2.605735689589544E-02  -2.638496246202840E-02
  -2.671668285265080E-02  -2.705256959872113E-02  -2.739267487070090E-02
  -2.773705148626718E-02  -2.808575291810973E-02  -2.843883330181281E-02
  -2.879634744382274E-02  -2.915835082950137E-02  -2.952489963126628E-02
  -2.989605071681812E-02  -3.027186165745543E-02  -3.065239073647784E-02
  -3.103769695767779E-02  -3.142784005392138E-02  -3.182288049581883E-02
  -3.222287950048476E-02  -3.262789904038902E-02  -3.303800185229817E-02
  -3.345325144630812E-02  -3.387371211496833E-02  -3.429944894249749E-02
  -3.473052781409153E-02  -3.516701542532375E-02  -3.560897929163747E-02
  -3.605648775793149E-02  -3.650961000823814E-02  -3.696841607549453E-02
  -3.743297685140658E-02  -3.790336409640629E-02  -3.837965044970205E-02
  -3.886190943942169E-02  -3.935021549284862E-02  -3.984464394675072E-02
  -4.034527105780157E-02  -4.085217401309421E-02  -4.136543094074648E-02
  -4.188512092059823E-02  -4.241132399499957E-02  -4.294412117968965E-02
  -4.348359447476570E-02  -4.402982687574120E-02  -4.458290238469293E-02
  -4.514290602149576E-02  -4.570992383514461E-02  -4.628404291516233E-02
  -4.686535140309240E-02  -4.745393850407570E-02  -4.804989449850966E-02
  -4.865331075378861E-02  -4.926427973612411E-02  -4.988289502244290E-02
  -5.050925131236192E-02  -5.114344444023747E-02  -5.178557138728739E-02
  -5.243573029378389E-02  -5.309402047131430E-02  -5.376054241510844E-02
  -5.443539781642920E-02  -5.511868957502399E-02  -5.581052181163441E-02
  -5.651099988056051E-02  -5.722023038227732E-02  -5.793832117609955E-02
  -5.866538139289115E-02  -5.940152144781644E-02  -6.014685305312746E-02
  -6.090148923098516E-02  -6.166554432630864E-02  -6.243913401964817E-02
  -6.322237534007762E-02  -6.401538667809983E-02  -6.481828779856108E-02
  -6.563119985356772E-02  -6.645424539539949E-02  -6.728754838941335E-02
  -6.813123422693038E-02  -6.898542973810001E-02  -6.985026320473342E-02
  -7.072586437309852E-02  -7.161236446666926E-02  -7.250989619881941E-02
  -7.341859378545380E-02  -7.433859295756642E-02  -7.527003097371633E-02
  -7.621304663241156E-02  -7.716778028438948E-02  -7.813437384478382E-02
  -7.911297080516608E-02  -8.010371624544926E-02  -8.110675684564202E-02
  -8.212224089743876E-02  -8.315031831563370E-02  -8.419114064934305E-02
  -8.524486109302092E-02  -8.631163449725396E-02  -8.739161737931686E-02
  -8.848496793347345E-02  -8.959184604100465E-02  -9.071241327994467E-02
  -9.184683293450736E-02  -9.299527000418065E-02  -9.415789121247013E-02
  -9.533486501526880E-02  -9.652636160883030E-02  -9.773255293732282E-02
  -9.895361269993733E-02  -1.001897163575264E-01  -1.014410411387455E-01
  -1.027077660456693E-01  -1.039900718588549E-01  -1.052881411418193E-01
  -1.066021582449032E-01  -1.079323093084858E-01  -1.092787822655174E-01
  -1.106417668433359E-01  -1.120214545647269E-01  -1.134180387481941E-01
  -1.148317145073955E-01  -1.162626787497081E-01  -1.177111301738753E-01
  -1.191772692666933E-01  -1.206612982986918E-01  -1.221634213187580E-01
  -1.236838441476559E-01  -1.252227743703890E-01  -1.267804213273505E-01
  -1.283569961042075E-01  -1.299527115204595E-01  -1.315677821166108E-01
  -1.332024241398953E-01  -1.348568555284866E-01  -1.365312958941283E-01
  -1.382259665031119E-01  -1.399410902555324E-01  -1.416768916627434E-01
  -1.434335968229349E-01  -1.452114333947530E-01  -1.470106305688761E-01
  -1.488314190374616E-01  -1.506740309613721E-01  -1.525386999350861E-01
  -1.544256609491987E-01  -1.563351503504092E-01  -1.582674057988924E-01
  -1.602226662229445E-01  -1.622011717707928E-01  -1.642031637594519E-01
  -1.662288846205073E-01  -1.682785778427012E-01  -1.703524879111923E-01
  -1.724508602433548E-01  -1.745739411209803E-01  -1.767219776187394E-01
  -1.788952175287537E-01  -1.810939092811273E-01  -1.833183018602777E-01
  -1.855686447169039E-01  -1.878451876754222E-01  -1.901481808366942E-01
  -1.924778744758672E-01  -1.948345189351386E-01  -1.972183645112533E-01
  -1.996296613375327E-01  -2.020686592602311E-01  -2.045356077090049E-01
  -2.070307555612761E-01  -2.095543510002636E-01  -2.121066413664469E-01
  -2.146878730022226E-01  -2.172982910895036E-01  -2.199381394800030E-01
  -2.226076605179406E-01  -2.253070948548972E-01  -2.280366812565345E-01
  -2.307966564008939E-01  -2.335872546679716E-01  -2.364087079202657E-01
  -2.392612452739784E-01  -2.421450928605446E-01  -2.450604735781590E-01
  -2.480076068329461E-01  -2.509867082694314E-01  -2.539979894899402E-01
  -2.570416577625545E-01  -2.601179157172439E-01  -2.632269610297736E-01
  -2.663689860929889E-01  -2.695441776750579E-01  -2.727527165642484E-01
  -2.759947771998049E-01  -2.792705272884742E-01  -2.825801274062285E-01
  -2.859237305847143E-01  -2.893014818819504E-01  -2.927135179367863E-01
  -2.961599665066194E-01  -2.996409459878654E-01  -3.031565649186579E-01
  -3.067069214632500E-01  -3.102921028775766E-01  -3.139121849554264E-01
  -3.175672314546683E-01  -3.212572935029607E-01  -3.249824089823687E-01
  -3.287426018923042E-01  -3.325378816901934E-01  -3.363682426092783E-01
  -3.402336629529378E-01  -3.441341043649213E-01  -3.480695110748774E-01
  -3.520398091185509E-01  -3.560449055320299E-01  -3.600846875194102E-01
  -3.641590215932509E-01  -3.682677526871926E-01  -3.724107032401092E-01
  -3.765876722511710E-01  -3.807984343051978E-01  -3.850427385676879E-01
  -3.893203077489192E-01  -3.936308370365202E-01  -3.979739929959357E-01
  -4.023494124382089E-01  -4.067567012545332E-01  -4.111954332170370E-01
  -4.156651487452884E-01  -4.201653536380415E-01  -4.246955177697580E-01
  -4.292550737514851E-01  -4.338434155556989E-01  -4.384598971047607E-01
  -4.431038308226857E-01  -4.477744861499620E-01  -4.524710880212170E-01
  -4.571928153055875E-01  -4.619387992097036E-01  -4.667081216432788E-01
  -4.714998135473640E-01  -4.763128531854059E-01  -4.811461643973406E-01
  -4.859986148170420E-01  -4.908690140535551E-01  -4.957561118366430E-01
  -5.006585961273009E-01  -5.055750911940149E-01  -5.105041556556689E-01
  -5.154442804921641E-01  -5.203938870239466E-01  -5.253513248618163E-01
  -5.303148698285595E-01  -5.352827218541196E-01  -5.402530028462383E-01
  -5.452237545386748E-01  -5.501929363193527E-01  -5.551584230410010E-01
  -5.601180028170905E-01  -5.650693748061443E-01  -5.700101469877361E-01
  -5.749378339337908E-01  -5.798498545790951E-01  -5.847435299952102E-01
  -5.896160811723320E-01  -5.944646268139421E-01  -5.992861811494621E-01
  -6.040776517704839E-01  -6.088358374964991E-01  -6.135574262764708E-01
  -6.182389931329576E-01  -6.228769981559265E-01  -6.274677845538229E-01
  -6.320075767698677E-01  -6.364924786720343E-01  -6.409184718255743E-01
  -6.452814138574448E-01  -6.495770369224497E-01  -6.538009462813630E-01
  -6.579486190018098E-01  -6.620154027931139E-01  -6.659965149868268E-01
  -6.698870416751134E-01  -6.736819370196167E-01  -6.773760227439095E-01
  -6.809639878230459E-01  -6.844403883841744E-01  -6.877996478325727E-01
  -6.910360572178244E-01  -6.941437758552372E-01  -6.971168322178812E-01
  -6.999491251149216E-01  -7.026344251721417E-01  -7.051663766307130E-01
  -7.075384994804028E-01  -7.097441919434421E-01  -7.117767333252571E-01
  -7.136292872481705E-01  -7.152949052839622E-01  -7.167665310009108E-01
  -7.180370044405233E-01  -7.190990670386526E-01  -7.199453670050713E-01
  -7.205684651747974E-01  -7.209608413435655E-01  -7.211149010987750E-01
  -7.210229831560417E-01  -7.206773672100949E-01  -7.200702823072098E-01
  -7.191939157446497E-01  -7.180404225006582E-01  -7.166019351964662E-01
  -7.148705745894639E-01  -7.128384605942260E-01  -7.104977238253884E-01
  -7.078405176535314E-01  -7.048590307621720E-01  -7.015455001907654E-01
  -6.978922248452585E-01  -6.938915794542128E-01  -6.895360289449199E-01
  -6.848181432102116E-01  -6.797306122328903E-01  -6.742662615309702E-01
  -6.684180678831158E-01  -6.621791752900629E-01  -6.555429111242664E-01
  -6.485028024167311E-01  -6.410525922270371E-01  -6.331862560399321E-01
  -6.248980181298273E-01  -6.161823678330292E-01  -6.070340756667892E-01
  -5.974482092344409E-01  -5.874201488569764E-01  -5.769456028738290E-01
  -5.660206225592808E-01  -5.546416166061418E-01  -5.428053651353825E-01
  -5.305090331992026E-01  -5.177501837561734E-01  -5.045267901104322E-01
  -4.908372478229016E-01  -4.766803861213548E-01  -4.620554788578310E-01
  -4.469622550870236E-01  -4.314009093676010E-01  -4.153721119203762E-01
  -3.988770188130088E-01  -3.819172823802648E-01  -3.644950621323311E-01
  -3.466130364507700E-01  -3.282744154226750E-01  -3.094829552182159E-01
  -2.902429744745625E-01  -2.705593732101887E-01  -2.504376548568367E-01
  -2.298839520615538E-01  -2.089050569774512E-01  -1.875084568277537E-01
  -1.657023755926387E-01  -1.434958227303121E-01  -1.208986499013264E-01
  -9.792161671634822E-02  -7.457646656979544E-02  -5.087618883039835E-02
  -2.683546552223555E-02  -2.469898611337525E-03   2.220419249654059E-02
   4.716975858068850E-02   7.240900817740127E-02   9.790339513889308E-02
   1.236336062241356E-01   1.495795487720158E-01   1.757203385128192E-01
   2.020342875798292E-01   2.284988927887830E-01   2.550908242590232E-01
   2.817859144563579E-01   3.085591477439011E-01   3.353846505334813E-01
   3.622356821365237E-01   3.890846264195663E-01   4.159029843757348E-01
   4.426613677295253E-01   4.693294936980718E-01   4.958761810376291E-01
   5.222693475092827E-01   5.484760089027774E-01   5.744622797618412E-01
   6.001933759583949E-01   6.256336192665830E-01   6.507464440905932E-01
   6.754944065027874E-01   6.998391957507459E-01   7.237416483935269E-01
   7.471617652288262E-01   7.700587311739552E-01   7.923909382647913E-01
   8.141160119383282E-01   8.351908407664137E-01   8.555716098110315E-01
   8.752138377753548E-01   8.940724181301719E-01   9.121016644024904E-01
   9.292553598225289E-01   9.454868115372489E-01   9.607489096133173E-01
   9.749941910701608E-01   9.881749092046509E-01   1.000243108492966E+00
   1.011150705382132E+00   1.020849575313349E+00   1.029291646350967E+00
   1.036428999824237E+00   1.042213978422846E+00   1.046599302220807E+00
   1.049538193135247E+00   1.050984508355828E+00   1.050892883305456E+00
   1.049218884712126E+00   1.045919174383725E+00   1.040951684280820E+00
   1.034275803475323E+00   1.025852577564115E+00   1.015644921074911E+00
   1.003617843355392E+00   9.897386883750268E-01   9.739773887910494E-01
   9.563067345349655E-01   9.367026560630687E-01   9.151445222834937E-01
   8.916154530229981E-01   8.661026457290647E-01   8.385977159172641E-01
   8.090970506706485E-01   7.776021742780018E-01   7.441201248620795E-01
   7.086638405988238E-01   6.712525538654908E-01   6.319121913814990E-01
   5.906757781226791E-01   5.475838424997452E-01   5.026848199977134E-01
   4.560354521772669E-01   4.077011776443931E-01   3.577565113037143E-01
   3.062854079264217E-01   2.533816057881180E-01   1.991489458674731E-01
   1.437016618454381E-01   8.716463590857930E-02   2.967361514031184E-02
  -2.862461691845219E-02  -8.757211914161546E-02  -1.469997278903511E-01
  -2.067270541979856E-01  -2.665625491042347E-01  -3.263036432788988E-01
  -3.857369671553615E-01  -4.446386578493900E-01  -5.027747591658134E-01
  -5.599017209905978E-01  -6.157670043234241E-01  -6.701097981195274E-01
  -7.226618539713205E-01  -7.731484444607937E-01  -8.212894507420152E-01
  -8.668005845570536E-01  -9.093947494348098E-01  -9.487835452559976E-01
  -9.846789196732865E-01  -1.016794969037184E+00  -1.044849890478887E+00
  -1.068568085624197E+00  -1.087682415041030E+00  -1.101936600940883E+00
  -1.111087773846705E+00  -1.114909156892134E+00  -1.113192879118121E+00
  -1.105752906573162E+00  -1.092428077196195E+00  -1.073085222364130E+00
  -1.047622354620620E+00  -1.015971897476120E+00  -9.781039292946029E-01
  -9.340294091796876E-01  -8.838033484705340E-01  -8.275278869929530E-01
  -7.653552286311054E-01  -6.974903861485237E-01  -6.241936805648539E-01
  -5.457829358708818E-01  -4.626353055375548E-01  -3.751886632584654E-01
  -2.839424867889975E-01  -1.894581607547062E-01  -9.235862205844909E-02
   6.672729801607524E-03   1.068939353892909E-01   2.075072677209379E-01
   3.076629884725374E-01   4.064641376372168E-01   5.029724198071538E-01
   5.962152415485664E-01   6.851939431560065E-01   7.688932541931432E-01
   8.462919854518742E-01   9.163749501197535E-01   9.781460839078461E-01
   1.030642707580806E+00   1.072950845738831E+00   1.104221482900035E+00
   1.123687602092900E+00   1.130681812578748E+00   1.124654332403391E+00
   1.105191048795834E+00   1.072031335727951E+00   1.025085264143008E+00
   9.644497975691168E-01   8.904235253787228E-01   8.035194493656403E-01
   7.044753083225940E-01   5.942609018808456E-01   4.740818611111694E-01
   3.453793115156811E-01   2.098248865650209E-01   6.931057913657120E-02
  -7.406703341339324E-02  -2.180285850104265E-01  -3.601400386262830E-01
  -4.978473087289010E-01  -6.285174262228886E-01  -7.494861118763658E-01
  -8.581114258199732E-01  -9.518329370511265E-01  -1.028235610562502E+00
  -1.085117344748145E+00  -1.120558813788036E+00  -1.132999163832399E+00
  -1.121316409135618E+00  -1.084870578137646E+00  -1.023539415195631E+00
  -9.378150385460300E-01  -8.288243810859515E-01  -6.983612610894083E-01
  -5.488956450620347E-01  -3.835642964673520E-01  -2.061396632966178E-01
  -2.097508329275645E-02   1.670750660917546E-01   3.527609220794471E-01
   5.305681493000080E-01   6.948731158893993E-01   8.401197505416068E-01
   9.610142998408705E-01   1.052732835679874E+00   1.111134974208562E+00
   1.132975926095338E+00   1.116107781077313E+00   1.059659927198748E+00
   9.641878148485780E-01   8.317790006867928E-01   6.661056495449047E-01
   4.724135293647360E-01   2.574390864735965E-01   2.924849346265068E-02
  -2.030043566283305E-01  -4.294000985443927E-01  -6.396510548716504E-01
  -8.235629134800468E-01  -9.715451261226653E-01  -1.075148771128341E+00
  -1.127605452694721E+00  -1.124336341284616E+00  -1.063397153357919E+00
  -9.458232071734072E-01  -7.758391491565111E-01  -5.609009474940428E-01
  -3.115436237832566E-01  -4.101711636902608E-02   2.352953890315063E-01
   5.006676524511443E-01   7.380032718882298E-01   9.309474091557938E-01
   1.065075466020659E+00   1.129080381983803E+00   1.115867135456157E+00
   1.023455200772062E+00   8.555890129496680E-01   6.219645528576871E-01
   3.379981509465406E-01   2.409196257937645E-02  -2.956112244143181E-01
  -5.949448107092318E-01  -8.478162203325749E-01  -1.030542640708263E+00
  -1.124233584471266E+00  -1.116992001241270E+00  -1.005685827664171E+00
  -7.970454983507463E-01  -5.078748451601078E-01  -1.642254721655298E-01
   2.005226797643064E-01   5.486141269185594E-01   8.417100717636867E-01
   1.045190775233182E+00   1.132519070923778E+00   1.089131717600176E+00
   9.152960089220658E-01   6.274112847581504E-01   2.573586374050432E-01
  -1.502928447947010E-01  -5.431412311623824E-01  -8.674707081561167E-01
  -1.075719862023206E+00  -1.133917400674356E+00  -1.027940789407093E+00
  -7.674464290543815E-01  -3.865052502703561E-01   5.963440439416467E-02
   5.016681719986769E-01   8.665718522716414E-01   1.089789841938384E+00
   1.127339011255674E+00   9.655757196835999E-01   6.264390379330125E-01
   1.665022061003283E-01  -3.308697134710376E-01  -7.696519909124169E-01
  -1.059542739841485E+00  -1.135285608599051E+00  -9.728467291727571E-01
  -5.983744231729891E-01  -8.685062836168454E-02   4.507329775409554E-01
   8.902447660717381E-01   1.123148057977833E+00   1.084705231196959E+00
   7.742967185585899E-01   2.613496426207764E-01  -3.268013172417806E-01
  -8.343591535629292E-01  -1.117950847620482E+00  -1.088716440300903E+00
  -7.432409349173870E-01  -1.722856190801139E-01   4.586126347732705E-01
   9.545289794046917E-01   1.151406049175941E+00   9.731022583392255E-01
   4.651568521590943E-01  -2.099880250123524E-01  -8.201683410606575E-01
  -1.141799612665692E+00  -1.044184166653661E+00  -5.480167995095298E-01
   1.688948693144424E-01   8.287103846753539E-01   1.158814766143635E+00
   1.007368320415920E+00   4.201321741737957E-01  -3.615201356569066E-01
  -9.920744759754687E-01  -1.173011419061817E+00  -7.996272235289607E-01
  -3.045658657300642E-02   7.672963238410652E-01   1.186535189449452E+00
   9.907705927065544E-01   2.581381780945135E-01  -6.313469361524517E-01
  -1.181791805740263E+00  -1.058253729989210E+00  -3.023101668014421E-01
   6.555750676699360E-01   1.226257722105424E+00   1.024034924932499E+00
   1.418338303432977E-01  -8.611046685713575E-01  -1.296750574029230E+00
  -8.231975543850681E-01   2.677339556104961E-01   1.197126901892445E+00
   1.240477755390951E+00   3.046834007147107E-01  -9.202296228092181E-01
  -1.436158093793737E+00  -7.476184215110355E-01   6.384952742866592E-01
   1.531258725735959E+00   1.057568219762757E+00  -4.636382666984888E-01
  -1.649418270874990E+00  -1.266701837505996E+00   4.743354140925450E-01
   1.889353200321924E+00   1.379116059546024E+00  -7.662719229312235E-01
  -2.313492614541526E+00  -1.305109269522694E+00   1.496839692305098E+00
   2.901399488006591E+00   7.648533032429300E-01  -2.885572221659454E+00
  -3.389631163287581E+00   8.479368418488917E-01   5.050448517893368E+00
   2.882195760548738E+00  -4.522792754959139E+00  -7.360380284153227E+00
    </PP_PSWFC.2>
    <PP_PSWFC.3 size="1095" index="3" label="2P" l="1">
   3.454650208239050E-08   3.542105093172697E-08   3.631773908984154E-08
   3.723712701596586E-08   3.817978935742283E-08   3.914631530879931E-08
   4.013730898021205E-08   4.115338977489592E-08   4.219519277635084E-08
   4.326336914528982E-08   4.435858652663493E-08   4.548152946681714E-08
   4.663289984163992E-08   4.781341729497413E-08   4.902381968855900E-08
   5.026486356318892E-08   5.153732461157621E-08   5.284199816318391E-08
   5.417969968133219E-08   5.555126527288964E-08   5.695755221086631E-08
   5.839943947023734E-08   5.987782827733043E-08   6.139364267312124E-08
   6.294783009078909E-08   6.454136194789240E-08   6.617523425353649E-08
   6.785046823091095E-08   6.956811095558684E-08   7.132923600997304E-08
   7.313494415433889E-08   7.498636401482524E-08   7.688465278887165E-08
   7.883099696850193E-08   8.082661308191997E-08   8.287274845387820E-08
   8.497068198529584E-08   8.712172495261275E-08   8.932722182737909E-08
   9.158855111659349E-08   9.390712622431295E-08   9.628439633507632E-08
   9.872184731969049E-08   1.012210026639469E-07   1.037834244208496E-07
   1.064107141869466E-07   1.091045141033801E-07   1.118665078822759E-07
   1.146984218591178E-07   1.176020260717619E-07   1.205791353667659E-07
   1.236316105337268E-07   1.267613594683323E-07   1.299703383648568E-07
   1.332605529388451E-07   1.366340596807469E-07   1.400929671412895E-07
   1.436394372493877E-07   1.472756866634184E-07   1.510039881567022E-07
   1.548266720380573E-07   1.587461276083165E-07   1.627648046537159E-07
   1.668852149770871E-07   1.711099339678150E-07   1.754416022115345E-07
   1.798829271405809E-07   1.844366847262196E-07   1.891057212137145E-07
   1.938929549013217E-07   1.988013779643152E-07   2.038340583251911E-07
   2.089941415712143E-07   2.142848529205081E-07   2.197094992379175E-07
   2.252714711019000E-07   2.309742449237439E-07   2.368213851204325E-07
   2.428165463425154E-07   2.489634757583781E-07   2.552660153963371E-07
   2.617281045460263E-07   2.683537822205751E-07   2.751471896811139E-07
   2.821125730251922E-07   2.892542858407165E-07   2.965767919270779E-07
   3.040846680851622E-07   3.117826069779899E-07   3.196754200637753E-07
   3.277680406032308E-07   3.360655267430068E-07   3.445730646771855E-07
   3.532959718888090E-07   3.622397004734678E-07   3.714098405470222E-07
   3.808121237395941E-07   3.904524267780075E-07   4.003367751589172E-07
   4.104713469149276E-07   4.208624764760417E-07   4.315166586288718E-07
   4.424405525760714E-07   4.536409860985343E-07   4.651249598229613E-07
   4.768996515974527E-07   4.889724209778775E-07   5.013508138278093E-07
   5.140425670349107E-07   5.270556133467166E-07   5.403980863288250E-07
   5.540783254486149E-07   5.681048812876516E-07   5.824865208860455E-07
   5.972322332221063E-07   6.123512348307045E-07   6.278529755638710E-07
   6.437471444972220E-07   6.600436759859018E-07   6.767527558738393E-07
   6.938848278601767E-07   7.114506000268793E-07   7.294610515315787E-07
   7.479274394698519E-07   7.668613059112177E-07   7.862744851132384E-07
   8.061791109182585E-07   8.265876243373834E-07   8.475127813264440E-07
   8.689676607588175E-07   8.909656726000626E-07   9.135205662895092E-07
   9.366464393340182E-07   9.603577461192910E-07   9.846693069442445E-07
   1.009596317284070E-06   1.035154357287799E-06   1.061359401516301E-06
   1.088227828926776E-06   1.115776433110031E-06   1.144022432786876E-06
   1.172983482570264E-06   1.202677683999850E-06   1.233123596855898E-06
   1.264340250759598E-06   1.296347157067021E-06   1.329164321064191E-06
   1.362812254470856E-06   1.397311988260787E-06   1.432685085806631E-06
   1.468953656357499E-06   1.506140368857751E-06   1.544268466115592E-06
   1.583361779330339E-06   1.623444742987444E-06   1.664542410130563E-06
   1.706680468020248E-06   1.749885254189023E-06   1.794183772902877E-06
   1.839603712039498E-06   1.886173460393730E-06   1.933922125421143E-06
   1.982879551430752E-06   2.033076338238280E-06   2.084543860291628E-06
   2.137314286280448E-06   2.191420599242199E-06   2.246896617177089E-06
   2.303777014184926E-06   2.362097342137030E-06   2.421894052896692E-06
   2.483204521102236E-06   2.546067067526705E-06   2.610520983028947E-06
   2.676606553110999E-06   2.744365083097051E-06   2.813838923949923E-06
   2.885071498740918E-06   2.958107329789833E-06   3.032992066491977E-06
   3.109772513849538E-06   3.188496661725304E-06   3.269213714836800E-06
   3.351974123509765E-06   3.436829615210118E-06   3.523833226874029E-06
   3.613039338056556E-06   3.704503704919222E-06   3.798283495078059E-06
   3.894437323333769E-06   3.993025288306268E-06   4.094109009996735E-06
   4.197751668300325E-06   4.304018042493889E-06   4.412974551723262E-06
   4.524689296515321E-06   4.639232101341025E-06   4.756674558255718E-06
   4.877090071644182E-06   5.000553904098393E-06   5.127143223456415E-06
   5.256937151032255E-06   5.390016811066325E-06   5.526465381427799E-06
   5.666368145600403E-06   5.809812545983966E-06   5.956888238545457E-06
   6.107687148853139E-06   6.262303529529254E-06   6.420834019157026E-06
   6.583377702678564E-06   6.750036173321897E-06   6.920913596095275E-06
   7.096116772888811E-06   7.275755209224048E-06   7.459941182692909E-06
   7.648789813129336E-06   7.842419134556794E-06   8.040950168957143E-06
   8.244507001906737E-06   8.453216860126850E-06   8.667210190997405E-06
   8.886620744082969E-06   9.111585654722558E-06   9.342245529735276E-06
   9.578744535295018E-06   9.821230487029856E-06   1.006985494240159E-05
   1.032477329542374E-05   1.058614487377706E-05   1.085413303838282E-05
   1.112890528549693E-05   1.141063335138764E-05   1.169949331966303E-05
   1.199566573131513E-05   1.229933569754890E-05   1.261069301546758E-05
   1.292993228668554E-05   1.325725303894361E-05   1.359285985080251E-05
   1.393696247949193E-05   1.428977599199605E-05   1.465152089945630E-05
   1.502242329497607E-05   1.540271499491321E-05   1.579263368374843E-05
   1.619242306262041E-05   1.660233300161997E-05   1.702261969593889E-05
   1.745354582597057E-05   1.789538072146258E-05   1.834840052982384E-05
   1.881288838869115E-05   1.928913460286329E-05   1.977743682571286E-05
   2.027810024518922E-05   2.079143777452892E-05   2.131777024779227E-05
   2.185742662034862E-05   2.241074417443530E-05   2.297806872991848E-05
   2.355975486038793E-05   2.415616611472003E-05   2.476767524424812E-05
   2.539466443568133E-05   2.603752554991765E-05   2.669666036690047E-05
   2.737248083667099E-05   2.806540933677382E-05   2.877587893617611E-05
   2.950433366586477E-05   3.025122879629143E-05   3.101703112183741E-05
   3.180221925247702E-05   3.260728391282081E-05   3.343272824872553E-05
   3.427906814166239E-05   3.514683253103928E-05   3.603656374467875E-05
   3.694881783765772E-05   3.788416493972002E-05   3.884318961147936E-05
   3.982649120963398E-05   4.083468426142202E-05   4.186839884855027E-05
   4.292828100083605E-05   4.401499309980866E-05   4.512921429252065E-05
   4.627164091582852E-05   4.744298693140691E-05   4.864398437176707E-05
   4.987538379755922E-05   5.113795476644234E-05   5.243248631381527E-05
   5.375978744570818E-05   5.512068764414143E-05   5.651603738526831E-05
   5.794670867062289E-05   5.941359557180587E-05   6.091761478894709E-05
   6.245970622329289E-05   6.404083356427583E-05   6.566198489143193E-05
   6.732417329154121E-05   6.902843749137617E-05   7.077584250645159E-05
   7.256748030618164E-05   7.440447049585675E-05   7.628796101586695E-05
   7.821912885860616E-05   8.019918080350439E-05   8.222935417064579E-05
   8.431091759344185E-05   8.644517181084064E-05   8.863345047956662E-05
   9.087712100689459E-05   9.317758540447910E-05   9.553628116376798E-05
   9.795468215354722E-05   1.004342995401750E-04   1.029766827310769E-04
   1.055834203420907E-04   1.082561411892617E-04   1.109965153057063E-04
   1.138062549841755E-04   1.166871158459691E-04   1.196408979368603E-04
   1.226694468507194E-04   1.257746548815292E-04   1.289584622045104E-04
   1.322228580870937E-04   1.355698821304850E-04   1.390016255426025E-04
   1.425202324431718E-04   1.461279012017910E-04   1.498268858097985E-04
   1.536194972867919E-04   1.575081051226757E-04   1.614951387561299E-04
   1.655830890904189E-04   1.697745100474813E-04   1.740720201612625E-04
   1.784783042112836E-04   1.829961148974543E-04   1.876282745571732E-04
   1.923776769257775E-04   1.972472889414323E-04   2.022401525955826E-04
   2.073593868301101E-04   2.126081894823722E-04   2.179898392793293E-04
   2.235076978819902E-04   2.291652119814479E-04   2.349659154477983E-04
   2.409134315332732E-04   2.470114751309521E-04   2.532638550904442E-04
   2.596744765919804E-04   2.662473435803761E-04   2.729865612603711E-04
   2.798963386548928E-04   2.869809912278095E-04   2.942449435728109E-04
   3.016927321700609E-04   3.093290082123054E-04   3.171585405023368E-04
   3.251862184231619E-04   3.334170549833919E-04   3.418561899390353E-04
   3.505088929941440E-04   3.593805670818628E-04   3.684767517283500E-04
   3.778031265011762E-04   3.873655145447212E-04   3.971698862043413E-04
   4.072223627419896E-04   4.175292201452206E-04   4.280968930320215E-04
   4.389319786539644E-04   4.500412409998460E-04   4.614316150028687E-04
   4.731102108532397E-04   4.850843184195390E-04   4.973614117808643E-04
   5.099491538731694E-04   5.228554012523510E-04   5.360882089765450E-04
   5.496558356117895E-04   5.635667483626334E-04   5.778296283323336E-04
   5.924533759141535E-04   6.074471163189451E-04   6.228202052407044E-04
   6.385822346645503E-04   6.547430388203314E-04   6.713127002855033E-04
   6.883015562409152E-04   7.057202048834144E-04   7.235795119992362E-04
   7.418906177017186E-04   7.606649433381338E-04   7.799141985690363E-04
   7.996503886251750E-04   8.198858217454601E-04   8.406331168016692E-04
   8.619052111129274E-04   8.837153684562312E-04   9.060771872768424E-04
   9.290046091038352E-04   9.525119271755276E-04   9.766137952807400E-04
   1.001325236820136E-03   1.026661654093860E-03   1.052638837820763E-03
   1.079272976894780E-03   1.106580668384280E-03   1.134578927780714E-03
   1.163285199502273E-03   1.192717367658772E-03   1.222893767084315E-03
   1.253833194644347E-03   1.285554920823637E-03   1.318078701601915E-03
   1.351424790624402E-03   1.385613951674372E-03   1.420667471455098E-03
   1.456607172688023E-03   1.493455427536231E-03   1.531235171359903E-03
   1.569969916810742E-03   1.609683768278632E-03   1.650401436691122E-03
   1.692148254680156E-03   1.734950192124443E-03   1.778833872072869E-03
   1.823826587061473E-03   1.869956315833492E-03   1.917251740468583E-03
   1.965742263934762E-03   2.015458028071786E-03   2.066429932015891E-03
   2.118689651076095E-03   2.172269656075071E-03   2.227203233160994E-03
   2.283524504107091E-03   2.341268447105141E-03   2.400470918070944E-03
   2.461168672463422E-03   2.523399387642626E-03   2.587201685768048E-03
   2.652615157255186E-03   2.719680384803270E-03   2.788438968005980E-03
   2.858933548558171E-03   2.931207836075175E-03   3.005306634535802E-03
   3.081275869364734E-03   3.159162615168439E-03   3.239015124140889E-03
   3.320882855152222E-03   3.404816503538037E-03   3.490868031602621E-03
   3.579090699854152E-03   3.669539098989791E-03   3.762269182642344E-03
   3.857338300910824E-03   3.954805234689005E-03   4.054730230812237E-03
   4.157175038038125E-03   4.262202943879596E-03   4.369878812312283E-03
   4.480269122370722E-03   4.593442007654889E-03   4.709467296768161E-03
   4.828416554703724E-03   4.950363125200511E-03   5.075382174092192E-03
   5.203550733664701E-03   5.334947748050522E-03   5.469654119672743E-03
   5.607752756769720E-03   5.749328622016561E-03   5.894468782266333E-03
   6.043262459438101E-03   6.195801082569504E-03   6.352178341061481E-03
   6.512490239134739E-03   6.676835151527533E-03   6.845313880452491E-03
   7.018029713842598E-03   7.195088484906589E-03   7.376598633022846E-03
   7.562671265992815E-03   7.753420223682611E-03   7.948962143076853E-03
   8.149416524770130E-03   8.354905800923721E-03   8.565555404710793E-03
   8.781493841278437E-03   9.002852760253505E-03   9.229767029813669E-03
   9.462374812356103E-03   9.700817641786597E-03   9.945240502454574E-03
   1.019579190976332E-02   1.045262399247840E-02   1.071589257676100E-02
   1.098575727195292E-02   1.126238155813796E-02   1.154593287550361E-02
   1.183658271552977E-02   1.213450671402756E-02   1.243988474605204E-02
   1.275290102271379E-02   1.307374418990930E-02   1.340260742899539E-02
   1.373968855942591E-02   1.408519014337399E-02   1.443931959235719E-02
   1.480228927588521E-02   1.517431663214826E-02   1.555562428075889E-02
   1.594644013756875E-02   1.634699753156420E-02   1.675753532386384E-02
   1.717829802881757E-02   1.760953593722270E-02   1.805150524166083E-02
   1.850446816395843E-02   1.896869308477610E-02   1.944445467532308E-02
   1.993203403119609E-02   2.043171880833319E-02   2.094380336107849E-02
   2.146858888233912E-02   2.200638354582533E-02   2.255750265034782E-02
   2.312226876615346E-02   2.370101188326871E-02   2.429406956181962E-02
   2.490178708429258E-02   2.552451760969047E-02   2.616262232953925E-02
   2.681647062569152E-02   2.748644022986602E-02   2.817291738485966E-02
   2.887629700735581E-02   2.959698285225382E-02   3.033538767842685E-02
   3.109193341581611E-02   3.186705133375715E-02   3.266118221042043E-02
   3.347477650324890E-02   3.430829452025669E-02   3.516220659204441E-02
   3.603699324437867E-02   3.693314537116523E-02   3.785116440764190E-02
   3.879156250359236E-02   3.975486269637994E-02   4.074159908357627E-02
   4.175231699495298E-02   4.278757316357992E-02   4.384793589576187E-02
   4.493398523952927E-02   4.604631315137345E-02   4.718552366090443E-02
   4.835223303308153E-02   4.954706992765459E-02   5.077067555542113E-02
   5.202370383088824E-02   5.330682152090176E-02   5.462070838877543E-02
   5.596605733343187E-02   5.734357452303433E-02   5.875397952255992E-02
   6.019800541473513E-02   6.167639891371931E-02   6.318992047089339E-02
   6.473934437206912E-02   6.632545882540353E-02   6.794906603926187E-02
   6.961098228923225E-02   7.131203797345853E-02   7.305307765540774E-02
   7.483496009314940E-02   7.665855825417792E-02   7.852475931475322E-02
   8.043446464269782E-02   8.238858976252522E-02   8.438806430172635E-02
   8.643383191698581E-02   8.852685019903785E-02   9.066809055482015E-02
   9.285853806551392E-02   9.509919131900219E-02   9.739106221520957E-02
   9.973517574272206E-02   1.021325697250137E-01   1.045842945345413E-01
   1.070914127728879E-01   1.096549989150723E-01   1.122761389160530E-01
   1.149559297773905E-01   1.176954790719400E-01   1.204959044243785E-01
   1.233583329452752E-01   1.262839006163421E-01   1.292737516244102E-01
   1.323290376415954E-01   1.354509170490296E-01   1.386405541014484E-01
   1.418991180298375E-01   1.452277820792593E-01   1.486277224788879E-01
   1.521001173411985E-01   1.556461454871793E-01   1.592669851943372E-01
   1.629638128642065E-01   1.667378016059759E-01   1.705901197327852E-01
   1.745219291671680E-01   1.785343837520493E-01   1.826286274636530E-01
   1.868057925226074E-01   1.910669973995028E-01   1.954133447111041E-01
   1.998459190033924E-01   2.043657844175983E-01   2.089739822353610E-01
   2.136715282991672E-01   2.184594103042326E-01   2.233385849580155E-01
   2.283099750036108E-01   2.333744661033347E-01   2.385329035788914E-01
   2.437860890046363E-01   2.491347766505694E-01   2.545796697718646E-01
   2.601214167419229E-01   2.657606070261556E-01   2.714977669939693E-01
   2.773333555666919E-01   2.832677596995377E-01   2.893012896960525E-01
   2.954341743539084E-01   3.016665559413947E-01   3.079984850044331E-01
   3.144299150045640E-01   3.209606967889320E-01   3.275905728940282E-01
   3.343191716856948E-01   3.411460013387095E-01   3.480704436602073E-01
   3.550917477621390E-01   3.622090235890536E-01   3.694212353086532E-01
   3.767271945737628E-01   3.841255536657632E-01   3.916147985308998E-01
   3.991932417224645E-01   4.068590152634832E-01   4.146100634462633E-01
   4.224441355870747E-01   4.303587787561626E-01   4.383513305054278E-01
   4.464189116183257E-01   4.545584189088369E-01   4.627665180988882E-01
   4.710396368061150E-01   4.793739576766020E-01   4.877654117000564E-01
   4.962096717477560E-01   5.047021463767208E-01   5.132379739466285E-01
   5.218120170992759E-01   5.304188576536913E-01   5.390527919733582E-01
   5.477078268655030E-01   5.563776760758141E-01   5.650557574454824E-01
   5.737351908009374E-01   5.824087966500422E-01   5.910690957619545E-01
   5.997083097110467E-01   6.083183624684473E-01   6.168908831276786E-01
   6.254172098535078E-01   6.338883951455740E-01   6.422952125102992E-01
   6.506281646362250E-01   6.588774931689845E-01   6.670331901825783E-01
   6.750850114434828E-01   6.830224915631021E-01   6.908349611322601E-01
   6.985115659285908E-01   7.060412882836947E-01   7.134129706917958E-01
   7.206153417349966E-01   7.276370443921916E-01   7.344666667889193E-01
   7.410927754338283E-01   7.475039509739065E-01   7.536888264848441E-01
   7.596361282948823E-01   7.653347193199573E-01   7.707736448647031E-01
   7.759421808178779E-01   7.808298841416907E-01   7.854266455223362E-01
   7.897227440135437E-01   7.937089034660102E-01   7.973763504931690E-01
   8.007168736776442E-01   8.037228836730472E-01   8.063874738023650E-01
   8.087044806971462E-01   8.106685444611395E-01   8.122751677780452E-01
   8.135207733159191E-01   8.144027587107776E-01   8.149195483395059E-01
   8.150706410177926E-01   8.148566526831270E-01   8.142793530466622E-01
   8.133416951218797E-01   8.120478364635699E-01   8.104031508788982E-01
   8.084142293047094E-01   8.060888684833654E-01   8.034360460151524E-01
   8.004658803207472E-01   7.971895740146672E-01   7.936193391726435E-01
   7.897683029752188E-01   7.856503922296750E-01   7.812801953158806E-01
   7.766728001723728E-01   7.718436070407129E-01   7.668081148227053E-01
   7.615816800806587E-01   7.561792479295795E-01   7.506150543362644E-01
   7.449022996579860E-01   7.390527936268106E-01   7.330765724185476E-01
   7.269814889413908E-01   7.207727780414909E-01   7.144525989535079E-01
   7.080195580251015E-01   7.014702549805778E-01   6.948065334397677E-01
   6.880319471244942E-01   6.811501012560234E-01   6.741646494901665E-01
   6.670792908916429E-01   6.598977669513237E-01   6.526238586494137E-01
   6.452613835691153E-01   6.378141930522151E-01   6.302861694187566E-01
   6.226812232307067E-01   6.150032906097893E-01   6.072563306067277E-01
   5.994443226204429E-01   5.915712638649563E-01   5.836411668809771E-01
   5.756580570883374E-01   5.676259703745988E-01   5.595489507143200E-01
   5.514310478126305E-01   5.432763147659024E-01   5.350888057314733E-01
   5.268725735975683E-01   5.186316676438091E-01   5.103701311820108E-01
   5.020919991663683E-01   4.938012957616647E-01   4.855020318578137E-01
   4.771982025189151E-01   4.688937843550930E-01   4.605927328057282E-01
   4.522989793233326E-01   4.440164284482648E-01   4.357489547657808E-01
   4.275003997385752E-01   4.192745684099933E-01   4.110752259754921E-01
   4.029060942226703E-01   3.947708478432570E-01   3.866731106237810E-01
   3.786164515251929E-01   3.706043806653949E-01   3.626403452223526E-01
   3.547277252791336E-01   3.468698296357114E-01   3.390698916155996E-01
   3.313310648982078E-01   3.236564194101579E-01   3.160489373105500E-01
   3.085115091062672E-01   3.010469299337852E-01   2.936578960435760E-01
   2.863470015220455E-01   2.791167352840726E-01   2.719694783665934E-01
   2.649075015504014E-01   2.579329633335150E-01   2.510479082751284E-01
   2.442542657244486E-01   2.375538489437521E-01   2.309483546298636E-01
   2.244393628330872E-01   2.180283372675179E-01   2.117166260017229E-01
   2.055054625141048E-01   1.993959670929171E-01   1.933891485569716E-01
   1.874859062695990E-01   1.816870324154654E-01   1.759932145074155E-01
   1.704050380886576E-01   1.649229895943208E-01   1.595474593357260E-01
   1.542787445706021E-01   1.491170526229630E-01   1.440625040174058E-01
   1.391151355941927E-01   1.342749035736069E-01   1.295416865406955E-01
   1.249152883245826E-01   1.203954407500170E-01   1.159818062426347E-01
   1.116739802735105E-01   1.074714936328649E-01   1.033738145271885E-01
   9.938035049846890E-02   9.549045016853835E-02   9.170340481572876E-02
   8.801844979490553E-02   8.443476581548159E-02   8.095148009509258E-02
   7.756766740918238E-02   7.428235105874746E-02   7.109450377988184E-02
   6.800304861953671E-02   6.500685980205780E-02   6.210476361061382E-02
   5.929553930661475E-02   5.657792010869648E-02   5.395059425088203E-02
   5.141220613719536E-02   4.896135760738374E-02   4.659660932558204E-02
   4.431648230081095E-02   4.211945954522044E-02   4.000398787304352E-02
   3.796847984037918E-02   3.601131582323352E-02   3.413084622876125E-02
   3.232539383240032E-02   3.059325623160825E-02   2.893270840520399E-02
   2.734200536590147E-02   2.581938489249059E-02   2.436307032727014E-02
   2.297127342375301E-02   2.164219722933014E-02   2.037403898747608E-02
   1.916499304418386E-02   1.801325374360710E-02   1.691701829833903E-02
   1.587448962034860E-02   1.488387909930034E-02   1.394340931578534E-02
   1.305131667786674E-02   1.220585397027462E-02   1.140529280655699E-02
   1.064792597548960E-02   9.932069674054949E-03   9.256065620308476E-03
   8.618283040447334E-03   8.017120525376112E-03   7.451007753016878E-03
   6.918407073532393E-03   6.417814955516079E-03   5.947763292046554E-03
   5.506820566305305E-03   5.093592877210881E-03   4.706724826230277E-03
   4.344900267186858E-03   4.006842921493620E-03   3.691316861800397E-03
   3.397126867554285E-03   3.123118656434067E-03   2.868178996032760E-03
   2.631235700528312E-03   2.411257517401975E-03   2.207253909538307E-03
   2.018274738271310E-03   1.843409853129127E-03   1.681788594179362E-03
   1.532579212974089E-03   1.394988218199228E-03   1.268259652102601E-03
   1.151674303837529E-03   1.044548865813219E-03   9.462350390608715E-04
   8.561185935468725E-04   7.736183892523806E-04   6.981853636780283E-04
   6.293014913228503E-04   5.664787203996343E-04   5.092578919409056E-04
   4.572076462036238E-04   4.099233210214792E-04   3.670258465001351E-04
   3.281606399458607E-04   2.929965179379513E-04   2.612244679845006E-04
   2.325574846223129E-04   2.067261421365090E-04   1.834850038728994E-04
   1.626070001601354E-04   1.438789566192359E-04   1.271029976706983E-04
   1.120965610853818E-04   9.869144174233133E-05   8.673286639821100E-05
   7.607859941449464E-05   6.659807913288335E-05   5.817158423253070E-05
   5.068942901608275E-05   4.405118614438932E-05   3.816493484782792E-05
   3.294653218635681E-05   2.831890393276667E-05   2.421134766979782E-05
   2.055890376514163E-05   1.730135213126818E-05   1.439393445894504E-05
   1.173151892712262E-05   0.000000000000000E+00   0.000000000000000E+00
   0.000000000000000E+00   0.000000000000000E+00   0.000000000000000E+00
   0.000000000000000E+00   0.000000000000000E+00   0.000000000000000E+00
   0.000000000000000E+00   0.000000000000000E+00   0.000000000000000E+00
   0.000000000000000E+00   0.000000000000000E+00   0.000000000000000E+00
   0.000000000000000E+00   0.000000000000000E+00   0.000000000000000E+00
   0.000000000000000E+00   0.000000000000000E+00   0.000000000000000E+00
   0.000000000000000E+00   0.000000000000000E+00   0.000000000000000E+00
   0.000000000000000E+00   0.000000000000000E+00   0.000000000000000E+00
   0.000000000000000E+00   0.000000000000000E+00   0.000000000000000E+00
   0.000000000000000E+00   0.000000000000000E+00   0.000000000000000E+00
   0.000000000000000E+00   0.000000000000000E+00   0.000000000000000E+00
   0.000000000000000E+00   0.000000000000000E+00   0.000000000000000E+00
   0.000000000000000E+00   0.000000000000000E+00   0.000000000000000E+00
   0.000000000000000E+00   0.000000000000000E+00   0.000000000000000E+00
   0.000000000000000E+00   0.000000000000000E+00   0.000000000000000E+00
   0.000000000000000E+00   0.000000000000000E+00   0.000000000000000E+00
   0.000000000000000E+00   0.000000000000000E+00   0.000000000000000E+00
   0.000000000000000E+00   0.000000000000000E+00   0.000000000000000E+00
   0.000000000000000E+00   0.000000000000000E+00   0.000000000000000E+00
   0.000000000000000E+00   0.000000000000000E+00   0.000000000000000E+00
   0.000000000000000E+00   0.000000000000000E+00   0.000000000000000E+00
   0.000000000000000E+00   0.000000000000000E+00   0.000000000000000E+00
   0.000000000000000E+00   0.000000000000000E+00   0.000000000000000E+00
   0.000000000000000E+00   0.000000000000000E+00   0.000000000000000E+00
   0.000000000000000E+00   0.000000000000000E+00   0.000000000000000E+00
   0.000000000000000E+00   0.000000000000000E+00   0.000000000000000E+00
   0.000000000000000E+00   0.000000000000000E+00   0.000000000000000E+00
   0.000000000000000E+00   0.000000000000000E+00   0.000000000000000E+00
   0.000000000000000E+00   0.000000000000000E+00   0.000000000000000E+00
   0.000000000000000E+00   0.000000000000000E+00   0.000000000000000E+00
   0.000000000000000E+00   0.000000000000000E+00   0.000000000000000E+00
   0.000000000000000E+00   0.000000000000000E+00   0.000000000000000E+00
   0.000000000000000E+00   0.000000000000000E+00   0.000000000000000E+00
   0.000000000000000E+00   0.000000000000000E+00   0.000000000000000E+00
   0.000000000000000E+00   0.000000000000000E+00   0.000000000000000E+00
   0.000000000000000E+00   0.000000000000000E+00   0.000000000000000E+00
   0.000000000000000E+00   0.000000000000000E+00   0.000000000000000E+00
   0.000000000000000E+00   0.000000000000000E+00   0.000000000000000E+00
   0.000000000000000E+00   0.000000000000000E+00   0.000000000000000E+00
   0.000000000000000E+00   0.000000000000000E+00   0.000000000000000E+00
   0.000000000000000E+00   0.000000000000000E+00   0.000000000000000E+00
   0.000000000000000E+00   0.000000000000000E+00   0.000000000000000E+00
   0.000000000000000E+00   0.000000000000000E+00   0.000000000000000E+00
   0.000000000000000E+00   0.000000000000000E+00   0.000000000000000E+00
   0.000000000000000E+00   0.000000000000000E+00   0.000000000000000E+00
   0.000000000000000E+00   0.000000000000000E+00   0.000000000000000E+00
   0.000000000000000E+00   0.000000000000000E+00   0.000000000000000E+00
   0.000000000000000E+00   0.000000000000000E+00   0.000000000000000E+00
   0.000000000000000E+00   0.000000000000000E+00   0.000000000000000E+00
   0.000000000000000E+00   0.000000000000000E+00   0.000000000000000E+00
    </PP_PSWFC.3>
    <PP_PSWFC.4 size="1095" index="4" label="2P" l="1">
   2.404859188474401E-08   2.465738487583251E-08   2.528158953430515E-08
   2.592159600835049E-08   2.657780432280416E-08   2.725062462917708E-08
   2.794047746201348E-08   2.864779400173859E-08   2.937301634416018E-08
   3.011659777679297E-08   3.087900306217761E-08   3.166070872837243E-08
   3.246220336679881E-08   3.328398793762644E-08   3.412657608288992E-08
   3.499049444753105E-08   3.587628300856922E-08   3.678449541260436E-08
   3.771569932186370E-08   3.867047676900931E-08   3.964942452092677E-08
   4.065315445172390E-08   4.168229392517169E-08   4.273748618682675E-08
   4.381939076608067E-08   4.492868388838668E-08   4.606605889792250E-08
   4.723222669095264E-08   4.842791616016123E-08   4.965387465023367E-08
   5.091086842497052E-08   5.219968314622722E-08   5.352112436497774E-08
   5.487601802480977E-08   5.626521097816605E-08   5.768957151565388E-08
   5.914998990875466E-08   6.064737896627198E-08   6.218267460486619E-08
   6.375683643403251E-08   6.537084835588701E-08   6.702571918013713E-08
   6.872248325461980E-08   7.046220111180164E-08   7.224596013164603E-08
   7.407487522125933E-08   7.595008951174376E-08   7.787277507269060E-08
   7.984413364476062E-08   8.186539739081081E-08   8.393782966603415E-08
   8.606272580759743E-08   8.824141394426766E-08   9.047525582653448E-08
   9.276564767774782E-08   9.511402106680069E-08   9.752184380290553E-08
   9.999062085302107E-08   1.025218952825039E-07   1.051172492195735E-07
   1.077783048441915E-07   1.105067254019751E-07   1.133042162437784E-07
   1.161725258915894E-07   1.191134471314119E-07   1.221288181338121E-07
   1.252205236028328E-07   1.283904959539929E-07   1.316407165221064E-07
   1.349732167996797E-07   1.383900797066565E-07   1.418934408923078E-07
   1.454854900700795E-07   1.491684723862308E-07   1.529446898231208E-07
   1.568165026380177E-07   1.607863308383330E-07   1.648566556942013E-07
   1.690300212893497E-07   1.733090361112298E-07   1.776963746814008E-07
   1.821947792271886E-07   1.868070613956617E-07   1.915361040109964E-07
   1.963848628763310E-07   2.013563686212311E-07   2.064537285959264E-07
   2.116801288134991E-07   2.170388359412381E-07   2.225331993424060E-07
   2.281666531696911E-07   2.339427185116568E-07   2.398650055935281E-07
   2.459372160336906E-07   2.521631451573141E-07   2.585466843685416E-07
   2.650918235827358E-07   2.718026537202934E-07   2.786833692635915E-07
   2.857382708786661E-07   2.929717681032514E-07   3.003883821028740E-07
   3.079927484967123E-07   3.157896202549952E-07   3.237838706697493E-07
   3.319804964007445E-07   3.403846205985543E-07   3.490014961066728E-07
   3.578365087446931E-07   3.668951806746017E-07   3.761831738522847E-07
   3.857062935664148E-07   3.954704920669212E-07   4.054818722853143E-07
   4.157466916491934E-07   4.262713659933110E-07   4.370624735696526E-07
   4.481267591590270E-07   4.594711382867419E-07   4.711027015450013E-07
   4.830287190247174E-07   4.952566448595203E-07   5.077941218847935E-07
   5.206489864146545E-07   5.338292731398659E-07   5.473432201497288E-07
   5.611992740811127E-07   5.754060953978277E-07   5.899725638036435E-07
   6.049077837923416E-07   6.202210903382563E-07   6.359220547308814E-07
   6.520204905571721E-07   6.685264598352880E-07   6.854502793036162E-07
   7.028025268689873E-07   7.205940482181372E-07   7.388359635965326E-07
   7.575396747587972E-07   7.767168720950946E-07   7.963795419378994E-07
   8.165399740537501E-07   8.372107693246466E-07   8.584048476238989E-07
   8.801354558913580E-07   9.024161764130527E-07   9.252609353104384E-07
   9.486840112445394E-07   9.727000443404316E-07   9.973240453376549E-07
   1.022571404972247E-06   1.048457903596296E-06   1.074999721040997E-06
   1.102213446729391E-06   1.130116090045107E-06   1.158725090963567E-06
   1.188058330952337E-06   1.218134144147399E-06   1.248971328812344E-06
   1.280589159087664E-06   1.313007397037441E-06   1.346246305001021E-06
   1.380326658257342E-06   1.415269758009858E-06   1.451097444700180E-06
   1.487832111658703E-06   1.525496719100850E-06   1.564114808477559E-06
   1.603710517189078E-06   1.644308593671232E-06   1.685934412863540E-06
   1.728613992068971E-06   1.772374007215099E-06   1.817241809526941E-06
   1.863245442621855E-06   1.910413660037123E-06   1.958775943201326E-06
   2.008362519860546E-06   2.059204382971065E-06   2.111333310070323E-06
   2.164781883138160E-06   2.219583508960929E-06   2.275772440011001E-06
   2.333383795854877E-06   2.392453585103206E-06   2.453018727916396E-06
   2.515117079080016E-06   2.578787451664232E-06   2.644069641282188E-06
   2.711004450962491E-06   2.779633716651200E-06   2.850000333359512E-06
   2.922148281973196E-06   2.996122656740745E-06   3.071969693457354E-06
   3.149736798362245E-06   3.229472577767614E-06   3.311226868437449E-06
   3.395050768735413E-06   3.480996670561195E-06   3.569118292095159E-06
   3.659470711372030E-06   3.752110400704274E-06   3.847095261976920E-06
   3.944484662835823E-06   4.044339473791824E-06   4.146722106264319E-06
   4.251696551587627E-06   4.359328421004820E-06   4.469684986673926E-06
   4.582835223711948E-06   4.698849853303365E-06   4.817801386899586E-06
   4.939764171537321E-06   5.064814436304084E-06   5.193030339979690E-06
   5.324492019883905E-06   5.459281641960280E-06   5.597483452127876E-06
   5.739183828932779E-06   5.884471337532186E-06   6.033436785045173E-06
   6.186173277304227E-06   6.342776277043411E-06   6.503343663559360E-06
   6.667975793882211E-06   6.836775565495134E-06   7.009848480641100E-06
   7.187302712257471E-06   7.369249171579501E-06   7.555801577454725E-06
   7.747076527412097E-06   7.943193570529595E-06   8.144275282146355E-06
   8.350447340465824E-06   8.561838605097519E-06   8.778581197587097E-06
   9.000810583984268E-06   9.228665659500713E-06   9.462288835310722E-06
   9.701826127548448E-06   9.947427248558101E-06   1.019924570045319E-05
   1.045743887104394E-05   1.072216813219256E-05   1.099359894065760E-05
   1.127190094149083E-05   1.155724807405067E-05   1.184981868069890E-05
   1.214979561824827E-05   1.245736637223048E-05   1.277272317405632E-05
   1.309606312114064E-05   1.342758830006757E-05   1.376750591287271E-05
   1.411602840652106E-05   1.447337360566192E-05   1.483976484874308E-05
   1.521543112756984E-05   1.560060723039581E-05   1.599553388863453E-05
   1.640045792728414E-05   1.681563241915830E-05   1.724131684302034E-05
   1.767777724571887E-05   1.812528640842621E-05   1.858412401708365E-05
   1.905457683715949E-05   1.953693889282943E-05   2.003151165069088E-05
   2.053860420812580E-05   2.105853348643006E-05   2.159162442882924E-05
   2.213821020350502E-05   2.269863241175866E-05   2.327324130144133E-05
   2.386239598578481E-05   2.446646466776875E-05   2.508582487016489E-05
   2.572086367140156E-05   2.637197794739547E-05   2.703957461950226E-05
   2.772407090873973E-05   2.842589459644302E-05   2.914548429151412E-05
   2.988328970443212E-05   3.063977192819586E-05   3.141540372637329E-05
   3.221066982843809E-05   3.302606723257727E-05   3.386210551615847E-05
   3.471930715405121E-05   3.559820784499978E-05   3.649935684625197E-05
   3.742331731665213E-05   3.837066666841191E-05   3.934199692777905E-05
   4.033791510482790E-05   4.135904357260326E-05   4.240602045585313E-05
   4.347950002959285E-05   4.458015312774934E-05   4.570866756213956E-05
   4.686574855204483E-05   4.805211916464847E-05   4.926852076661075E-05
   5.051571348706344E-05   5.179447669231138E-05   5.310560947253735E-05
   5.444993114081349E-05   5.582828174472931E-05   5.724152259095596E-05
   5.869053678307233E-05   6.017622977298869E-05   6.169952992631086E-05
   6.326138910199634E-05   6.486278324666450E-05   6.650471300392886E-05
   6.818820433913260E-05   6.991430917987466E-05   7.168410607272522E-05
   7.349870085653988E-05   7.535922735278992E-05   7.726684807333945E-05
   7.922275494610850E-05   8.122817005907446E-05   8.328434642307214E-05
   8.539256875386968E-05   8.755415427400402E-05   8.977045353487486E-05
   9.204285125960935E-05   9.437276720721751E-05   9.676165705857998E-05
   9.921101332481438E-05   1.017223662785862E-04   1.042972849089428E-04
   1.069373779002608E-04   1.096442946359181E-04   1.124197262273096E-04
   1.152654065688481E-04   1.181831134196037E-04   1.211746695122503E-04
   1.242419436900107E-04   1.273868520723031E-04   1.306113592498101E-04
   1.339174795097152E-04   1.373072780918586E-04   1.407828724765987E-04
   1.443464337051707E-04   1.480001877333615E-04   1.517464168193414E-04
   1.555874609465055E-04   1.595257192822111E-04   1.635636516733103E-04
   1.677037801794022E-04   1.719486906447543E-04   1.763010343098617E-04
   1.807635294636431E-04   1.853389631372910E-04   1.900301928408237E-04
   1.948401483434119E-04   1.997718334985664E-04   2.048283281153639E-04
   2.100127898767282E-04   2.153284563061789E-04   2.207786467840323E-04
   2.263667646143635E-04   2.320962991441606E-04   2.379708279356856E-04
   2.439940189937084E-04   2.501696330485724E-04   2.565015258969772E-04
   2.629936508015710E-04   2.696500609509017E-04   2.764749119812890E-04
   2.834724645621123E-04   2.906470870462763E-04   2.980032581870977E-04
   3.055455699236306E-04   3.132787302361158E-04   3.212075660729819E-04
   3.293370263516466E-04   3.376721850344851E-04   3.462182442822471E-04
   3.549805376866415E-04   3.639645335840448E-04   3.731758384524556E-04
   3.826202003936620E-04   3.923035127029947E-04   4.022318175282559E-04
   4.124113096208442E-04   4.228483401808163E-04   4.335494207981609E-04
   4.445212274931830E-04   4.557706048578957E-04   4.673045703013102E-04
   4.791303184010641E-04   4.912552253639278E-04   5.036868535979611E-04
   5.164329563992523E-04   5.295014827558305E-04   5.429005822716096E-04
   5.566386102136619E-04   5.707241326855027E-04   5.851659319297515E-04
   5.999730117631006E-04   6.151546031471782E-04   6.307201698983730E-04
   6.466794145400979E-04   6.630422843011376E-04   6.798189772635545E-04
   6.970199486635843E-04   7.146559173500555E-04   7.327378724029346E-04
   7.512770799172462E-04   7.702850899554206E-04   7.897737436729354E-04
   8.097551806205681E-04   8.302418462285665E-04   8.512464994764775E-04
   8.727822207535476E-04   8.948624199136882E-04   9.175008445311411E-04
   9.407115883596667E-04   9.645091000020260E-04   9.889081917937275E-04
   1.013924048907014E-03   1.039572238679327E-03   1.065868720173042E-03
   1.092829853970750E-03   1.120472412212572E-03   1.148813588880982E-03
   1.177871010339460E-03   1.207662746130093E-03   1.238207320037404E-03
   1.269523721424437E-03   1.301631416846962E-03   1.334550361953611E-03
   1.368301013676954E-03   1.402904342725092E-03   1.438381846377560E-03
   1.474755561595489E-03   1.512048078452645E-03   1.550282553893039E-03
   1.589482725826648E-03   1.629672927566662E-03   1.670878102620333E-03
   1.713123819838406E-03   1.756436288933774E-03   1.800842376376406E-03
   1.846369621674203E-03   1.893046254048612E-03   1.940901209513366E-03
   1.989964148366127E-03   2.040265473102681E-03   2.091836346763446E-03
   2.144708711721029E-03   2.198915308919915E-03   2.254489697578631E-03
   2.311466275364191E-03   2.369880299049076E-03   2.429767905663328E-03
   2.491166134150457E-03   2.554112947540281E-03   2.618647255649409E-03
   2.684808938320318E-03   2.752638869212612E-03   2.822178940156286E-03
   2.893472086082113E-03   2.966562310537699E-03   3.041494711806507E-03
   3.118315509638837E-03   3.197072072610290E-03   3.277812946119261E-03
   3.360587881039353E-03   3.445447863038055E-03   3.532445142576038E-03
   3.621633265603462E-03   3.713067104964221E-03   3.806802892525452E-03
   3.902898252045706E-03   4.001412232796576E-03   4.102405343953947E-03
   4.205939589773076E-03   4.312078505563552E-03   4.420887194479925E-03
   4.532432365143115E-03   4.646782370109098E-03   4.764007245201356E-03
   4.884178749722317E-03   5.007370407560999E-03   5.133657549213263E-03
   5.263117354730737E-03   5.395828897615907E-03   5.531873189679893E-03
   5.671333226878825E-03   5.814294036147995E-03   5.960842723247884E-03
   6.111068521641257E-03   6.265062842417460E-03   6.422919325280057E-03
   6.584733890616907E-03   6.750604792666438E-03   6.920632673799603E-03
   7.094920619932206E-03   7.273574217085238E-03   7.456701609108643E-03
   7.644413556584065E-03   7.836823496924619E-03   8.034047605683558E-03
   8.236204859090566E-03   8.443417097826807E-03   8.655809092056557E-03
   8.873508607725733E-03   9.096646474143474E-03   9.325356652856972E-03
   9.559776307833645E-03   9.800045876959481E-03   1.004630914486714E-02
   1.029871331709887E-02   1.055740909561903E-02   1.082255075567717E-02
   1.109429622403280E-02   1.137280715854599E-02   1.165824902913676E-02
   1.195079120011668E-02   1.225060701389458E-02   1.255787387605427E-02
   1.287277334180301E-02   1.319549120378681E-02   1.352621758126641E-02
   1.386514701064492E-02   1.421247853733833E-02   1.456841580897430E-02
   1.493316716990520E-02   1.530694575701659E-02   1.568996959680968E-02
   1.608246170373469E-02   1.648465017974628E-02   1.689676831505095E-02
   1.731905469001090E-02   1.775175327816652E-02   1.819511355033326E-02
   1.864939057972673E-02   1.911484514806278E-02   1.959174385257624E-02
   2.008035921389572E-02   2.058096978470535E-02   2.109386025912134E-02
   2.161932158270109E-02   2.215765106300032E-02   2.270915248058209E-02
   2.327413620037787E-02   2.385291928329169E-02   2.444582559792996E-02
   2.505318593233187E-02   2.567533810556401E-02   2.631262707903776E-02
   2.696540506739204E-02   2.763403164877858E-02   2.831887387437335E-02
   2.902030637692583E-02   2.973871147814725E-02   3.047447929472406E-02
   3.122800784273124E-02   3.199970314020514E-02   3.278997930761961E-02
   3.359925866599565E-02   3.442797183235816E-02   3.527655781223336E-02
   3.614546408886801E-02   3.703514670882752E-02   3.794607036361378E-02
   3.887870846692287E-02   3.983354322713846E-02   4.081106571464076E-02
   4.181177592347957E-02   4.283618282694250E-02   4.388480442652109E-02
   4.495816779375077E-02   4.605680910437601E-02   4.718127366425941E-02
   4.833211592642694E-02   4.950989949861089E-02   5.071519714061631E-02
   5.194859075080841E-02   5.321067134097980E-02   5.450203899882246E-02
   5.582330283719202E-02   5.717508092931356E-02   5.855800022903758E-02
   5.997269647521482E-02   6.141981407921308E-02   6.290000599456244E-02
   6.441393356765840E-02   6.596226636841973E-02   6.754568199973686E-02
   6.916486588450553E-02   7.082051102898804E-02   7.251331776118944E-02
   7.424399344288686E-02   7.601325215389251E-02   7.782181434707508E-02
   7.967040647261299E-02   8.155976056988473E-02   8.349061382535403E-02
   8.546370809473897E-02   8.747978938769699E-02   8.953960731320026E-02
   9.164391448370637E-02   9.379346587617393E-02   9.598901814790822E-02
   9.823132890515807E-02   1.005211559223285E-01   1.028592563096053E-01
   1.052463856267341E-01   1.076832969406333E-01   1.101707398244602E-01
   1.127094592957018E-01   1.153001946907977E-01   1.179436784737583E-01
   1.206406349761906E-01   1.233917790660994E-01   1.261978147427932E-01
   1.290594336551854E-01   1.319773135407559E-01   1.349521165824102E-01
   1.379844876804572E-01   1.410750526369221E-01   1.442244162494040E-01
   1.474331603117020E-01   1.507018415184520E-01   1.540309892710459E-01
   1.574211033821569E-01   1.608726516762423E-01   1.643860674834813E-01
   1.679617470246877E-01   1.716000466848518E-01   1.753012801730946E-01
   1.790657155669678E-01   1.828935722392085E-01   1.867850176652593E-01
   1.907401641100835E-01   1.947590651930795E-01   1.988417123301620E-01
   2.029880310524165E-01   2.071978772010926E-01   2.114710329990735E-01
   2.158072029994317E-01   2.202060099121238E-01   2.246669903104252E-01
   2.291895902192794E-01   2.337731605883401E-01   2.384169526531951E-01
   2.431201131889679E-01   2.478816796613012E-01   2.527005752805946E-01
   2.575756039662583E-01   2.625054452287804E-01   2.674886489784198E-01
   2.725236302705007E-01   2.776086639984878E-01   2.827418795472815E-01
   2.879212554205782E-01   2.931446138575370E-01   2.984096154555506E-01
   3.037137538175188E-01   3.090543502436867E-01   3.144285484899169E-01
   3.198333096160739E-01   3.252654069501507E-01   3.307214211957678E-01
   3.361977357127217E-01   3.416905320024406E-01   3.471957854323605E-01
   3.527092612355128E-01   3.582265108239094E-01   3.637428684566076E-01
   3.692534483057293E-01   3.747531419660118E-01   3.802366164558375E-01
   3.856983127599921E-01   3.911324449666268E-01   3.965330000531206E-01
   4.018937383775557E-01   4.072081949344856E-01   4.124696814354247E-01
   4.176712892760150E-01   4.228058934531581E-01   4.278661574963631E-01
   4.328445394782274E-01   4.377332991692206E-01   4.425245064016958E-01
   4.472100507073522E-01   4.517816522909966E-01   4.562308744014791E-01
   4.605491371579194E-01   4.647277328857639E-01   4.687578430127463E-01
   4.726305565693206E-01   4.763368903315647E-01   4.798678106367920E-01
   4.832142568930198E-01   4.863671667930302E-01   4.893175032317871E-01
   4.920562829124685E-01   4.945746066111562E-01   4.968636910532266E-01
   4.989149023356541E-01   5.007197908086265E-01   5.022701273070865E-01
   5.035579405979534E-01   5.045755558818208E-01   5.053156341588813E-01
   5.057712122376656E-01   5.059357431319915E-01   5.058031365563415E-01
   5.053677991928541E-01   5.046246743644096E-01   5.035692807080971E-01
   5.021977494019811E-01   5.005068594558677E-01   4.984940705341334E-01
   4.961575527361211E-01   4.934962127177269E-01   4.905097154972933E-01
   4.871985012505667E-01   4.835637963642305E-01   4.796076179863415E-01
   4.753327712861460E-01   4.707428386164074E-01   4.658421597600482E-01
   4.606358024411546E-01   4.551295222898361E-01   4.493297114730364E-01
   4.432433352409903E-01   4.368778556937646E-01   4.302411421464077E-01
   4.233413675667948E-01   4.161868906797929E-01   4.087861234770086E-01
   4.011473840455514E-01   3.932787348341651E-01   3.851878067126976E-01
   3.768816094532804E-01   3.683663295701547E-01   3.596471168010851E-01
   3.507278608974966E-01   3.416109608127357E-01   3.322970888377408E-01
   3.227849527291177E-01   3.130720042116292E-01   3.031579073312169E-01
   2.930430932467271E-01   2.827280193411397E-01   2.722131680717057E-01
   2.614990458788183E-01   2.505861821534788E-01   2.394751282624585E-01
   2.281664566294822E-01   2.166607598699850E-01   2.049586499762117E-01
   1.930607575485838E-01   1.809677310684512E-01   1.686802362065625E-01
   1.561989551608109E-01   1.435245860160641E-01   1.306578421181979E-01
   1.175994514538440E-01   1.043501560268498E-01   9.091071122205632E-02
   7.728188514677495E-02   6.346445794029250E-02   4.945922104191652E-02
   3.526697640851301E-02   2.088853567323773E-02   6.324719238255970E-03
  -8.423644704272286E-03  -2.335572122675594E-02  -3.847066979772720E-02
  -5.376764548896669E-02  -6.924580025340585E-02  -8.490428426512282E-02
  -1.007422473083479E-01  -1.167588401975113E-01  -1.329532162050465E-01
  -1.493245324679757E-01  -1.658719513383494E-01  -1.825946416365038E-01
  -1.994917797599886E-01  -2.165625505950722E-01  -2.338061481721367E-01
  -2.512217760012403E-01  -2.688086470198608E-01  -2.865659830815571E-01
  -3.044930139122095E-01  -3.225889754598114E-01  -3.408531075646674E-01
  -3.592846508794390E-01  -3.778828429728759E-01  -3.966469135573352E-01
  -4.155760787883321E-01  -4.346695345943561E-01  -4.539264490069161E-01
  -4.733459534741359E-01  -4.929271331560202E-01  -5.126690162155397E-01
  -5.325705621366701E-01  -5.526306491182361E-01  -5.728480606105826E-01
  -5.932214710803387E-01  -6.137494311066326E-01  -6.344303519297433E-01
  -6.552624895900062E-01  -6.762439288105305E-01  -6.973725667916599E-01
  -7.186460970977976E-01  -7.400619938279451E-01  -7.616174962697757E-01
  -7.833095942430091E-01  -8.051350143409807E-01  -8.270902072793651E-01
  -8.491713365577547E-01  -8.713742686330059E-01  -8.936945647927625E-01
  -9.161274749032161E-01  -9.386679331869109E-01  -9.613105561642563E-01
  -9.840496428664794E-01  -1.006879177398283E+00  -1.029792833895758E+00
  -1.052783983889669E+00  -1.075845706046592E+00  -1.098970798221334E+00
  -1.122151791714329E+00  -1.145380967588272E+00  -1.168650374859959E+00
  -1.191951850347291E+00  -1.215277039918396E+00  -1.238617420861012E+00
  -1.261964325066166E+00  -1.285308962701684E+00  -1.308642446038537E+00
  -1.331955813086809E+00  -1.355240050698315E+00  -1.378486116799408E+00
  -1.401684961430083E+00  -1.424827546283541E+00  -1.447904862463314E+00
  -1.470907946202082E+00  -1.493827892316582E+00  -1.516655865205600E+00
  -1.539383107232010E+00  -1.562000944364379E+00  -1.584500788987806E+00
  -1.606874139826857E+00  -1.629112578954864E+00  -1.651207765893145E+00
  -1.673151428830266E+00  -1.694935353015272E+00  -1.716551366399445E+00
  -1.737991322618802E+00  -1.759247081424035E+00  -1.780310486676263E+00
  -1.801173342035789E+00  -1.821827384477478E+00  -1.842264255770447E+00
  -1.862475472062022E+00  -1.882452391706426E+00  -1.902186181477932E+00
  -1.921667781306397E+00  -1.940887867670540E+00  -1.959836815781272E+00
  -1.978504660684100E+00  -1.996881057406266E+00  -2.014955240271100E+00
  -2.032715981499223E+00  -2.050151549213789E+00  -2.067249664965181E+00
  -2.083997460889396E+00  -2.100381436614024E+00  -2.116387416026146E+00
  -2.132000504017837E+00  -2.147205043327217E+00  -2.161984571596165E+00
  -2.176321778770011E+00  -2.190198464969623E+00  -2.203595498972431E+00
  -2.216492777446006E+00  -2.228869185085878E+00  -2.240702555818276E+00
  -2.251969635238447E+00  -2.262646044466127E+00  -2.272706245611525E+00
  -2.282123509057946E+00  -2.290869882780788E+00  -2.298916163937091E+00
  -2.306231872975189E+00  -2.312785230530126E+00  -2.318543137387405E+00
  -2.323471157815361E+00  -2.327533506584816E+00  -2.330693040013760E+00
  -2.332911251394527E+00  -2.334148271183623E+00  -2.334362872353174E+00
  -2.333512481305211E+00  -2.331553194805343E+00  -2.328439803431896E+00
  -2.324125821963040E+00  -2.318563527252287E+00  -2.311704004106743E+00
  -2.303497199731110E+00  -2.293891987311157E+00  -2.282836239267302E+00
  -2.270276910843242E+00  -2.256160134773926E+00  -2.240431327469348E+00
  -2.223035307526857E+00  -2.203916427200790E+00  -2.183018717536346E+00
  -2.160286047843974E+00  -2.135662300486349E+00  -2.109101228225110E+00
  -2.080587554960847E+00  -2.050095681372690E+00  -2.017546043949511E+00
  -1.982889600359735E+00  -1.946069759000288E+00  -1.907033111678165E+00
  -1.865728290412572E+00  -1.822106412313770E+00  -1.776121438193696E+00
  -1.727730548721879E+00  -1.676894542826132E+00  -1.623578257971536E+00
  -1.567751012527150E+00  -1.509387070220409E+00  -1.448466126554772E+00
  -1.384973816902906E+00  -1.318902245810003E+00  -1.250250536842543E+00
  -1.179025402096587E+00  -1.105241730235145E+00  -1.028923191655066E+00
  -9.501028590890246E-01  -8.688238416264271E-01  -7.851399297873246E-01
  -6.991162489049518E-01  -6.108299176644084E-01  -5.203707082068846E-01
  -4.278417037403662E-01  -3.333599490989930E-01  -2.370570891645692E-01
  -1.390799895059311E-01  -3.959133300624992E-02   6.122981436330095E-02
   1.631874761003042E-01   2.660682841907027E-01   3.696410533957920E-01
   4.736564202949501E-01   5.778465572620216E-01   6.819249722418131E-01
   7.855864058728117E-01   8.885068381631060E-01   9.903436175584088E-01
   1.090735725831443E+00   1.189304192757074E+00   1.285652675001861E+00
   1.379368214032921E+00   1.470022188119916E+00   1.557171473644656E+00
   1.640359830922230E+00   1.719119529550810E+00   1.792973227917677E+00
   1.861436120867765E+00   1.924018368658028E+00   1.980227819144186E+00
   2.029573033642897E+00   2.071566625048037E+00   2.105728914519940E+00
   2.131591910376469E+00   2.148703609660659E+00   2.156632619208542E+00
   2.154973088862080E+00   2.143349944738520E+00   2.121424405155776E+00
   2.088899755906430E+00   2.045527355060193E+00   1.991112830354935E+00
   1.925522424518895E+00   1.848689435573247E+00   1.760620690331766E+00
   1.661402979996612E+00   1.551209377019815E+00   1.430305342354466E+00
   1.299054521978012E+00   1.157924121280023E+00   1.007489735745356E+00
   8.484395065400309E-01   6.815774603645437E-01   5.078258845567573E-01
   3.282265812197798E-01   1.439408384725163E-01  -4.375204683803406E-02
  -2.334578620376116E-01  -4.236723528246342E-01  -6.127880397768368E-01
  -7.991031296954751E-01  -9.808326615197553E-01  -1.156122008897638E+00
  -1.323062838486659E+00  -1.479711594187287E+00  -1.624110542332694E+00
  -1.754311370989545E+00  -1.868401287672371E+00  -1.964531503766476E+00
  -2.040947930769677E+00  -2.096023843265123E+00  -2.128294186712680E+00
  -2.136491125342258E+00  -2.119580337597538E+00  -2.076797475001116E+00
  -2.007684106658066E+00  -1.912122377961334E+00  -1.790367520925347E+00
  -1.643077267927999E+00  -1.471337143926430E+00  -1.276680548327776E+00
  -1.061102490975091E+00  -8.270658218681055E-01  -5.774987963057182E-01
  -3.157828513436799E-01  -4.572954110243314E-02   2.284543072821977E-01
   5.022139935507439E-01   7.707074630998341E-01   1.028879239182968E+00
   1.271547737366936E+00   1.493505547703005E+00   1.689631830557589E+00
   1.855015480385918E+00   1.985087174795480E+00   2.075757854191014E+00
   2.123560583924545E+00   2.125792153932695E+00   2.080650192181919E+00
   1.987361033851720E+00   1.846293128028733E+00   1.659050411285406E+00
   1.428539869266734E+00   1.159007481536967E+00   8.560369401170330E-01
   5.265059856923106E-01   1.784959511539375E-01  -1.788488324381023E-01
  -5.355137087306249E-01  -8.808586410670167E-01  -1.203913540247882E+00
  -1.493719697423717E+00  -1.739710401974170E+00  -1.932121004280806E+00
  -2.062415790004877E+00  -2.123716198138274E+00  -2.111212299561643E+00
  -2.022537240941632E+00  -1.858082755383811E+00  -1.621233063586725E+00
  -1.318494756389904E+00  -9.595017688022971E-01  -5.568775055600057E-01
  -1.259406899011527E-01   3.157523576348186E-01   7.490285744977386E-01
   1.153872529114501E+00   1.510334338031355E+00   1.799540041410625E+00
   2.004762059090256E+00   2.112496603708915E+00   2.113485588289385E+00
   2.003613595601083E+00   1.784606890179592E+00   1.464462248984947E+00
   1.057539457394854E+00   5.842633506631719E-01   7.039964310857645E-02
  -4.541065946597894E-01  -9.567106983976957E-01  -1.404212676980741E+00
  -1.764975207572786E+00  -2.011287778343986E+00  -2.121716105013954E+00
  -2.083249918058575E+00  -1.893047428256781E+00  -1.559575087168168E+00
    </PP_PSWFC.4>
  </PP_FULL_WFC>
  <PP_RHOATOM size="1095">
   1.101395591655214E-07   1.129277556052383E-07   1.157865355854052E-07
   1.187176859374464E-07   1.217230387266706E-07   1.248044723973714E-07
   1.279639129469199E-07   1.312033351295783E-07   1.345247636907873E-07
   1.379302746327025E-07   1.414219965117642E-07   1.450021117691189E-07
   1.486728580947189E-07   1.524365298259548E-07   1.562954793816954E-07
   1.602521187326284E-07   1.643089209088260E-07   1.684684215454723E-07
   1.727332204677227E-07   1.771059833156850E-07   1.815894432105339E-07
   1.861864024628073E-07   1.908997343239468E-07   1.957323847821785E-07
   2.006873744038593E-07   2.057678002214321E-07   2.109768376691821E-07
   2.163177425679910E-07   2.217938531603390E-07   2.274085921968240E-07
   2.331654690754979E-07   2.390680820353646E-07   2.451201204054049E-07
   2.513253669105367E-07   2.576877000359515E-07   2.642110964513028E-07
   2.708996334962664E-07   2.777574917290209E-07   2.847889575392450E-07
   2.919984258272643E-07   2.993904027510177E-07   3.069695085425687E-07
   3.147404803959158E-07   3.227081754279057E-07   3.308775737141104E-07
   3.392537814015484E-07   3.478420339002135E-07   3.566476991553952E-07
   3.656762810028371E-07   3.749334226088389E-07   3.844249099974341E-07
   3.941566756668723E-07   4.041348022976430E-07   4.143655265543789E-07
   4.248552429839992E-07   4.356105080125355E-07   4.466380440431439E-07
   4.579447436578548E-07   4.695376739256950E-07   4.814240808198710E-07
   4.936113937467710E-07   5.061072301896262E-07   5.189194004697248E-07
   5.320559126281575E-07   5.455249774311530E-07   5.593350135021139E-07
   5.734946525835823E-07   5.880127449324100E-07   6.028983648515123E-07
   6.181608163616597E-07   6.338096390168491E-07   6.498546138669022E-07
   6.663057695710034E-07   6.831733886660079E-07   7.004680139934369E-07
   7.182004552891679E-07   7.363817959399563E-07   7.550233999109938E-07
   7.741369188488477E-07   7.937342993642133E-07   8.138277904990277E-07
   8.344299513826273E-07   8.555536590817184E-07   8.772121166490755E-07
   8.994188613760059E-07   9.221877732537143E-07   9.455330836488841E-07
   9.694693841988864E-07   9.940116359321700E-07   1.019175178619553E-06
   1.044975740362230E-06   1.071429447422524E-06   1.098552834303498E-06
   1.126362854083752E-06   1.154876889013846E-06   1.184112761380969E-06
   1.214088744648682E-06   1.244823574878642E-06   1.276336462441500E-06
   1.308647104024269E-06   1.341775694941636E-06   1.375742941758997E-06
   1.410570075235012E-06   1.446278863591835E-06   1.482891626121294E-06
   1.520431247135502E-06   1.558921190270667E-06   1.598385513153001E-06
   1.638848882435917E-06   1.680336589217919E-06   1.722874564850779E-06
   1.766489397147959E-06   1.811208347003326E-06   1.857059365430621E-06
   1.904071111034292E-06   1.952272967922601E-06   2.001695064074256E-06
   2.052368290169991E-06   2.104324318900907E-06   2.157595624765632E-06
   2.212215504368643E-06   2.268218097232501E-06   2.325638407136968E-06
   2.384512323998331E-06   2.444876646302682E-06   2.506769104107063E-06
   2.570228382622984E-06   2.635294146396955E-06   2.702007064103188E-06
   2.770408833964015E-06   2.840542209813776E-06   2.912451027822646E-06
   2.986180233896974E-06   3.061775911773321E-06   3.139285311823777E-06
   3.218756880590476E-06   3.300240291067893E-06   3.383786473751778E-06
   3.469447648474136E-06   3.557277357044228E-06   3.647330496715863E-06
   3.739663354502076E-06   3.834333642358499E-06   3.931400533257492E-06
   4.030924698175604E-06   4.132968344017403E-06   4.237595252499491E-06
   4.344870820018941E-06   4.454862098531092E-06   4.567637837462324E-06
   4.683268526683892E-06   4.801826440573819E-06   4.923385683194303E-06
   5.048022234612963E-06   5.175813998396799E-06   5.306840850308617E-06
   5.441184688236346E-06   5.578929483386522E-06   5.720161332773828E-06
   5.864968513039651E-06   6.013441535633157E-06   6.165673203389553E-06
   6.321758668540774E-06   6.481795492194905E-06   6.645883705321683E-06
   6.814125871281803E-06   6.986627149939764E-06   7.163495363399644E-06
   7.344841063405465E-06   7.530777600448053E-06   7.721421194621474E-06
   7.916891008273807E-06   8.117309220497102E-06   8.322801103503554E-06
   8.533495100935597E-06   8.749522908158436E-06   8.971019554586119E-06
   9.198123488091627E-06   9.430976661554478E-06   9.669724621599844E-06
   9.914516599584274E-06   1.016550560488559E-05   1.042284852055470E-05
   1.068670620138950E-05   1.095724357449221E-05   1.123462974237260E-05
   1.151903808866251E-05   1.181064638650659E-05   1.210963690969814E-05
   1.241619654662899E-05   1.273051691712455E-05   1.305279449223797E-05
   1.338323071707713E-05   1.372203213674236E-05   1.406941052545318E-05
   1.442558301894458E-05   1.479077225021663E-05   1.516520648872104E-05
   1.554911978307289E-05   1.594275210737625E-05   1.634634951125510E-05
   1.676016427368415E-05   1.718445506071485E-05   1.761948708719609E-05
   1.806553228259041E-05   1.852286946098924E-05   1.899178449543449E-05
   1.947257049665419E-05   1.996552799632536E-05   2.047096513497809E-05
   2.098919785465825E-05   2.152055009647041E-05   2.206535400312318E-05
   2.262395012660511E-05   2.319668764112030E-05   2.378392456141699E-05
   2.438602796664683E-05   2.500337422989324E-05   2.563634925351418E-05
   2.628534871044605E-05   2.695077829161893E-05   2.763305395964022E-05
   2.833260220890287E-05   2.904986033228327E-05   2.978527669459485E-05
   3.053931101296794E-05   3.131243464433369E-05   3.210513088018916E-05
   3.291789524883069E-05   3.375123582524384E-05   3.460567354884313E-05
   3.548174254926307E-05   3.637999048040155E-05   3.730097886292717E-05
   3.824528343546454E-05   3.921349451467611E-05   4.020621736446923E-05
   4.122407257455625E-05   4.226769644860751E-05   4.333774140223990E-05
   4.443487637108881E-05   4.555978722922253E-05   4.671317721815752E-05
   4.789576738674666E-05   4.910829704221487E-05   5.035152421262445E-05
   5.162622612106176E-05   5.293319967184056E-05   5.427326194902873E-05
   5.564725072761020E-05   5.705602499760238E-05   5.850046550145904E-05
   5.998147528509435E-05   6.149998026287527E-05   6.305692979693563E-05
   6.465329729117619E-05   6.629008080032317E-05   6.796830365442754E-05
   6.968901509919746E-05   7.145329095256560E-05   7.326223427790319E-05
   7.511697607430492E-05   7.701867598437607E-05   7.896852301996904E-05
   8.096773630632295E-05   8.301756584507477E-05   8.511929329662232E-05
   8.727423278232859E-05   8.948373170707363E-05   9.174917160267095E-05
   9.407196899267652E-05   9.645357627913763E-05   9.889548265183576E-05
   1.013992150205984E-04   1.039663389712642E-04   1.065984597459041E-04
   1.092972232479145E-04   1.120643170726165E-04   1.149014715640075E-04
   1.178104608983342E-04   1.207931041951651E-04   1.238512666566659E-04
   1.269868607357941E-04   1.302018473341483E-04   1.334982370302283E-04
   1.368780913388796E-04   1.403435240027177E-04   1.438967023163432E-04
   1.475398484841876E-04   1.512752410128443E-04   1.551052161387610E-04
   1.590321692922014E-04   1.630585565983917E-04   1.671868964168084E-04
   1.714197709195751E-04   1.757598277099650E-04   1.802097814820368E-04
   1.847724157224473E-04   1.894505844555217E-04   1.942472140326847E-04
   1.991653049673807E-04   2.042079338166522E-04   2.093782551105593E-04
   2.146795033306693E-04   2.201149949388671E-04   2.256881304577701E-04
   2.314023966040734E-04   2.372613684761696E-04   2.432687117974388E-04
   2.494281852166301E-04   2.557436426667922E-04   2.622190357842575E-04
   2.688584163892131E-04   2.756659390294344E-04   2.826458635888064E-04
   2.898025579622813E-04   2.971405007989879E-04   3.046642843152282E-04
   3.123786171791623E-04   3.202883274690159E-04   3.283983657066988E-04
   3.367138079687704E-04   3.452398590767355E-04   3.539818558687139E-04
   3.629452705545695E-04   3.721357141566491E-04   3.815589400383250E-04
   3.912208475226099E-04   4.011274856031574E-04   4.112850567500225E-04
   4.216999208126357E-04   4.323785990224775E-04   4.433277780980420E-04
   4.545543144547154E-04   4.660652385222797E-04   4.778677591728297E-04
   4.899692682619296E-04   5.023773452859703E-04   5.150997621587008E-04
   5.281444881100345E-04   5.415196947102899E-04   5.552337610231090E-04
   5.692952788903962E-04   5.837130583526904E-04   5.984961332084937E-04
   6.136537667161559E-04   6.291954574420129E-04   6.451309452585923E-04
   6.614702174967764E-04   6.782235152559339E-04   6.954013398761359E-04
   7.130144595766636E-04   7.310739162651651E-04   7.495910325218981E-04
   7.685774187636352E-04   7.880449805919256E-04   8.080059263305256E-04
   8.284727747569657E-04   8.494583630333214E-04   8.709758548414122E-04
   8.930387487278060E-04   9.156608866641027E-04   9.388564628281962E-04
   9.626400326122949E-04   9.870265218636797E-04   1.012031236364338E-03
   1.037669871555750E-03   1.063958522515337E-03   1.090913694191174E-03
   1.118552311901846E-03   1.146891732108425E-03   1.175949753465804E-03
   1.205744628160798E-03   1.236295073544614E-03   1.267620284067536E-03
   1.299739943523872E-03   1.332674237615386E-03   1.366443866841784E-03
   1.401070059726932E-03   1.436574586389822E-03   1.472979772469502E-03
   1.510308513413451E-03   1.548584289139184E-03   1.587831179079112E-03
   1.628073877618962E-03   1.669337709940369E-03   1.711648648278593E-03
   1.755033328606497E-03   1.799519067756435E-03   1.845133880991836E-03
   1.891906500040737E-03   1.939866391603855E-03   1.989043776350037E-03
   2.039469648412507E-03   2.091175795399493E-03   2.144194818933381E-03
   2.198560155732881E-03   2.254306099253075E-03   2.311467821898762E-03
   2.370081397826884E-03   2.430183826354286E-03   2.491813055987582E-03
   2.555008009092365E-03   2.619808607219506E-03   2.686255797106886E-03
   2.754391577375300E-03   2.824259025938047E-03   2.895902328144066E-03
   2.969366805675316E-03   3.044698946219525E-03   3.121946433940187E-03
   3.201158180766364E-03   3.282384358525375E-03   3.365676431942436E-03
   3.451087192531781E-03   3.538670793404729E-03   3.628482785020886E-03
   3.720580151909431E-03   3.815021350388403E-03   3.911866347310671E-03
   4.011176659866196E-03   4.113015396471135E-03   4.217447298775273E-03
   4.324538784820347E-03   4.434357993382713E-03   4.546974829535045E-03
   4.662461011462745E-03   4.780890118571827E-03   4.902337640926538E-03
   5.026881030055735E-03   5.154599751168762E-03   5.285575336822603E-03
   5.419891442083472E-03   5.557633901227668E-03   5.698890786027646E-03
   5.843752465670965E-03   5.992311668361501E-03   6.144663544653377E-03
   6.300905732570614E-03   6.461138424566476E-03   6.625464436378733E-03
   6.793989277838893E-03   6.966821225695242E-03   7.144071398511837E-03
   7.325853833707464E-03   7.512285566800867E-03   7.703486712930952E-03
   7.899580550722532E-03   8.100693608571474E-03   8.306955753424720E-03
   8.518500282133943E-03   8.735464015464116E-03   8.957987394840963E-03
   9.186214581924366E-03   9.420293561098119E-03   9.660376244968823E-03
   9.906618582971038E-03   1.015918067317815E-02   1.041822687742304E-02
   1.068392593983553E-02   1.095645110890756E-02   1.123598026320168E-02
   1.152269604082132E-02   1.181678597276712E-02   1.211844262030676E-02
   1.242786371649103E-02   1.274525231195373E-02   1.307081692513752E-02
   1.340477169709361E-02   1.374733655100819E-02   1.409873735661421E-02
   1.445920609965303E-02   1.482898105655621E-02   1.520830697452463E-02
   1.559743525718795E-02   1.599662415603444E-02   1.640613896780866E-02
   1.682625223808088E-02   1.725724397120103E-02   1.769940184685634E-02
   1.815302144346136E-02   1.861840646861667E-02   1.909586899688176E-02
   1.958572971511693E-02   2.008831817565805E-02   2.060397305759843E-02
   2.113304243646196E-02   2.167588406256219E-02   2.223286564835391E-02
   2.280436516509385E-02   2.339077114914041E-02   2.399248301823366E-02
   2.460991139810973E-02   2.524347845981786E-02   2.589361826812076E-02
   2.656077714137397E-02   2.724541402329496E-02   2.794800086704624E-02
   2.866902303207529E-02   2.940897969416797E-02   3.016838426919004E-02
   3.094776485100939E-02   3.174766466410829E-02   3.256864253141555E-02
   3.341127335790597E-02   3.427614863053560E-02   3.516387693510203E-02
   3.607508449063845E-02   3.701041570197568E-02   3.797053373112486E-02
   3.895612108816010E-02   3.996788024230303E-02   4.100653425393487E-02
   4.207282742829052E-02   4.316752599161111E-02   4.429141879056099E-02
   4.544531801574324E-02   4.663005995017212E-02   4.784650574359580E-02
   4.909554221358696E-02   5.037808267435272E-02   5.169506779424435E-02
   5.304746648297991E-02   5.443627680962464E-02   5.586252695240800E-02
   5.732727618148656E-02   5.883161587580013E-02   6.037667057519809E-02
   6.196359906905169E-02   6.359359552260020E-02   6.526789064231493E-02
   6.698775288160090E-02   6.875448968818984E-02   7.056944879461537E-02
   7.243401955319453E-02   7.434963431697610E-02   7.631776986814887E-02
   7.833994889543744E-02   8.041774152204596E-02   8.255276688574263E-02
   8.474669477270556E-02   8.700124730678363E-02   8.931820069584795E-02
   9.169938703694064E-02   9.414669618194509E-02   9.666207766552465E-02
   9.924754269709284E-02   1.019051662185897E-01   1.046370890298523E-01
   1.074455199833664E-01   1.103327382501923E-01   1.133010956588451E-01
   1.163530191089031E-01   1.194910130610959E-01   1.227176621055989E-01
   1.260356336102230E-01   1.294476804501476E-01   1.329566438207856E-01
   1.365654561353096E-01   1.402771440082840E-01   1.440948313267616E-01
   1.480217424100955E-01   1.520612052595936E-01   1.562166548990088E-01
   1.604916368066984E-01   1.648898104401063E-01   1.694149528530291E-01
   1.740709624058936E-01   1.788618625690401E-01   1.837918058187141E-01
   1.888650776251750E-01   1.940861005319902E-01   1.994594383252078E-01
   2.049898002907015E-01   2.106820455575263E-01   2.165411875246405E-01
   2.225723983678130E-01   2.287810136229501E-01   2.351725368414547E-01
   2.417526443125267E-01   2.485271898465848E-01   2.555022096131724E-01
   2.626839270258413E-01   2.700787576655713E-01   2.776933142332637E-01
   2.855344115207563E-01   2.936090713886433E-01   3.019245277379072E-01
   3.104882314610474E-01   3.193078553569238E-01   3.283912989920044E-01
   3.377466934890592E-01   3.473824062225802E-01   3.573070453983596E-01
   3.675294644926513E-01   3.780587665242567E-01   3.889043081306368E-01
   4.000757034167868E-01   4.115828275431364E-01   4.234358200160990E-01
   4.356450876421189E-01   4.482213071031865E-01   4.611754271087075E-01
   4.745186700754540E-01   4.882625332839672E-01   5.024187894563151E-01
   5.169994866964972E-01   5.320169477310175E-01   5.474837683832960E-01
   5.634128152115518E-01   5.798172222356887E-01   5.967103866744794E-01
   6.141059636100197E-01   6.320178594920559E-01   6.504602243902948E-01
   6.694474428983553E-01   6.889941235885069E-01   7.091150869118361E-01
   7.298253514341049E-01   7.511401182931634E-01   7.730747537596132E-01
   7.956447697783493E-01   8.188658023648310E-01   8.427535877264124E-01
   8.673239359759005E-01   8.925927023017857E-01   9.185757554573851E-01
   9.452889434294720E-01   9.727480561461024E-01   1.000968785083137E+00
   1.029966679629784E+00   1.059757100075265E+00   1.090355167081632E+00
   1.121775707512109E+00   1.154033196489932E+00   1.187141695570037E+00
   1.221114786915036E+00   1.255965503377895E+00   1.291706254406990E+00
   1.328348747704628E+00   1.365903906588203E+00   1.404381783023880E+00
   1.443791466326356E+00   1.484140987545190E+00   1.525437219588207E+00
   1.567685773166344E+00   1.610890888681823E+00   1.655055324222799E+00
   1.700180239873479E+00   1.746265078598225E+00   1.793307444012636E+00
   1.841302975413300E+00   1.890245220501027E+00   1.940125506300617E+00
   1.990932808852246E+00   2.042653622326664E+00   2.095271828297521E+00
   2.148768565988927E+00   2.203122104405539E+00   2.258307717343808E+00
   2.314297562377769E+00   2.371060565008840E+00   2.428562309265957E+00
   2.486764936139623E+00   2.545627051328465E+00   2.605103643869676E+00
   2.665146017312609E+00   2.725701735175867E+00   2.786714582501397E+00
   2.848124545380097E+00   2.909867810371457E+00   2.971876785770609E+00
   3.034080146686569E+00   3.096402905883017E+00   3.158766512292121E+00
   3.221088979040232E+00   3.283285042716510E+00   3.345266355466968E+00
   3.406941711303793E+00   3.468217307776120E+00   3.528997043851256E+00
   3.589182854498315E+00   3.648675082045170E+00   3.707372883891277E+00
   3.765174675597719E+00   3.821978607740547E+00   3.877683074200547E+00
   3.932187248771020E+00   3.985391646095937E+00   4.037198702004230E+00
   4.087513367287174E+00   4.136243707879735E+00   4.183301503262292E+00
   4.228602833708226E+00   4.272068645779905E+00   4.313625284239968E+00
   4.353204977319349E+00   4.390746261095592E+00   4.426194327618000E+00
   4.459501280406815E+00   4.490626280096533E+00   4.519535562336404E+00
   4.546202309659495E+00   4.570606358945451E+00   4.592733726396004E+00
   4.612575932686952E+00   4.630129112228964E+00   4.645392892338270E+00
   4.658369030665138E+00   4.669059802528465E+00   4.677466133933179E+00
   4.683585481069826E+00   4.687409463070733E+00   4.688921261768718E+00
   4.688092810198296E+00   4.684881800599098E+00   4.679228552700890E+00
   4.671052794028686E+00   4.660250415763418E+00   4.646719069118229E+00
   4.630454626084443E+00   4.611486211839412E+00   4.589850535643227E+00
   4.565591852096623E+00   4.538761919456865E+00   4.509419969452395E+00
   4.477632705636931E+00   4.443474349866364E+00   4.407021544171898E+00
   4.368336436094726E+00   4.327479810743960E+00   4.284515788963539E+00
   4.239511649240018E+00   4.192537641904527E+00   4.143666796385097E+00
   4.092974722285814E+00   4.040539405085366E+00   3.986440997259349E+00
   3.930761605638301E+00   3.873585075816698E+00   3.814996774427419E+00
   3.755083370091268E+00   3.693932613842306E+00   3.631633119817133E+00
   3.568274146979985E+00   3.503945382635707E+00   3.438736728459728E+00
   3.372738089748005E+00   3.306039168561085E+00   3.238729261404909E+00
   3.170897062057183E+00   3.102630470112279E+00   3.034016405779850E+00
   2.965140631433164E+00   2.896087580362549E+00   2.826940193156866E+00
   2.757779762041897E+00   2.688685783582133E+00   2.619735819961162E+00
   2.551005369124403E+00   2.482567743923838E+00   2.414493960530164E+00
   2.346852636118422E+00   2.279709895954285E+00   2.213129289903862E+00
   2.147171718361746E+00   2.081895367554329E+00   2.017355654139550E+00
   1.953605178990033E+00   1.890693690014150E+00   1.828668053839273E+00
   1.767572236153287E+00   1.707447290474451E+00   1.648331355095971E+00
   1.590259657930460E+00   1.533264528960716E+00   1.477375419987084E+00
   1.422618931348091E+00   1.369018845280106E+00   1.316596165573392E+00
   1.265369163176125E+00   1.215353427394624E+00   1.166561922337042E+00
   1.119005048248978E+00   1.072690707392691E+00   1.027624374126502E+00
   9.838091688473940E-01   9.412459354673353E-01   8.999333221021313E-01
   8.598678646603379E-01   8.210440730284706E-01   7.834545195571113E-01
   7.470899295601798E-01   7.119392735462903E-01   6.779898609064897E-01
   6.452274347866499E-01   6.136362678751899E-01   5.831992588377476E-01
   5.538980291299248E-01   5.257130199175715E-01   4.986235888315386E-01
   4.726081062807950E-01   4.476440510447713E-01   4.237081048631903E-01
   4.007762457400298E-01   3.788238396781893E-01   3.578257305632161E-01
   3.377563279186033E-01   3.185896922620899E-01   3.002996178021273E-01
   2.828597122264523E-01   2.662434733505357E-01   2.504243624124231E-01
   2.353758738219596E-01   2.210716011962943E-01   2.074852995395197E-01
   1.945909434518859E-01   1.823627812827697E-01   1.707753851709750E-01
   1.598036969454986E-01   1.494230698891403E-01   1.396093063957887E-01
   1.303386915794828E-01   1.215880229190287E-01   1.133346360457520E-01
   1.055564268035892E-01   9.823186972998385E-02   9.134003312277579E-02
   8.486059087236307E-02   7.877383124981958E-02   7.306066285035250E-02
   6.770261789752086E-02   6.268185311707732E-02   5.798114839024456E-02
   5.358390339482980E-02   4.947413243898213E-02   4.563645768679088E-02
   4.205610096752255E-02   3.871887435132480E-02   3.561116966393523E-02
   3.271994710157093E-02   3.003272309501013E-02   2.753755755916838E-02
   2.522304065148427E-02   2.307827914941267E-02   2.109288254451567E-02
   1.925694893825996E-02   1.756105081286473E-02   1.599622073956150E-02
   1.455393707655301E-02   1.322610969989160E-02   1.200506580249650E-02
   1.088353578962196E-02   9.854639293267641E-03   8.911871323255329E-03
   8.049088568921073E-03   7.260495862508818E-03   6.540632813304815E-03
   5.884360620214081E-03   5.286849069738299E-03   4.743563726054650E-03
   4.250253320005273E-03   3.802937344181722E-03   3.397893861830367E-03
   3.031647537926371E-03   2.700957901390590E-03   2.402807847992527E-03
   2.134392393943338E-03   1.893107690497674E-03   1.676540310025436E-03
   1.482456813968402E-03   1.308793612855546E-03   1.153647128116442E-03
   1.015264264812721E-03   8.920332036172389E-04   7.824745194274938E-04
   6.852326329253162E-04   5.990676002122911E-04   5.228472443841545E-04
   4.555396315822715E-04   3.962058927005162E-04   3.439933905546692E-04
   2.981292309606357E-04   2.579141148373362E-04   2.227165271679242E-04
   1.919672574347267E-04   1.651542450023119E-04   1.418177418703534E-04
   1.215457842621650E-04   1.039699636623226E-04   8.876148717197667E-05
   7.562751641556885E-05   6.430777370816463E-05   5.457140377729748E-05
   4.621407902443030E-05   3.905533610492256E-05   3.293613149672530E-05
   2.771660371097907E-05   2.327402986562100E-05   1.950096448884028E-05
   1.630354863519718E-05   1.359997767565990E-05   1.131911645589677E-05
   9.399250896839851E-06   7.786965530967007E-06   6.436136917513926E-06
   5.307033356001274E-06   4.365511810328010E-06   3.582303460347588E-06
   2.932379808821212E-06   2.394391783167065E-06   1.950174778803929E-06
   1.584313090605730E-06   1.283757665975178E-06   1.037491586508087E-06
   8.362381403917018E-07   6.722067835353104E-07   5.388727023411954E-07
   4.307860830235770E-07   3.434075936403660E-07   2.729665402719467E-07
   2.163413211414931E-07   1.709492153563363E-07   1.346713616946853E-07
   1.057671110569227E-07   8.280661599885732E-08   6.462202932447355E-08
   5.026345101359586E-08   3.896059657772089E-08   3.009075222221696E-08
   2.315206994924763E-08   1.774138370666959E-08   1.353584073073399E-08
   1.027774180096773E-08   7.762071501465809E-09   5.826275975005368E-09
   4.341912228866703E-09   3.207850776168131E-09   2.344762530624535E-09
   1.690674096097420E-09   1.197347142280553E-09   8.287413968336218E-10
   5.505141453497447E-10   0.000000000000000E+00   0.000000000000000E+00
   0.000000000000000E+00   0.000000000000000E+00   0.000000000000000E+00
   0.000000000000000E+00   0.000000000000000E+00   0.000000000000000E+00
   0.000000000000000E+00   0.000000000000000E+00   0.000000000000000E+00
   0.000000000000000E+00   0.000000000000000E+00   0.000000000000000E+00
   0.000000000000000E+00   0.000000000000000E+00   0.000000000000000E+00
   0.000000000000000E+00   0.000000000000000E+00   0.000000000000000E+00
   0.000000000000000E+00   0.000000000000000E+00   0.000000000000000E+00
   0.000000000000000E+00   0.000000000000000E+00   0.000000000000000E+00
   0.000000000000000E+00   0.000000000000000E+00   0.000000000000000E+00
   0.000000000000000E+00   0.000000000000000E+00   0.000000000000000E+00
   0.000000000000000E+00   0.000000000000000E+00   0.000000000000000E+00
   0.000000000000000E+00   0.000000000000000E+00   0.000000000000000E+00
   0.000000000000000E+00   0.000000000000000E+00   0.000000000000000E+00
   0.000000000000000E+00   0.000000000000000E+00   0.000000000000000E+00
   0.000000000000000E+00   0.000000000000000E+00   0.000000000000000E+00
   0.000000000000000E+00   0.000000000000000E+00   0.000000000000000E+00
   0.000000000000000E+00   0.000000000000000E+00   0.000000000000000E+00
   0.000000000000000E+00   0.000000000000000E+00   0.000000000000000E+00
   0.000000000000000E+00   0.000000000000000E+00   0.000000000000000E+00
   0.000000000000000E+00   0.000000000000000E+00   0.000000000000000E+00
   0.000000000000000E+00   0.000000000000000E+00   0.000000000000000E+00
   0.000000000000000E+00   0.000000000000000E+00   0.000000000000000E+00
   0.000000000000000E+00   0.000000000000000E+00   0.000000000000000E+00
   0.000000000000000E+00   0.000000000000000E+00   0.000000000000000E+00
   0.000000000000000E+00   0.000000000000000E+00   0.000000000000000E+00
   0.000000000000000E+00   0.000000000000000E+00   0.000000000000000E+00
   0.000000000000000E+00   0.000000000000000E+00   0.000000000000000E+00
   0.000000000000000E+00   0.000000000000000E+00   0.000000000000000E+00
   0.000000000000000E+00   0.000000000000000E+00   0.000000000000000E+00
   0.000000000000000E+00   0.000000000000000E+00   0.000000000000000E+00
   0.000000000000000E+00   0.000000000000000E+00   0.000000000000000E+00
   0.000000000000000E+00   0.000000000000000E+00   0.000000000000000E+00
   0.000000000000000E+00   0.000000000000000E+00   0.000000000000000E+00
   0.000000000000000E+00   0.000000000000000E+00   0.000000000000000E+00
   0.000000000000000E+00   0.000000000000000E+00   0.000000000000000E+00
   0.000000000000000E+00   0.000000000000000E+00   0.000000000000000E+00
   0.000000000000000E+00   0.000000000000000E+00   0.000000000000000E+00
   0.000000000000000E+00   0.000000000000000E+00   0.000000000000000E+00
   0.000000000000000E+00   0.000000000000000E+00   0.000000000000000E+00
   0.000000000000000E+00   0.000000000000000E+00   0.000000000000000E+00
   0.000000000000000E+00   0.000000000000000E+00   0.000000000000000E+00
   0.000000000000000E+00   0.000000000000000E+00   0.000000000000000E+00
   0.000000000000000E+00   0.000000000000000E+00   0.000000000000000E+00
   0.000000000000000E+00   0.000000000000000E+00   0.000000000000000E+00
   0.000000000000000E+00   0.000000000000000E+00   0.000000000000000E+00
   0.000000000000000E+00   0.000000000000000E+00   0.000000000000000E+00
   0.000000000000000E+00   0.000000000000000E+00   0.000000000000000E+00
   0.000000000000000E+00   0.000000000000000E+00   0.000000000000000E+00
   0.000000000000000E+00   0.000000000000000E+00   0.000000000000000E+00
   0.000000000000000E+00   0.000000000000000E+00   0.000000000000000E+00
  </PP_RHOATOM>
  <PP_PAW paw_data_format="2" core_energy="-108.86229765689035">
    <PP_OCCUPATIONS size="4">
   2.000000000000000E+00   0.000000000000000E+00   4.000000000000000E+00
   0.000000000000000E+00
    </PP_OCCUPATIONS>
    <PP_AE_NLCC size="1095">
   3.014536606733682E+02   3.014408077342108E+02   3.014279553430582E+02
   3.014151034998869E+02   3.014021625833043E+02   3.013889464854068E+02
   3.013755061360334E+02   3.013618339551165E+02   3.013479318947403E+02
   3.013338018352968E+02   3.013194455004519E+02   3.013048645594004E+02
   3.012900607037458E+02   3.012750354879287E+02   3.012597903423526E+02
   3.012443265902160E+02   3.012286454508954E+02   3.012127482611145E+02
   3.011966363164881E+02   3.011803106550165E+02   3.011637722540193E+02
   3.011470220755352E+02   3.011300609930146E+02   3.011128898054833E+02
   3.010955092159996E+02   3.010779198722526E+02   3.010601223861877E+02
   3.010421172910177E+02   3.010239050525774E+02   3.010054860776869E+02
   3.009868607166399E+02   3.009680292568734E+02   3.009489919107083E+02
   3.009297488374637E+02   3.009103001470932E+02   3.008906458903419E+02
   3.008707860611413E+02   3.008507205825757E+02   3.008304493266008E+02
   3.008099721177824E+02   3.007892887233285E+02   3.007683988564264E+02
   3.007473021736674E+02   3.007259982798350E+02   3.007044867282613E+02
   3.006827670196624E+02   3.006608386016627E+02   3.006387008717944E+02
   3.006163531759734E+02   3.005937948063762E+02   3.005710250063999E+02
   3.005480429717246E+02   3.005248478466559E+02   3.005014387245262E+02
   3.004778146505388E+02   3.004539746222027E+02   3.004299175875363E+02
   3.004056424465096E+02   3.003811480508750E+02   3.003564332044443E+02
   3.003314966632724E+02   3.003063371357362E+02   3.002809532831724E+02
   3.002553437218936E+02   3.002295070204615E+02   3.002034416947879E+02
   3.001771462179991E+02   3.001506190199465E+02   3.001238584765553E+02
   3.000968629171047E+02   3.000696306254248E+02   3.000421598384848E+02
   3.000144487509349E+02   2.999864955067874E+02   2.999582982011004E+02
   2.999298548899341E+02   2.999011635796773E+02   2.998722222268685E+02
   2.998430287434213E+02   2.998135809934769E+02   2.997838767942652E+02
   2.997539139158324E+02   2.997236900809526E+02   2.996932029649980E+02
   2.996624501957962E+02   2.996314293534878E+02   2.996001379703637E+02
   2.995685735306949E+02   2.995367334705495E+02   2.995046151775987E+02
   2.994722159909142E+02   2.994395332007552E+02   2.994065640483443E+02
   2.993733057256279E+02   2.993397553750228E+02   2.993059100890375E+02
   2.992717669107539E+02   2.992373228363730E+02   2.992025748109592E+02
   2.991675197220106E+02   2.991321544104040E+02   2.990964756634305E+02
   2.990604802083444E+02   2.990241647266064E+02   2.989875258514100E+02
   2.989505601599864E+02   2.989132641808475E+02   2.988756343886368E+02
   2.988376671978955E+02   2.987993589724629E+02   2.987607060200397E+02
   2.987217045932770E+02   2.986823508890811E+02   2.986426410481909E+02
   2.986025711547343E+02   2.985621372357745E+02   2.985213352608382E+02
   2.984801611414414E+02   2.984386107306026E+02   2.983966798223472E+02
   2.983543641512030E+02   2.983116593916852E+02   2.982685611577728E+02
   2.982250650023748E+02   2.981811664167852E+02   2.981368608301347E+02
   2.980921436088250E+02   2.980470100559593E+02   2.980014554107613E+02
   2.979554748479825E+02   2.979090634773063E+02   2.978622163427361E+02
   2.978149284219771E+02   2.977671946258091E+02   2.977190097974459E+02
   2.976703687118924E+02   2.976212660752848E+02   2.975716965242255E+02
   2.975216546251082E+02   2.974711348734303E+02   2.974201316931016E+02
   2.973686394357375E+02   2.973166523799465E+02   2.972641647306070E+02
   2.972111706181325E+02   2.971576640977321E+02   2.971036391486564E+02
   2.970490896734361E+02   2.969940094971121E+02   2.969383923664518E+02
   2.968822319491645E+02   2.968255218331043E+02   2.967682555253606E+02
   2.967104264519585E+02   2.966520279595190E+02   2.965930533126818E+02
   2.965334956858209E+02   2.964733481640723E+02   2.964126037461183E+02
   2.963512553518042E+02   2.962892958197220E+02   2.962267178924744E+02
   2.961635142226701E+02   2.960996773744883E+02   2.960351998201642E+02
   2.959700739400027E+02   2.959042920212575E+02   2.958378462571906E+02
   2.957707287461042E+02   2.957029314903625E+02   2.956344463954112E+02
   2.955652652687739E+02   2.954953798190513E+02   2.954247816549037E+02
   2.953534622840224E+02   2.952814131121009E+02   2.952086254417801E+02
   2.951350904716003E+02   2.950607992949328E+02   2.949857428989034E+02
   2.949099121633122E+02   2.948332978595321E+02   2.947558906494103E+02
   2.946776810841507E+02   2.945986596031889E+02   2.945188165330634E+02
   2.944381420862652E+02   2.943566263600894E+02   2.942742593354714E+02
   2.941910308758116E+02   2.941069307257997E+02   2.940219485102151E+02
   2.939360737327326E+02   2.938492957747092E+02   2.937616038939623E+02
   2.936729872235465E+02   2.935834347705080E+02   2.934929354146431E+02
   2.934014779072388E+02   2.933090508698054E+02   2.932156427928081E+02
   2.931212420343753E+02   2.930258368190128E+02   2.929294152363006E+02
   2.928319652395807E+02   2.927334746446456E+02   2.926339311284044E+02
   2.925333222275534E+02   2.924316353372315E+02   2.923288577096672E+02
   2.922249764528258E+02   2.921199785290354E+02   2.920138507536188E+02
   2.919065797935094E+02   2.917981521658609E+02   2.916885542366569E+02
   2.915777722193005E+02   2.914657921732110E+02   2.913526000024048E+02
   2.912381814540718E+02   2.911225221171513E+02   2.910056074208907E+02
   2.908874226334111E+02   2.907679528602581E+02   2.906471830429498E+02
   2.905250979575260E+02   2.904016822130800E+02   2.902769202502982E+02
   2.901507963399901E+02   2.900232945816112E+02   2.898943989017926E+02
   2.897640930528528E+02   2.896323606113207E+02   2.894991849764475E+02
   2.893645493687159E+02   2.892284368283567E+02   2.890908302138489E+02
   2.889517122004332E+02   2.888110652786172E+02   2.886688717526777E+02
   2.885251137391744E+02   2.883797731654485E+02   2.882328317681365E+02
   2.880842710916774E+02   2.879340724868230E+02   2.877822171091535E+02
   2.876286859175921E+02   2.874734596729274E+02   2.873165189363368E+02
   2.871578440679135E+02   2.869974152252043E+02   2.868352123617458E+02
   2.866712152256139E+02   2.865054033579752E+02   2.863377560916491E+02
   2.861682525496774E+02   2.859968716439027E+02   2.858235920735582E+02
   2.856483923238659E+02   2.854712506646473E+02   2.852921451489473E+02
   2.851110536116681E+02   2.849279536682214E+02   2.847428227131911E+02
   2.845556379190118E+02   2.843663762346683E+02   2.841750143844062E+02
   2.839815288664665E+02   2.837858959518346E+02   2.835880916830128E+02
   2.833880918728144E+02   2.831858721031770E+02   2.829814077240031E+02
   2.827746738520235E+02   2.825656453696852E+02   2.823542969240699E+02
   2.821406029258362E+02   2.819245375481956E+02   2.817060747259165E+02
   2.814851881543592E+02   2.812618512885485E+02   2.810360373422764E+02
   2.808077192872437E+02   2.805768698522381E+02   2.803434615223513E+02
   2.801074665382382E+02   2.798688568954144E+02   2.796276043436029E+02
   2.793836803861210E+02   2.791370562793160E+02   2.788877030320522E+02
   2.786355914052425E+02   2.783806919114389E+02   2.781229748144715E+02
   2.778624101291459E+02   2.775989676209994E+02   2.773326168061131E+02
   2.770633269509909E+02   2.767910670724976E+02   2.765158059378649E+02
   2.762375120647663E+02   2.759561537214599E+02   2.756716989270052E+02
   2.753841154515542E+02   2.750933708167178E+02   2.747994322960151E+02
   2.745022669153997E+02   2.742018414538748E+02   2.738981224441914E+02
   2.735910761736369E+02   2.732806686849174E+02   2.729668657771304E+02
   2.726496330068388E+02   2.723289356892432E+02   2.720047388994553E+02
   2.716770074738810E+02   2.713457060117069E+02   2.710107988765039E+02
   2.706722501979417E+02   2.703300238736205E+02   2.699840835710274E+02
   2.696343927296128E+02   2.692809145629965E+02   2.689236120613039E+02
   2.685624479936358E+02   2.681973849106739E+02   2.678283851474333E+02
   2.674554108261516E+02   2.670784238593309E+02   2.666973859529314E+02
   2.663122586097163E+02   2.659230031327624E+02   2.655295806291281E+02
   2.651319520136909E+02   2.647300780131554E+02   2.643239191702342E+02
   2.639134358480125E+02   2.634985882344895E+02   2.630793363473117E+02
   2.626556400386953E+02   2.622274590005433E+02   2.617947527697661E+02
   2.613574807338028E+02   2.609156021363527E+02   2.604690760833205E+02
   2.600178615489758E+02   2.595619173823414E+02   2.591012023138024E+02
   2.586356749619487E+02   2.581652938406558E+02   2.576900173664016E+02
   2.572098038658361E+02   2.567246115835952E+02   2.562343986903725E+02
   2.557391232912529E+02   2.552387434343072E+02   2.547332171194623E+02
   2.542225023076422E+02   2.537065569301916E+02   2.531853388985836E+02
   2.526588061144164E+02   2.521269164797100E+02   2.515896279074973E+02
   2.510468983327249E+02   2.504986857234627E+02   2.499449480924281E+02
   2.493856435088343E+02   2.488207301105610E+02   2.482501661166577E+02
   2.476739098401822E+02   2.470919197013796E+02   2.465041542412096E+02
   2.459105721352212E+02   2.453111322077865E+02   2.447057934466929E+02
   2.440945150181010E+02   2.434772562818755E+02   2.428539768072880E+02
   2.422246363891012E+02   2.415891950640371E+02   2.409476131276328E+02
   2.402998511514930E+02   2.396458700009360E+02   2.389856308530444E+02
   2.383190952151194E+02   2.376462249435473E+02   2.369669822630764E+02
   2.362813297865160E+02   2.355892305348518E+02   2.348906479577877E+02
   2.341855459547152E+02   2.334738888961113E+02   2.327556416453739E+02
   2.320307695810888E+02   2.312992386197374E+02   2.305610152388449E+02
   2.298160665005689E+02   2.290643600757365E+02   2.283058642683230E+02
   2.275405480403789E+02   2.267683810374047E+02   2.259893336141728E+02
   2.252033768609998E+02   2.244104826304654E+02   2.236106235645789E+02
   2.228037731223941E+02   2.219899056080673E+02   2.211689961993632E+02
   2.203410209765994E+02   2.195059569520315E+02   2.186637820996762E+02
   2.178144753855638E+02   2.169580167984252E+02   2.160943873807999E+02
   2.152235692605649E+02   2.143455456828789E+02   2.134603010425331E+02
   2.125678209167070E+02   2.116680920981152E+02   2.107611026285441E+02
   2.098468418327646E+02   2.089253003528141E+02   2.079964701826406E+02
   2.070603447030921E+02   2.061169187172454E+02   2.051661884860604E+02
   2.042081517643456E+02   2.032428078370260E+02   2.022701575556924E+02
   2.012902033754225E+02   2.003029493918558E+02   1.993084013785021E+02
   1.983065668242741E+02   1.972974549712153E+02   1.962810768524118E+02
   1.952574453300622E+02   1.942265751336853E+02   1.931884828984466E+02
   1.921431872035736E+02   1.910907086108406E+02   1.900310697030945E+02
   1.889642951227958E+02   1.878904116105483E+02   1.868094480435853E+02
   1.857214354741849E+02   1.846264071679833E+02   1.835243986421509E+02
   1.824154477034027E+02   1.812995944858034E+02   1.801768814883334E+02
   1.790473536121809E+02   1.779110581977158E+02   1.767680450611144E+02
   1.756183665305877E+02   1.744620774821719E+02   1.732992353750434E+02
   1.721299002863065E+02   1.709541349452161E+02   1.697720047667814E+02
   1.685835778847081E+02   1.673889251836280E+02   1.661881203305635E+02
   1.649812398055820E+02   1.637683629315799E+02   1.625495719031471E+02
   1.613249518144570E+02   1.600945906861228E+02   1.588585794909696E+02
   1.576170121786552E+02   1.563699856990887E+02   1.551176000245831E+02
   1.538599581706791E+02   1.525971662155853E+02   1.513293333181630E+02
   1.500565717343982E+02   1.487789968322964E+02   1.474967271051306E+02
   1.462098841829846E+02   1.449185928425176E+02   1.436229810148891E+02
   1.423231797917754E+02   1.410193234294089E+02   1.397115493505769E+02
   1.383999981445071E+02   1.370848135645761E+02   1.357661425237714E+02
   1.344441350878389E+02   1.331189444660520E+02   1.317907269995301E+02
   1.304596421470449E+02   1.291258524682461E+02   1.277895236042410E+02
   1.264508242554675E+02   1.251099261567918E+02   1.237670040497731E+02
   1.224222356520320E+02   1.210758016236637E+02   1.197278855306408E+02
   1.183786738051437E+02   1.170283557027710E+02   1.156771232565727E+02
   1.143251712278590E+02   1.129726970537372E+02   1.116199007913296E+02
   1.102669850586326E+02   1.089141549719761E+02   1.075616180800483E+02
   1.062095842944526E+02   1.048582658167666E+02   1.035078770620788E+02
   1.021586345789800E+02   1.008107569659929E+02   9.946446478442603E+01
   9.811998046764258E+01   9.677752822674033E+01   9.543733395264350E+01
   9.409962511461056E+01   9.276463065517193E+01   9.143258088150964E+01
   9.010370735330437E+01   8.877824276707480E+01   8.745642083704418E+01
   8.613847617257380E+01   8.482464415220790E+01   8.351516079438323E+01
   8.221026262486220E+01   8.091018654095390E+01   7.961516967259789E+01
   7.832544924038658E+01   7.704126241061573E+01   7.576284614745470E+01
   7.449043706233779E+01   7.322427126068580E+01   7.196458418607158E+01
   7.071161046195395E+01   6.946558373111021E+01   6.822673649290445E+01
   6.699529993853905E+01   6.577150378444024E+01   6.455557610393947E+01
   6.334774315741851E+01   6.214822922109239E+01   6.095725641461508E+01
   5.977504452769450E+01   5.860181084591605E+01   5.743776997597701E+01
   5.628313367054182E+01   5.513811065293661E+01   5.400290644190397E+01
   5.287772317664811E+01   5.176275944240549E+01   5.065821009678015E+01
   4.956426609709097E+01   4.848111432897937E+01   4.740893743653344E+01
   4.634791365418724E+01   4.529821664065724E+01   4.426001531518313E+01
   4.323347369634020E+01   4.221875074369503E+01   4.121600020257753E+01
   4.022537045224276E+01   3.924700435769849E+01   3.828103912547257E+01
   3.732760616359545E+01   3.638683094607178E+01   3.545883288211246E+01
   3.454372519039882E+01   3.364161477864386E+01   3.275260212871607E+01
   3.187678118758410E+01   3.101423926433734E+01   3.016505693353151E+01
   2.932930794510146E+01   2.850705914107744E+01   2.769837037933283E+01
   2.690329446458273E+01   2.612187708684502E+01   2.535415676756347E+01
   2.460016481358434E+01   2.385992527916543E+01   2.313345493618473E+01
   2.242076325270440E+01   2.172185238003077E+01   2.103671714839934E+01
   2.036534507139803E+01   1.970771635922715E+01   1.906380394087988E+01
   1.843357349530952E+01   1.781698349163468E+01   1.721398523841538E+01
   1.662452294201640E+01   1.604853377405595E+01   1.548594794791923E+01
   1.493668880429853E+01   1.440067290570230E+01   1.387781013985648E+01
   1.336800383190264E+01   1.287115086527743E+01   1.238714181113891E+01
   1.191586106618575E+01   1.145718699869556E+01   1.101099210258973E+01
   1.057714315931212E+01   1.015550140729070E+01   9.745922718731624E+00
   9.348257783477088E+00   8.962352299639859E+00   8.588047170709237E+00
   8.225178708806146E+00   7.873578843747606E+00   7.533075337564432E+00
   7.203492004100183E+00   6.884648933303554E+00   6.576362719812082E+00
   6.278446695410618E+00   5.990711164934704E+00   5.712963645176435E+00
   5.445009106338166E+00   5.186650215568787E+00   4.937687582002618E+00
   4.697920003347773E+00   4.467144712445333E+00   4.245157624405239E+00
   4.031753583248257E+00   3.826726607656441E+00   3.629870135316030E+00
   3.440977265333901E+00   3.259840998207325E+00   3.086254472827108E+00
   2.920011199995958E+00   2.760905291947751E+00   2.608731687359289E+00
   2.463286371354364E+00   2.324366590011266E+00   2.191771058899230E+00
   2.065300165187528E+00   1.944756162893640E+00   1.829943360864403E+00
   1.720668303117370E+00   1.616739941208859E+00   1.517969798340857E+00
   1.424172124971173E+00   1.335164045749012E+00   1.250765697661168E+00
   1.170800359339502E+00   1.095094571546285E+00   1.023478248916669E+00
   9.557847830927034E-01   8.918511374272161E-01   8.315179334638662E-01
   7.746295294089713E-01   7.210340907994768E-01   6.705836535392830E-01
   6.231341794258490E-01   5.785456042240360E-01   5.366818782707480E-01
   4.974109995190031E-01   4.606050388609013E-01   4.261401575136480E-01
   3.938966162181303E-01   3.637587759922683E-01   3.356150902065250E-01
   3.093580878092929E-01   2.848843476255157E-01   2.620944637782324E-01
   2.408930024312272E-01   2.211884502087604E-01   2.028931548001223E-01
   1.859232583874616E-01   1.701986246323095E-01   1.556427600121368E-01
   1.421827303117006E-01   1.297490730492297E-01   1.182757065634576E-01
   1.076998364148579E-01   9.796185967403358E-02   8.900526759113370E-02
   8.077654706881636E-02   7.322508130135626E-02   6.630304989506007E-02
   5.996532874958482E-02   5.416938995422891E-02   4.887520193547033E-02
   4.404513007968771E-02   3.964383804600958E-02   3.563818997696835E-02
   3.199715380785171E-02   2.869170586849779E-02   2.569473696329974E-02
   2.298096010609363E-02   2.052682007635914E-02   1.831040495181961E-02
   1.631135976021690E-02   1.451080237995132E-02   1.289124180559833E-02
   1.143649888025113E-02   1.013162958237595E-02   8.962850940575990E-03
   7.917469635503962E-03   6.983813334269830E-03   6.151164789184907E-03
   5.409698719663141E-03   4.750421483646794E-03   4.165113533109814E-03
   3.646274637067539E-03   3.187071845131347E-03   2.781290155022421E-03
   2.423285838619494E-03   2.107942373077050E-03   1.830628916315289E-03
   1.587161259750777E-03   1.373765185498600E-03   1.187042150418065E-03
   1.023937215277090E-03   8.817091339501787E-04   7.579025149147141E-04
   6.503219653385690E-04   5.570081267241288E-04   4.762155103532884E-04
   4.063920406250313E-04   3.461602147512879E-04   2.942997881355525E-04
   2.497318960589591E-04   2.115045239970039E-04   1.787792409429855E-04
   1.508191124786007E-04   1.269777129655098E-04   1.066891590926732E-04
   8.945909006308802E-05   7.485652290180746E-05   6.250651467856359E-05
   5.208356682867229E-05   4.330571019320798E-05   3.592921285422019E-05
   2.974385628594975E-05   2.456872875417404E-05   2.024848825109974E-05
   1.665005053334618E-05   1.365966101882113E-05   1.118031238042616E-05
   9.129472638716513E-06   7.437091392329169E-06   6.043854526794544E-06
   4.899660303911885E-06   3.962292151702600E-06   3.196265747292612E-06
   2.571830111691515E-06   2.064104417491975E-06   1.652334050387962E-06
   1.319251166532001E-06   1.050526554445048E-06   8.343010475206493E-07
   6.607860467866982E-07   5.219239096230155E-07   4.111000450332203E-07
   3.228995365074963E-07   2.529019962757622E-07   1.975091466485064E-07
   1.538003319278580E-07   1.194117946683890E-07   9.243610931364846E-08
   7.133866063321157E-08   5.488848986468143E-08   4.210121365040711E-08
   3.219205504901626E-08   2.453731705729977E-08   1.864288181175391E-08
   1.411853721602536E-08   1.065712108062248E-08   8.017634547261471E-09
   6.011614858791182E-09   4.492175371293682E-09   3.345220736141034E-09
   2.482429776478386E-09   1.835669854937308E-09   1.352566346858155E-09
   9.930008441000051E-10   7.263533646928702E-10   5.293383957511749E-10
   3.843131484146165E-10   2.779599030449225E-10   2.002635873174768E-10
   1.437214590252474E-10   1.027345561148834E-10   7.314093518901243E-11
   5.185907429592955E-11   3.661652603516443E-11   2.574427389327240E-11
   1.802151904847648E-11   1.255901452647741E-11   8.711740072567894E-12
   6.013815274325841E-12   4.130195433512306E-12   2.820978069245105E-12
   1.915143519172916E-12   1.291321941198489E-12   8.637700067491496E-13
   5.721929881051328E-13   3.743911495698807E-13   2.409779785960145E-13
   1.515788330678326E-13   9.240353966784819E-14   5.286291648312854E-14
   0.000000000000000E+00   0.000000000000000E+00   0.000000000000000E+00
   0.000000000000000E+00   0.000000000000000E+00   0.000000000000000E+00
   0.000000000000000E+00   0.000000000000000E+00   0.000000000000000E+00
   0.000000000000000E+00   0.000000000000000E+00   0.000000000000000E+00
   0.000000000000000E+00   0.000000000000000E+00   0.000000000000000E+00
   0.000000000000000E+00   0.000000000000000E+00   0.000000000000000E+00
   0.000000000000000E+00   0.000000000000000E+00   0.000000000000000E+00
   0.000000000000000E+00   0.000000000000000E+00   0.000000000000000E+00
   0.000000000000000E+00   0.000000000000000E+00   0.000000000000000E+00
   0.000000000000000E+00   0.000000000000000E+00   0.000000000000000E+00
   0.000000000000000E+00   0.000000000000000E+00   0.000000000000000E+00
   0.000000000000000E+00   0.000000000000000E+00   0.000000000000000E+00
   0.000000000000000E+00   0.000000000000000E+00   0.000000000000000E+00
   0.000000000000000E+00   0.000000000000000E+00   0.000000000000000E+00
   0.000000000000000E+00   0.000000000000000E+00   0.000000000000000E+00
   0.000000000000000E+00   0.000000000000000E+00   0.000000000000000E+00
   0.000000000000000E+00   0.000000000000000E+00   0.000000000000000E+00
   0.000000000000000E+00   0.000000000000000E+00   0.000000000000000E+00
   0.000000000000000E+00   0.000000000000000E+00   0.000000000000000E+00
   0.000000000000000E+00   0.000000000000000E+00   0.000000000000000E+00
   0.000000000000000E+00   0.000000000000000E+00   0.000000000000000E+00
   0.000000000000000E+00   0.000000000000000E+00   0.000000000000000E+00
   0.000000000000000E+00   0.000000000000000E+00   0.000000000000000E+00
   0.000000000000000E+00   0.000000000000000E+00   0.000000000000000E+00
   0.000000000000000E+00   0.000000000000000E+00   0.000000000000000E+00
   0.000000000000000E+00   0.000000000000000E+00   0.000000000000000E+00
   0.000000000000000E+00   0.000000000000000E+00   0.000000000000000E+00
   0.000000000000000E+00   0.000000000000000E+00   0.000000000000000E+00
   0.000000000000000E+00   0.000000000000000E+00   0.000000000000000E+00
   0.000000000000000E+00   0.000000000000000E+00   0.000000000000000E+00
   0.000000000000000E+00   0.000000000000000E+00   0.000000000000000E+00
   0.000000000000000E+00   0.000000000000000E+00   0.000000000000000E+00
   0.000000000000000E+00   0.000000000000000E+00   0.000000000000000E+00
   0.000000000000000E+00   0.000000000000000E+00   0.000000000000000E+00
   0.000000000000000E+00   0.000000000000000E+00   0.000000000000000E+00
   0.000000000000000E+00   0.000000000000000E+00   0.000000000000000E+00
   0.000000000000000E+00   0.000000000000000E+00   0.000000000000000E+00
   0.000000000000000E+00   0.000000000000000E+00   0.000000000000000E+00
   0.000000000000000E+00   0.000000000000000E+00   0.000000000000000E+00
   0.000000000000000E+00   0.000000000000000E+00   0.000000000000000E+00
   0.000000000000000E+00   0.000000000000000E+00   0.000000000000000E+00
   0.000000000000000E+00   0.000000000000000E+00   0.000000000000000E+00
   0.000000000000000E+00   0.000000000000000E+00   0.000000000000000E+00
   0.000000000000000E+00   0.000000000000000E+00   0.000000000000000E+00
   0.000000000000000E+00   0.000000000000000E+00   0.000000000000000E+00
   0.000000000000000E+00   0.000000000000000E+00   0.000000000000000E+00
   0.000000000000000E+00   0.000000000000000E+00   0.000000000000000E+00
   0.000000000000000E+00   0.000000000000000E+00   0.000000000000000E+00
   0.000000000000000E+00   0.000000000000000E+00   0.000000000000000E+00
   0.000000000000000E+00   0.000000000000000E+00   0.000000000000000E+00
   0.000000000000000E+00   0.000000000000000E+00   0.000000000000000E+00
   0.000000000000000E+00   0.000000000000000E+00   0.000000000000000E+00
   0.000000000000000E+00   0.000000000000000E+00   0.000000000000000E+00
   0.000000000000000E+00   0.000000000000000E+00   0.000000000000000E+00
   0.000000000000000E+00   0.000000000000000E+00   0.000000000000000E+00
   0.000000000000000E+00   0.000000000000000E+00   0.000000000000000E+00
   0.000000000000000E+00   0.000000000000000E+00   0.000000000000000E+00
   0.000000000000000E+00   0.000000000000000E+00   0.000000000000000E+00
   0.000000000000000E+00   0.000000000000000E+00   0.000000000000000E+00
   0.000000000000000E+00   0.000000000000000E+00   0.000000000000000E+00
   0.000000000000000E+00   0.000000000000000E+00   0.000000000000000E+00
   0.000000000000000E+00   0.000000000000000E+00   0.000000000000000E+00
   0.000000000000000E+00   0.000000000000000E+00   0.000000000000000E+00
   0.000000000000000E+00   0.000000000000000E+00   0.000000000000000E+00
   0.000000000000000E+00   0.000000000000000E+00   0.000000000000000E+00
   0.000000000000000E+00   0.000000000000000E+00   0.000000000000000E+00
   0.000000000000000E+00   0.000000000000000E+00   0.000000000000000E+00
   0.000000000000000E+00   0.000000000000000E+00   0.000000000000000E+00
   0.000000000000000E+00   0.000000000000000E+00   0.000000000000000E+00
   0.000000000000000E+00   0.000000000000000E+00   0.000000000000000E+00
   0.000000000000000E+00   0.000000000000000E+00   0.000000000000000E+00
   0.000000000000000E+00   0.000000000000000E+00   0.000000000000000E+00
   0.000000000000000E+00   0.000000000000000E+00   0.000000000000000E+00
   0.000000000000000E+00   0.000000000000000E+00   0.000000000000000E+00
   0.000000000000000E+00   0.000000000000000E+00   0.000000000000000E+00
   0.000000000000000E+00   0.000000000000000E+00   0.000000000000000E+00
   0.000000000000000E+00   0.000000000000000E+00   0.000000000000000E+00
   0.000000000000000E+00   0.000000000000000E+00   0.000000000000000E+00
   0.000000000000000E+00   0.000000000000000E+00   0.000000000000000E+00
   0.000000000000000E+00   0.000000000000000E+00   0.000000000000000E+00
   0.000000000000000E+00   0.000000000000000E+00   0.000000000000000E+00
   0.000000000000000E+00   0.000000000000000E+00   0.000000000000000E+00
   0.000000000000000E+00   0.000000000000000E+00   0.000000000000000E+00
   0.000000000000000E+00   0.000000000000000E+00   0.000000000000000E+00
   0.000000000000000E+00   0.000000000000000E+00   0.000000000000000E+00
   0.000000000000000E+00   0.000000000000000E+00   0.000000000000000E+00
   0.000000000000000E+00   0.000000000000000E+00   0.000000000000000E+00
   0.000000000000000E+00   0.000000000000000E+00   0.000000000000000E+00
   0.000000000000000E+00   0.000000000000000E+00   0.000000000000000E+00
   0.000000000000000E+00   0.000000000000000E+00   0.000000000000000E+00
   0.000000000000000E+00   0.000000000000000E+00   0.000000000000000E+00
   0.000000000000000E+00   0.000000000000000E+00   0.000000000000000E+00
   0.000000000000000E+00   0.000000000000000E+00   0.000000000000000E+00
   0.000000000000000E+00   0.000000000000000E+00   0.000000000000000E+00
   0.000000000000000E+00   0.000000000000000E+00   0.000000000000000E+00
   0.000000000000000E+00   0.000000000000000E+00   0.000000000000000E+00
   0.000000000000000E+00   0.000000000000000E+00   0.000000000000000E+00
    </PP_AE_NLCC>
    <PP_AE_VLOC size="1095">
  -1.403385660040079E+05  -1.385948737319649E+05  -1.368728419532133E+05
  -1.351722015967848E+05  -1.334926869341639E+05  -1.318340355377681E+05
  -1.301959882399426E+05  -1.285782890924661E+05  -1.269806853265459E+05
  -1.254029273133594E+05  -1.238447685250093E+05  -1.223059654959990E+05
  -1.207862777852334E+05  -1.192854679384147E+05  -1.178033014509537E+05
  -1.163395467313328E+05  -1.148939750648844E+05  -1.134663605780825E+05
  -1.120564802032788E+05  -1.106641136437939E+05  -1.092890433395142E+05
  -1.079310544329195E+05  -1.065899347354695E+05  -1.052654746944905E+05
  -1.039574673604084E+05  -1.026657083544121E+05  -1.013899958365291E+05
  -1.001301304740849E+05  -9.888591541055469E+04  -9.765715623480373E+04
  -9.644366095070718E+04  -9.524523994716803E+04  -9.406170596845701E+04
  -9.289287408498817E+04  -9.173856166440120E+04  -9.059858834302738E+04
  -8.947277599772424E+04  -8.836094871801829E+04  -8.726293277863637E+04
  -8.617855661235344E+04  -8.510765078318876E+04  -8.405004795992741E+04
  -8.300558288998026E+04  -8.197409237355171E+04  -8.095541523815104E+04
  -7.994939231340616E+04  -7.895586640618667E+04  -7.797468227604913E+04
  -7.700568661097887E+04  -7.604872800343255E+04  -7.510365692667926E+04
  -7.417032571144147E+04  -7.324858852282025E+04  -7.233830133750470E+04
  -7.143932192127021E+04  -7.055150980675455E+04  -6.967472627151095E+04
  -6.880883431632705E+04  -6.795369864382570E+04  -6.710918563731619E+04
  -6.627516333992701E+04  -6.545150143397742E+04  -6.463807122061901E+04
  -6.383474559972741E+04  -6.304139905003989E+04  -6.225790760954458E+04
  -6.148414885611406E+04  -6.072000188836750E+04  -5.996534730678763E+04
  -5.922006719506044E+04  -5.848404510165568E+04  -5.775716602162202E+04
  -5.703931637862911E+04  -5.633038400720644E+04  -5.563025813523374E+04
  -5.493882936662005E+04  -5.425598966421019E+04  -5.358163233291985E+04
  -5.291565200304017E+04  -5.225794461379298E+04  -5.160840739705987E+04
  -5.096693886133203E+04  -5.033343877585000E+04  -4.970780815493257E+04
  -4.908994924252864E+04  -4.847976549692284E+04  -4.787716157566936E+04
  -4.728204332067839E+04  -4.669431774351370E+04  -4.611389301086235E+04
  -4.554067843017563E+04  -4.497458443551687E+04  -4.441552257354496E+04
  -4.386340548971322E+04  -4.331814691460135E+04  -4.277966165044897E+04
  -4.224786555784397E+04  -4.172267554256406E+04  -4.120400954260673E+04
  -4.069178651534978E+04  -4.018592642491159E+04  -3.968635022962438E+04
  -3.919297986969530E+04  -3.870573825499697E+04  -3.822454925304695E+04
  -3.774933767707982E+04  -3.728002927432764E+04  -3.681655071440171E+04
  -3.635882957783106E+04  -3.590679434476541E+04  -3.546037438377667E+04
  -3.501949994084369E+04  -3.458410212844338E+04  -3.415411291478093E+04
  -3.372946511317235E+04  -3.331009237153635E+04  -3.289592916203140E+04
  -3.248691077081763E+04  -3.208297328794490E+04  -3.168405359736051E+04
  -3.129008936705644E+04  -3.090101903932517E+04  -3.051678182113702E+04
  -3.013731767465001E+04  -2.976256730782495E+04  -2.939247216515498E+04
  -2.902697441852795E+04  -2.866601695818396E+04  -2.830954338378396E+04
  -2.795749799561565E+04  -2.760982578587376E+04  -2.726647243007245E+04
  -2.692738427856019E+04  -2.659250834812515E+04  -2.626179231372795E+04
  -2.593518450031970E+04  -2.561263387476984E+04  -2.529409003789377E+04
  -2.497950321657529E+04  -2.466882425598809E+04  -2.436200461191882E+04
  -2.405899634318110E+04  -2.375975210412011E+04  -2.346422513722329E+04
  -2.317236926580741E+04  -2.288413888680316E+04  -2.259948896363748E+04
  -2.231837501918582E+04  -2.204075312882968E+04  -2.176657991359276E+04
  -2.149581253335854E+04  -2.122840868018196E+04  -2.096432657167494E+04
  -2.070352494447766E+04  -2.044596304781362E+04  -2.019160063712387E+04
  -1.994039796777186E+04  -1.969231578883937E+04  -1.944731533698364E+04
  -1.920535833040168E+04  -1.896640696283217E+04  -1.873042389763821E+04
  -1.849737226200007E+04  -1.826721564114139E+04  -1.803991807262732E+04
  -1.781544404076177E+04  -1.759375847103338E+04  -1.737482672463078E+04
  -1.715861459303486E+04  -1.694508829267389E+04  -1.673421445964254E+04
  -1.652596014448521E+04  -1.632029280705557E+04  -1.611718031143021E+04
  -1.591659092087946E+04  -1.571849329291410E+04  -1.552285647439548E+04
  -1.532964989668910E+04  -1.513884337088572E+04  -1.495040708309278E+04
  -1.476431158977397E+04  -1.458052781314816E+04  -1.439902703664137E+04
  -1.421978090040306E+04  -1.404276139688150E+04  -1.386794086643691E+04
  -1.369529199302007E+04  -1.352478779991425E+04  -1.335640164551398E+04
  -1.319010721915846E+04  -1.302587853702438E+04  -1.286368993806989E+04
  -1.270351608001642E+04  -1.254533193539183E+04  -1.238911278762764E+04
  -1.223483422718752E+04  -1.208247214775496E+04  -1.193200274246941E+04
  -1.178340250020494E+04  -1.163664820189737E+04  -1.149171691691408E+04
  -1.134858599947336E+04  -1.120723308510727E+04  -1.106763608716308E+04
  -1.092977319335324E+04  -1.079362286235068E+04  -1.065916382041954E+04
  -1.052637505808971E+04  -1.039523582688051E+04  -1.026572563605441E+04
  -1.013782424941117E+04  -1.001151168213304E+04  -9.886768197660678E+03
  -9.763574304605643E+03  -9.641910753708504E+03  -9.521758534829511E+03
  -9.403098873978628E+03  -9.285913230382406E+03  -9.170183293584376E+03
  -9.055890980588701E+03  -8.943018433032821E+03  -8.831548014392449E+03
  -8.721462307233325E+03  -8.612744110487069E+03  -8.505376436758888E+03
  -8.399342509679280E+03  -8.294625761281437E+03  -8.191209829410774E+03
  -8.089078555167985E+03  -7.988215980386558E+03  -7.888606345138870E+03
  -7.790234085271353E+03  -7.693083829975329E+03  -7.597140399383796E+03
  -7.502388802199576E+03  -7.408814233353930E+03  -7.316402071692920E+03
  -7.225137877692414E+03  -7.135007391201074E+03  -7.045996529214880E+03
  -6.958091383674394E+03  -6.871278219291071E+03  -6.785543471404480E+03
  -6.700873743859975E+03  -6.617255806914888E+03  -6.534676595174487E+03
  -6.453123205549127E+03  -6.372582895236268E+03  -6.293043079731644E+03
  -6.214491330863041E+03  -6.136915374847051E+03  -6.060303090372253E+03
  -5.984642506705229E+03  -5.909921801819483E+03  -5.836129300548675E+03
  -5.763253472763281E+03  -5.691282931567683E+03  -5.620206431521275E+03
  -5.550012866882544E+03  -5.480691269872314E+03  -5.412230808960946E+03
  -5.344620787175672E+03  -5.277850640429088E+03  -5.211909935869244E+03
  -5.146788370248964E+03  -5.082475768316046E+03  -5.018962081223252E+03
  -4.956237384958304E+03  -4.894291878794305E+03  -4.833115883757590E+03
  -4.772699841114480E+03  -4.713034310878925E+03  -4.654109970338255E+03
  -4.595917612595503E+03  -4.538448145130270E+03  -4.481692588379502E+03
  -4.425642074334321E+03  -4.370287845153281E+03  -4.315621251795016E+03
  -4.261633752667079E+03  -4.208316912290589E+03  -4.155662399982533E+03
  -4.103661988554836E+03  -4.052307553028314E+03  -4.001591069362879E+03
  -3.951504613204679E+03  -3.902040358647694E+03  -3.853190577010825E+03
  -3.804947635630618E+03  -3.757303996668751E+03  -3.710252215934211E+03
  -3.663784941720262E+03  -3.617894913655928E+03  -3.572574961571797E+03
  -3.527818004379392E+03  -3.483617048964989E+03  -3.439965189097441E+03
  -3.396855604348843E+03  -3.354281559029009E+03  -3.312236401133113E+03
  -3.270713561302516E+03  -3.229706551798497E+03  -3.189208965488438E+03
  -3.149214474845044E+03  -3.109716830957851E+03  -3.070709862556755E+03
  -3.032187475048018E+03  -2.994143649562269E+03  -2.956572442013968E+03
  -2.919467982172859E+03  -2.882824472746968E+03  -2.846636188477059E+03
  -2.810897475241983E+03  -2.775602749175269E+03  -2.740746495793309E+03
  -2.706323269133704E+03  -2.672327690904131E+03  -2.638754449642536E+03
  -2.605598299887540E+03  -2.572854061358631E+03  -2.540516618147034E+03
  -2.508580917916881E+03  -2.477041971115683E+03  -2.445894850194798E+03
  -2.415134688840004E+03  -2.384756681211330E+03  -2.354756081192130E+03
  -2.325128201647884E+03  -2.295868413694061E+03  -2.266972145973095E+03
  -2.238434883940228E+03  -2.210252169158449E+03  -2.182419598602189E+03
  -2.154932823969322E+03  -2.127787551002285E+03  -2.100979538817286E+03
  -2.074504599241711E+03  -2.048358596160243E+03  -2.022537444868873E+03
  -1.997037111436710E+03  -1.971853612076039E+03  -1.946983012520311E+03
  -1.922421427409607E+03  -1.898165019683687E+03  -1.874209999982847E+03
  -1.850552626056310E+03  -1.827189202177568E+03  -1.804116078567285E+03
  -1.781329650823442E+03  -1.758826359358346E+03  -1.736602688842813E+03
  -1.714655167657236E+03  -1.692980367349511E+03  -1.671574902099633E+03
  -1.650435428190978E+03  -1.629558643488238E+03  -1.608941286921858E+03
  -1.588580137978764E+03  -1.568472016199531E+03  -1.548613780681873E+03
  -1.529002329590164E+03  -1.509634599671219E+03  -1.490507565776010E+03
  -1.471618240387316E+03  -1.452963673153399E+03  -1.434540950427367E+03
  -1.416347194812285E+03  -1.398379564712005E+03  -1.380635253887610E+03
  -1.363111491019249E+03  -1.345805539273593E+03  -1.328714695876642E+03
  -1.311836291691737E+03  -1.295167690803017E+03  -1.278706290103958E+03
  -1.262449518891038E+03  -1.246394838462534E+03  -1.230539741722186E+03
  -1.214881752787992E+03  -1.199418426605812E+03  -1.184147348567634E+03
  -1.169066134134803E+03  -1.154172428465931E+03  -1.139463906049275E+03
  -1.124938270339888E+03  -1.110593253401230E+03  -1.096426615551213E+03
  -1.082436145012720E+03  -1.068619657568408E+03  -1.054974996219893E+03
  -1.041500030851180E+03  -1.028192657896242E+03  -1.015050800010754E+03
  -1.002072405747963E+03  -9.892554492385869E+02  -9.765979298746703E+02
  -9.640978719974212E+02  -9.517533245889472E+02  -9.395623609677992E+02
  -9.275230784883194E+02  -9.156335982437810E+02  -9.038920647732214E+02
  -8.922966457718572E+02  -8.808455318051739E+02  -8.695369360266188E+02
  -8.583690938987206E+02  -8.473402629177300E+02  -8.364487223417149E+02
  -8.256927729220110E+02  -8.150707366380213E+02  -8.045809564353216E+02
  -7.942217959670506E+02  -7.839916393384991E+02  -7.738888908548677E+02
  -7.639119747721826E+02  -7.540593350513044E+02  -7.443294351150095E+02
  -7.347207576080713E+02  -7.252318041603307E+02  -7.158610951527154E+02
  -7.066071694861688E+02  -6.974685843534312E+02  -6.884439150136750E+02
  -6.795317545699249E+02  -6.707307137492132E+02  -6.620394206855125E+02
  -6.534565207053171E+02  -6.449806761158824E+02  -6.366105659961009E+02
  -6.283448859899335E+02  -6.201823481024120E+02  -6.121216804981701E+02
  -6.041616273024366E+02  -5.963009484044919E+02  -5.885384192635266E+02
  -5.808728307169046E+02  -5.733029887907862E+02  -5.658277145130626E+02
  -5.584458437285844E+02  -5.511562269166459E+02  -5.439577290107211E+02
  -5.368492292203799E+02  -5.298296208553842E+02  -5.228978111519289E+02
  -5.160527211009922E+02  -5.092932852787624E+02  -5.026184516791247E+02
  -4.960271815481866E+02  -4.895184492207852E+02  -4.830912419589609E+02
  -4.767445597923811E+02  -4.704774153606938E+02  -4.642888337577520E+02
  -4.581778523776878E+02  -4.521435207628499E+02  -4.461849004535378E+02
  -4.403010648395059E+02  -4.344910990132410E+02  -4.287540996249633E+02
  -4.230891747393345E+02  -4.174954436938477E+02  -4.119720369588675E+02
  -4.065180959993123E+02  -4.011327731379349E+02  -3.958152314201780E+02
  -3.905646444806193E+02  -3.853801964109217E+02  -3.802610816292983E+02
  -3.752065047514834E+02  -3.702156804631608E+02  -3.652878333938345E+02
  -3.604221979921236E+02  -3.556180184024452E+02  -3.508745483430881E+02
  -3.461910509856493E+02  -3.415667988357778E+02  -3.370010736152516E+02
  -3.324931661453473E+02  -3.280423762314683E+02  -3.236480125490348E+02
  -3.193093925306066E+02  -3.150258422542048E+02  -3.107966963328416E+02
  -3.066212978052097E+02  -3.024989980275251E+02  -2.984291565665184E+02
  -2.944111410935271E+02  -2.904443272796927E+02  -2.865280986922395E+02
  -2.826618466918152E+02  -2.788449703308729E+02  -2.750768762530835E+02
  -2.713569785937677E+02  -2.676846988813139E+02  -2.640594659395829E+02
  -2.604807157912732E+02  -2.569478915622335E+02  -2.534604433867182E+02
  -2.500178283135563E+02  -2.466195102132242E+02  -2.432649596858168E+02
  -2.399536539698967E+02  -2.366850768522039E+02  -2.334587185782216E+02
  -2.302740757635896E+02  -2.271306513063407E+02  -2.240279542999540E+02
  -2.209654999472248E+02  -2.179428094749250E+02  -2.149594100492529E+02
  -2.120148346920655E+02  -2.091086221978764E+02  -2.062403170516146E+02
  -2.034094693471405E+02  -2.006156347065075E+02  -1.978583741999628E+02
  -1.951372542666781E+02  -1.924518466362138E+02  -1.898017282507028E+02
  -1.871864811877518E+02  -1.846056925840589E+02  -1.820589545597379E+02
  -1.795458641433538E+02  -1.770660231976633E+02  -1.746190383460553E+02
  -1.722045208996990E+02  -1.698220867853913E+02  -1.674713564741052E+02
  -1.651519549102445E+02  -1.628635114415999E+02  -1.606056597500113E+02
  -1.583780377827401E+02  -1.561802876845524E+02  -1.540120557305171E+02
  -1.518729922595251E+02  -1.497627516085306E+02  -1.476809920475251E+02
  -1.456273757152480E+02  -1.436015685556350E+02  -1.416032402550239E+02
  -1.396320641801127E+02  -1.376877173166847E+02  -1.357698802091108E+02
  -1.338782369006337E+02  -1.320124748744468E+02  -1.301722849955770E+02
  -1.283573614535829E+02  -1.265674017060813E+02  -1.248021064231041E+02
  -1.230611794323130E+02  -1.213443276650728E+02  -1.196512611033966E+02
  -1.179816927277815E+02  -1.163353384659431E+02  -1.147119171424632E+02
  -1.131111504293650E+02  -1.115327627976283E+02  -1.099764814696600E+02
  -1.084420363727300E+02  -1.069291600933921E+02  -1.054375878328975E+02
  -1.039670573636173E+02  -1.025173089864892E+02  -1.010880854894971E+02
  -9.967913210720030E+01  -9.829019648132477E+01  -9.692102862242500E+01
  -9.557138087263337E+01  -9.424100786950495E+01  -9.292966651096904E+01
  -9.163711592139970E+01  -9.036311741881205E+01  -8.910743448319514E+01
  -8.786983272598704E+01  -8.665007986070326E+01  -8.544794567472070E+01
  -8.426320200222439E+01  -8.309562269832067E+01  -8.194498361432034E+01
  -8.081106257419347E+01  -7.969363935219663E+01  -7.859249565166996E+01
  -7.750741508500650E+01  -7.643818315478653E+01  -7.538458723607346E+01
  -7.434641655986449E+01  -7.332346219768905E+01  -7.231551704734514E+01
  -7.132237581976143E+01  -7.034383502697389E+01  -6.937969297120125E+01
  -6.842974973500250E+01  -6.749380717250128E+01  -6.657166890165271E+01
  -6.566314029753468E+01  -6.476802848663846E+01  -6.388614234213261E+01
  -6.301729248007530E+01  -6.216129125654326E+01  -6.131795276564762E+01
  -6.048709283840391E+01  -5.966852904242224E+01  -5.886208068237990E+01
  -5.806756880124027E+01  -5.728481618217585E+01  -5.651364735115699E+01
  -5.575388858016138E+01  -5.500536789096115E+01  -5.426791505944053E+01
  -5.354136162039840E+01  -5.282554087278666E+01  -5.212028788533446E+01
  -5.142543950250893E+01  -5.074083435075982E+01  -5.006631284499661E+01
  -4.940171719524480E+01  -4.874689141342732E+01  -4.810168132021859E+01
  -4.746593455192056E+01  -4.683950056728256E+01  -4.622223065424893E+01
  -4.561397793658545E+01  -4.501459738025343E+01  -4.442394579955283E+01
  -4.384188186298350E+01  -4.326826609872931E+01  -4.270296089974157E+01
  -4.214583052836750E+01  -4.159674112047530E+01  -4.105556068902943E+01
  -4.052215912707240E+01  -3.999640821006852E+01  -3.947818159757004E+01
  -3.896735483416634E+01  -3.846380534967932E+01  -3.796741245857105E+01
  -3.747805735853129E+01  -3.699562312821586E+01  -3.651999472410871E+01
  -3.605105897648296E+01  -3.558870458443980E+01  -3.513282211000588E+01
  -3.468330397127330E+01  -3.424004443456721E+01  -3.380293960563310E+01
  -3.337188741983333E+01  -3.294678763134930E+01  -3.252754180138903E+01
  -3.211405328539922E+01  -3.170622721928847E+01  -3.130397050467028E+01
  -3.090719179313603E+01  -3.051580146957424E+01  -3.012971163455283E+01
  -2.974883608578666E+01  -2.937309029871444E+01  -2.900239140621125E+01
  -2.863665817746777E+01  -2.827581099606866E+01  -2.791977183730760E+01
  -2.756846424478076E+01  -2.722181330630331E+01  -2.687974562920192E+01
  -2.654218931503986E+01  -2.620907393383552E+01  -2.588033049783812E+01
  -2.555589143492288E+01  -2.523569056166677E+01  -2.491966305615775E+01
  -2.460774543058748E+01  -2.429987550367107E+01  -2.399599237293310E+01
  -2.369603638690164E+01  -2.339994911724928E+01  -2.310767333092393E+01
  -2.281915296231388E+01  -2.253433308549108E+01  -2.225315988657806E+01
  -2.197558063628118E+01  -2.170154366263280E+01  -2.143099832398101E+01
  -2.116389498226368E+01  -2.090018497660328E+01  -2.063982059725344E+01
  -2.038275505992949E+01  -2.012894248055169E+01  -1.987833785042769E+01
  -1.963089701190028E+01  -1.938657663448280E+01  -1.914533419150409E+01
  -1.890712793728152E+01  -1.867191688483897E+01  -1.843966078418472E+01
  -1.821032010116137E+01  -1.798385599687838E+01  -1.776023030773509E+01
  -1.753940552603970E+01  -1.732134478122937E+01  -1.710601182169166E+01
  -1.689337099718817E+01  -1.668338724187810E+01  -1.647602605793773E+01
  -1.627125349977091E+01  -1.606903615880252E+01  -1.586934114884744E+01
  -1.567213609204458E+01  -1.547738910534463E+01  -1.528506878753996E+01
  -1.509514420682267E+01  -1.490758488885726E+01  -1.472236080535256E+01
  -1.453944236311734E+01  -1.435880039358405E+01  -1.418040614278299E+01
  -1.400423126175115E+01  -1.383024779735821E+01  -1.365842818353159E+01
  -1.348874523286470E+01  -1.332117212859009E+01  -1.315568241690038E+01
  -1.299224999960066E+01  -1.283084912707495E+01  -1.267145439155098E+01
  -1.251404072064665E+01  -1.235858337118327E+01  -1.220505792325030E+01
  -1.205344027450667E+01  -1.190370663470527E+01  -1.175583352042656E+01
  -1.160979775000903E+01  -1.146557643866377E+01  -1.132314699376144E+01
  -1.118248711028124E+01  -1.104357476641048E+01  -1.090638821928561E+01
  -1.077090600086519E+01  -1.063710691392593E+01  -1.050497002817426E+01
  -1.037447467646495E+01  -1.024560045112070E+01  -1.011832720034565E+01
  -9.992635024726534E+00  -9.868504273816626E+00  -9.745915542796766E+00
  -9.624849669208775E+00  -9.505287729757310E+00  -9.387211037175648E+00
  -9.270601137152337E+00  -9.155439805314980E+00  -9.041709044268311E+00
  -8.929391080683889E+00  -8.818468362438734E+00  -8.708923555800926E+00
  -8.600739542658532E+00  -8.493899417796502E+00  -8.388386486210097E+00
  -8.284184260452170E+00  -8.181276458033715E+00  -8.079646998849899E+00
  -7.979280002644441E+00  -7.880159786518206E+00  -7.782270862448793E+00
  -7.685597934884598E+00  -7.590125898395350E+00  -7.495839835191375E+00
  -7.402725012746515E+00  -7.310766881591713E+00  -7.219951072941006E+00
  -7.130263396562139E+00  -7.041689838536089E+00  -6.954216559046249E+00
  -6.867829890208482E+00  -6.782516333933144E+00  -6.698262559814403E+00
  -6.615055403046126E+00  -6.532881862363609E+00  -6.451729098010962E+00
  -6.371584429733787E+00  -6.292435334796624E+00  -6.214269446025148E+00
  -6.137074549872374E+00  -6.060838584508941E+00  -5.985549637937035E+00
  -5.911195946127498E+00  -5.837765891180277E+00  -5.765247999507510E+00
  -5.693630940039362E+00  -5.622903522452287E+00  -5.553054695419456E+00
  -5.484073544883356E+00  -5.415949292350072E+00  -5.348671293205431E+00
  -5.282229035052602E+00  -5.216612136070875E+00  -5.151810343395639E+00
  -5.087813531518963E+00  -5.024611700710740E+00  -4.962194975459904E+00
  -4.900553602935207E+00  -4.839677951465410E+00  -4.779558509038064E+00
  -4.720185881816705E+00  -4.661550792675854E+00  -4.603644079753298E+00
  -4.546456695019513E+00  -4.489979702863591E+00  -4.434204278695691E+00
  -4.379121707565704E+00  -4.324723382798002E+00  -4.271000804642471E+00
  -4.217945578941572E+00  -4.165549415813786E+00  -4.113804128353387E+00
  -4.062701631346551E+00  -4.012233940004093E+00  -3.962393168710511E+00
  -3.913171529789503E+00  -3.864561332285728E+00  -3.816554980762586E+00
  -3.769144974115874E+00  -3.722323904402902E+00  -3.676084455686874E+00
  -3.630419402896196E+00  -3.585321610698276E+00  -3.540784032387725E+00
  -3.496799708788446E+00  -3.453361767169488E+00  -3.410463420174363E+00
  -3.368097964763491E+00  -3.326258781169713E+00  -3.284939331866408E+00
  -3.244133160548193E+00  -3.203833891123852E+00  -3.164035226721284E+00
  -3.124730948704378E+00  -3.085914915701458E+00  -3.047581062645321E+00
  -3.009723399824652E+00  -2.972336011946671E+00  -2.935413057211075E+00
  -2.898948766395075E+00  -2.862937441949619E+00  -2.827373457106718E+00
  -2.792251254997793E+00  -2.757565347783167E+00  -2.723310315792460E+00
  -2.689480806675980E+00  -2.656071534566966E+00  -2.623077279254516E+00
  -2.590492885367207E+00  -2.558313261567117E+00  -2.526533379754201E+00
  -2.495148274280834E+00  -2.464153041176270E+00  -2.433542837380994E+00
  -2.403312879990633E+00  -2.373458445509397E+00  -2.343974869112841E+00
  -2.314857543919746E+00  -2.286101920273097E+00  -2.257703505029894E+00
  -2.229657860859776E+00  -2.201960605552291E+00  -2.174607411332667E+00
  -2.147594004186078E+00  -2.120916163190172E+00  -2.094569719855865E+00
  -2.068550557476274E+00  -2.042854610483635E+00  -2.017477863814234E+00
  -1.992416352281108E+00  -1.967666159954564E+00  -1.943223419550352E+00
  -1.919084311825377E+00  -1.895245064980959E+00  -1.871701954073429E+00
  -1.848451300432074E+00  -1.825489471084308E+00  -1.802812878187930E+00
  -1.780417978470495E+00  -1.758301272675582E+00  -1.736459305015989E+00
  -1.714888662633701E+00  -1.693585975066552E+00  -1.672547913721549E+00
  -1.651771191354694E+00  -1.631252561557309E+00  -1.610988818248739E+00
  -1.590976795175319E+00  -1.571213365415634E+00  -1.551695440891859E+00
  -1.532419971887219E+00  -1.513383946569434E+00  -1.494584390520064E+00
  -1.476018366269741E+00  -1.457682972839138E+00  -1.439575345285664E+00
  -1.421692654255802E+00  -1.404032105542968E+00  -1.386590939650916E+00
  -1.369366431362532E+00  -1.352355889313923E+00  -1.335556655574349E+00
  -1.318966105229240E+00  -1.302581645417377E+00  -1.286400717199326E+00
  -1.270420791662574E+00  -1.254639371912341E+00  -1.239053992070802E+00
  -1.223662216891724E+00  -1.208461641380539E+00  -1.193449890416329E+00
  -1.178624616816247E+00  -1.163983507382284E+00  -1.149524272694177E+00
  -1.135244653468807E+00  -1.121142418488335E+00  -1.107215364251592E+00
  -1.093461314629759E+00  -1.079878120526342E+00  -1.066463659541460E+00
  -1.053215835639505E+00  -1.040132578824615E+00  -1.027211851636102E+00
  -1.014451619530898E+00  -1.001849899136044E+00  -9.894047198252195E-01
  -9.771141370139252E-01  -9.649762302736384E-01  -9.529891030317887E-01
  -9.411508822754027E-01  -9.294597183408861E-01  -9.179137842878531E-01
  -9.065112761310586E-01  -8.952504122054088E-01  -8.841294329780051E-01
  -8.731466007732172E-01  -8.623001995011742E-01  -8.515885343896094E-01
  -8.410099317190610E-01  -8.305627385613404E-01  -8.202453225212616E-01
  -8.100560714815830E-01  -7.999933933510984E-01  -7.900557158158823E-01
  -7.802414860936014E-01  -7.705491706908959E-01  -7.609772551637689E-01
  -7.515242438809445E-01  -7.421886597901818E-01  -7.329690441874740E-01
  -7.238639564891253E-01  -7.148719740066638E-01  -7.059916917245300E-01
  -6.972217220805556E-01  -6.885606947491404E-01  -6.800072564271432E-01
  -6.715600706224284E-01  -6.632178174475621E-01  -6.549791934032169E-01
  -6.468429111904065E-01  -6.388076994984804E-01  -6.308723028092668E-01
  -6.230354812008850E-01  -6.152960101540180E-01  -6.076526803605671E-01
  -6.001042975347000E-01  -5.926496822262457E-01  -5.852876696363931E-01
  -5.780171094356995E-01  -5.708368655843401E-01  -5.637458161546037E-01
  -5.567428531555926E-01  -5.498268823600878E-01  -5.429968231335844E-01
  -5.362516082654313E-01  -5.295901838020809E-01  -5.230115088824101E-01
  -5.165145555750763E-01  -5.100983087179092E-01  -5.037617657592823E-01
  -4.975039366014659E-01  -4.913238434459236E-01  -4.852205206405252E-01
  -4.791930145286665E-01  -4.732403833002536E-01  -4.673616968445455E-01
  -4.615560366048252E-01  -4.558224954348664E-01  -4.501601774571983E-01
  -4.445681979231159E-01  -4.390456830744391E-01  -4.335917700069889E-01
  -4.282056065357507E-01  -4.228863510617257E-01  -4.176331724404230E-01
  -4.124452498519945E-01  -4.073217726729827E-01  -4.022619403496528E-01
  -3.972649622729116E-01  -3.923300576547674E-01  -3.874564554063326E-01
  -3.826433940173421E-01  -3.778901214371600E-01  -3.731958949572768E-01
  -3.685599810952536E-01  -3.639816554801168E-01  -3.594602027391759E-01
  -3.549949163862399E-01  -3.505850987112325E-01  -3.462300606711698E-01
  -3.419291217824967E-01  -3.376816100147632E-01  -3.334868616856123E-01
  -3.293442213570845E-01  -3.252530417332000E-01  -3.212126835588180E-01
  -3.172225155197551E-01  -3.132819141441356E-01  -3.093902637049789E-01
  -3.055469561239853E-01  -3.017513908765257E-01  -2.980029748978092E-01
  -2.943011224902116E-01  -2.906452552317638E-01  -2.870348018857685E-01
  -2.834691983115440E-01  -2.799478873762790E-01  -2.764703188679742E-01
  -2.730359494094763E-01  -2.696442423735697E-01  -2.662946677991287E-01
  -2.629867023083128E-01  -2.597198290247825E-01  -2.564935374929419E-01
  -2.533073235981748E-01  -2.501606894880772E-01  -2.470531434946684E-01
  -2.439842000575637E-01  -2.409533796481081E-01  -2.379602086944461E-01
  -2.350042195075259E-01  -2.320849502080240E-01  -2.292019446541722E-01
  -2.263547523704879E-01  -2.235429284773840E-01  -2.207660336216557E-01
  -2.180236339078332E-01  -2.153153008303810E-01  -2.126406112067463E-01
  -2.099991471112334E-01  -2.073904958097027E-01  -2.048142496950819E-01
  -2.022700062236734E-01  -1.997573678522593E-01  -1.972759419759817E-01
  -1.948253408669984E-01  -1.924051816139012E-01  -1.900150860618822E-01
  -1.876546807536494E-01  -1.853235968710708E-01  -1.830214701775466E-01
  -1.807479409610982E-01  -1.785026539781591E-01  -1.762852583980710E-01
  -1.740954077482627E-01  -1.719327598601146E-01  -1.697969768154948E-01
  -1.676877248939568E-01  -1.656046745205971E-01  -1.635475002145566E-01
  -1.615158805381643E-01  -1.595094980467130E-01  -1.575280392388557E-01
  -1.555711945076231E-01  -1.536386580920444E-01  -1.517301280293725E-01
  -1.498453061079028E-01  -1.479838978203749E-01  -1.461456123179573E-01
  -1.443301623647999E-01  -1.425372642931537E-01  -1.407666379590480E-01
  -1.390180066985149E-01  -1.372910972843632E-01  -1.355856398834830E-01
  -1.339013680146854E-01  -1.322380185070650E-01  -1.305953314588762E-01
  -1.289730501969265E-01  -1.273709212364677E-01  -1.257886942415900E-01
  -1.242261219861070E-01  -1.226829603149239E-01  -1.211589681058908E-01
    </PP_AE_VLOC>
  </PP_PAW>
</UPF>
