Attaching 16255 to 993864.pbshpc
Attaching 837 to 993864.pbshpc
Attaching 3278 to 993864.pbshpc

     Program PWSCF v.7.3.1 starts on 22Aug2026 at  3:50: 4 

     This program is part of the open-source Quantum ESPRESSO suite
     for quantum simulation of materials; please cite
         "P. Giannozzi et al., J. Phys.:Condens. Matter 21 395502 (2009);
         "P. Giannozzi et al., J. Phys.:Condens. Matter 29 465901 (2017);
         "P. Giannozzi et al., J. Chem. Phys. 152 154105 (2020);
          URL http://www.quantum-espresso.org", 
     in publications or presentations arising from this work. More details at
     http://www.quantum-espresso.org/quote

     Parallel version (MPI & OpenMP), running on      32 processor cores
     Number of MPI processes:                32
     Threads/MPI process:                     1

     MPI processes distributed on     4 nodes
     59191 MiB available memory on the printing compute node when the environment starts
 
     Reading input from scf.in

     Current dimensions of program PWSCF are:
     Max number of different atomic species (ntypx) = 10
     Max number of k-points (npk) =  40000
     Max angular momentum in pseudopotentials (lmaxx) =  4

     IMPORTANT: XC functional enforced from input :
     Exchange-correlation= LDA
                           (   1   1   0   0   0   0   0)
     Any further DFT definition will be discarded
     Please, verify this is what you really want

     Found identity + (  0.2500  0.2500  0.5000) symmetry
     This is a supercell, fractional translations are disabled
     Message from routine setup:
     using ibrav=0 with symmetry is DISCOURAGED, use correct ibrav instead
 
     R & G space division:  proc/nbgrp/npool/nimage =      32
     Subspace diagonalization in iterative solution of the eigenvalue problem:
     one sub-group per band group will be used
     scalapack distributed-memory algorithm (size of sub-group:  2*  2 procs)

 
     Parallelization info
     --------------------
     sticks:   dense  smooth     PW     G-vecs:    dense   smooth      PW
     Min         254     126     34                27112     9576    1358
     Max         255     127     35                27118     9585    1367
     Sum        8129    4061   1109               867655   306621   43583
 
     Using Slab Decomposition
 


     bravais-lattice index     =            0
     lattice parameter (alat)  =      14.6148  a.u.
     unit-cell volume          =    4887.0940 (a.u.)^3
     number of atoms/cell      =           40
     number of atomic types    =            3
     number of electrons       =       464.00
     number of Kohn-Sham states=          232
     kinetic-energy cutoff     =      60.0000  Ry
     charge density cutoff     =     480.0000  Ry
     scf convergence threshold =      8.0E-09
     mixing beta               =       0.4000
     number of iterations used =            8  plain     mixing
     Exchange-correlation= LDA
                           (   1   1   0   0   0   0   0)

     celldm(1)=  14.614797  celldm(2)=   0.000000  celldm(3)=   0.000000
     celldm(4)=   0.000000  celldm(5)=   0.000000  celldm(6)=   0.000000

     crystal axes: (cart. coord. in units of alat)
               a(1) = (   1.000000   0.000000   0.000000 )  
               a(2) = (   0.000000   1.000000   0.000000 )  
               a(3) = (   0.000000   0.000000   1.565570 )  

     reciprocal axes: (cart. coord. in units 2 pi/alat)
               b(1) = (  1.000000  0.000000  0.000000 )  
               b(2) = (  0.000000  1.000000  0.000000 )  
               b(3) = (  0.000000  0.000000  0.638745 )  


     PseudoPot. # 1 for Bi read from file:
     ./Bi.upf
     MD5 check sum: 6872f064adb6bc5e400c0fc6d475decc
     Pseudo is Norm-conserving + core correction, Zval = 15.0
     Generated using ONCVPSP code by D. R. Hamann
     Using radial grid of 1562 points,  6 beta functions with: 
                l(1) =   0
                l(2) =   0
                l(3) =   1
                l(4) =   1
                l(5) =   2
                l(6) =   2

     PseudoPot. # 2 for O  read from file:
     ./O.upf
     MD5 check sum: a1969bbd51a79f57ce766e937222aee4
     Pseudo is Norm-conserving + core correction, Zval =  6.0
     Generated using ONCVPSP code by D. R. Hamann
     Using radial grid of  936 points,  5 beta functions with: 
                l(1) =   0
                l(2) =   0
                l(3) =   1
                l(4) =   1
                l(5) =   2

     PseudoPot. # 3 for Se read from file:
     ./Se.upf
     MD5 check sum: 666d3fce17080e2232e5bf8193ff52c1
     Pseudo is Norm-conserving + core correction, Zval = 16.0
     Generated using ONCVPSP code by D. R. Hamann
     Using radial grid of 1214 points,  6 beta functions with: 
                l(1) =   0
                l(2) =   0
                l(3) =   1
                l(4) =   1
                l(5) =   2
                l(6) =   2

     atomic species   valence    mass     pseudopotential
     Bi               15.00   208.98040     Bi( 1.00)
     O                 6.00    15.99940     O ( 1.00)
     Se               16.00    78.96000     Se( 1.00)

     16 Sym. Ops., with inversion, found


                                    s                        frac. trans.

      isym =  1     identity                                     

 cryst.   s( 1) = (     1          0          0      )
                  (     0          1          0      )
                  (     0          0          1      )

 cart.    s( 1) = (  1.0000000  0.0000000  0.0000000 )
                  (  0.0000000  1.0000000  0.0000000 )
                  (  0.0000000  0.0000000  1.0000000 )


      isym =  2     180 deg rotation - cart. axis [0,0,1]        

 cryst.   s( 2) = (    -1          0          0      )
                  (     0         -1          0      )
                  (     0          0          1      )

 cart.    s( 2) = ( -1.0000000  0.0000000  0.0000000 )
                  (  0.0000000 -1.0000000  0.0000000 )
                  (  0.0000000  0.0000000  1.0000000 )


      isym =  3     180 deg rotation - cart. axis [0,1,0]        

 cryst.   s( 3) = (    -1          0          0      )
                  (     0          1          0      )
                  (     0          0         -1      )

 cart.    s( 3) = ( -1.0000000  0.0000000  0.0000000 )
                  (  0.0000000  1.0000000  0.0000000 )
                  (  0.0000000  0.0000000 -1.0000000 )


      isym =  4     180 deg rotation - cart. axis [1,0,0]        

 cryst.   s( 4) = (     1          0          0      )
                  (     0         -1          0      )
                  (     0          0         -1      )

 cart.    s( 4) = (  1.0000000  0.0000000  0.0000000 )
                  (  0.0000000 -1.0000000  0.0000000 )
                  (  0.0000000  0.0000000 -1.0000000 )


      isym =  5     180 deg rotation - cart. axis [1,1,0]        

 cryst.   s( 5) = (     0          1          0      )
                  (     1          0          0      )
                  (     0          0         -1      )

 cart.    s( 5) = (  0.0000000  1.0000000  0.0000000 )
                  (  1.0000000  0.0000000  0.0000000 )
                  (  0.0000000  0.0000000 -1.0000000 )


      isym =  6     180 deg rotation - cart. axis [1,-1,0]       

 cryst.   s( 6) = (     0         -1          0      )
                  (    -1          0          0      )
                  (     0          0         -1      )

 cart.    s( 6) = (  0.0000000 -1.0000000  0.0000000 )
                  ( -1.0000000  0.0000000  0.0000000 )
                  (  0.0000000  0.0000000 -1.0000000 )


      isym =  7      90 deg rotation - cart. axis [0,0,-1]       

 cryst.   s( 7) = (     0         -1          0      )
                  (     1          0          0      )
                  (     0          0          1      )

 cart.    s( 7) = (  0.0000000  1.0000000  0.0000000 )
                  ( -1.0000000  0.0000000  0.0000000 )
                  (  0.0000000  0.0000000  1.0000000 )


      isym =  8      90 deg rotation - cart. axis [0,0,1]        

 cryst.   s( 8) = (     0          1          0      )
                  (    -1          0          0      )
                  (     0          0          1      )

 cart.    s( 8) = (  0.0000000 -1.0000000  0.0000000 )
                  (  1.0000000  0.0000000  0.0000000 )
                  (  0.0000000  0.0000000  1.0000000 )


      isym =  9     inversion                                    

 cryst.   s( 9) = (    -1          0          0      )
                  (     0         -1          0      )
                  (     0          0         -1      )

 cart.    s( 9) = ( -1.0000000  0.0000000  0.0000000 )
                  (  0.0000000 -1.0000000  0.0000000 )
                  (  0.0000000  0.0000000 -1.0000000 )


      isym = 10     inv. 180 deg rotation - cart. axis [0,0,1]   

 cryst.   s(10) = (     1          0          0      )
                  (     0          1          0      )
                  (     0          0         -1      )

 cart.    s(10) = (  1.0000000  0.0000000  0.0000000 )
                  (  0.0000000  1.0000000  0.0000000 )
                  (  0.0000000  0.0000000 -1.0000000 )


      isym = 11     inv. 180 deg rotation - cart. axis [0,1,0]   

 cryst.   s(11) = (     1          0          0      )
                  (     0         -1          0      )
                  (     0          0          1      )

 cart.    s(11) = (  1.0000000  0.0000000  0.0000000 )
                  (  0.0000000 -1.0000000  0.0000000 )
                  (  0.0000000  0.0000000  1.0000000 )


      isym = 12     inv. 180 deg rotation - cart. axis [1,0,0]   

 cryst.   s(12) = (    -1          0          0      )
                  (     0          1          0      )
                  (     0          0          1      )

 cart.    s(12) = ( -1.0000000  0.0000000  0.0000000 )
                  (  0.0000000  1.0000000  0.0000000 )
                  (  0.0000000  0.0000000  1.0000000 )


      isym = 13     inv. 180 deg rotation - cart. axis [1,1,0]   

 cryst.   s(13) = (     0         -1          0      )
                  (    -1          0          0      )
                  (     0          0          1      )

 cart.    s(13) = (  0.0000000 -1.0000000  0.0000000 )
                  ( -1.0000000  0.0000000  0.0000000 )
                  (  0.0000000  0.0000000  1.0000000 )


      isym = 14     inv. 180 deg rotation - cart. axis [1,-1,0]  

 cryst.   s(14) = (     0          1          0      )
                  (     1          0          0      )
                  (     0          0          1      )

 cart.    s(14) = (  0.0000000  1.0000000  0.0000000 )
                  (  1.0000000  0.0000000  0.0000000 )
                  (  0.0000000  0.0000000  1.0000000 )


      isym = 15     inv.  90 deg rotation - cart. axis [0,0,-1]  

 cryst.   s(15) = (     0          1          0      )
                  (    -1          0          0      )
                  (     0          0         -1      )

 cart.    s(15) = (  0.0000000 -1.0000000  0.0000000 )
                  (  1.0000000  0.0000000  0.0000000 )
                  (  0.0000000  0.0000000 -1.0000000 )


      isym = 16     inv.  90 deg rotation - cart. axis [0,0,1]   

 cryst.   s(16) = (     0         -1          0      )
                  (     1          0          0      )
                  (     0          0         -1      )

 cart.    s(16) = (  0.0000000  1.0000000  0.0000000 )
                  ( -1.0000000  0.0000000  0.0000000 )
                  (  0.0000000  0.0000000 -1.0000000 )


   Cartesian axes

     site n.     atom                  positions (alat units)
         1        Bi     tau(   1) = (   0.0000000   0.0000000   0.5556106  )
         2        Bi     tau(   2) = (   0.0000000   0.0000000   1.0099589  )
         3        Bi     tau(   3) = (   0.2500000   0.2500000   1.3383953  )
         4        Bi     tau(   4) = (   0.2500000   0.2500000   0.2271742  )
         5        Bi     tau(   5) = (   0.0000000   0.5000000   0.5556106  )
         6        Bi     tau(   6) = (   0.0000000   0.5000000   1.0099589  )
         7        Bi     tau(   7) = (   0.5000000   0.0000000   0.5556106  )
         8        Bi     tau(   8) = (   0.5000000   0.0000000   1.0099589  )
         9        Bi     tau(   9) = (   0.2500000   0.7500000   1.3383953  )
        10        Bi     tau(  10) = (   0.2500000   0.7500000   0.2271742  )
        11        Bi     tau(  11) = (   0.7500000   0.2500000   1.3383953  )
        12        Bi     tau(  12) = (   0.7500000   0.2500000   0.2271742  )
        13        Bi     tau(  13) = (   0.5000000   0.5000000   0.5556107  )
        14        Bi     tau(  14) = (   0.5000000   0.5000000   1.0099589  )
        15        Bi     tau(  15) = (   0.7500000   0.7500000   1.3383953  )
        16        Bi     tau(  16) = (   0.7500000   0.7500000   0.2271742  )
        17        Se     tau(  17) = (   0.0000000   0.0000000   0.0000000  )
        18        Se     tau(  18) = (   0.2500001   0.2500001   0.7827848  )
        19        Se     tau(  19) = (   0.0000000   0.5000000   0.0000000  )
        20        Se     tau(  20) = (   0.5000000   0.0000000   0.0000000  )
        21        Se     tau(  21) = (   0.2500001   0.7499999   0.7827848  )
        22        Se     tau(  22) = (   0.7499999   0.2500001   0.7827848  )
        23        Se     tau(  23) = (   0.5000000   0.5000000   0.0000000  )
        24        Se     tau(  24) = (   0.7499999   0.7499999   0.7827848  )
        25        O      tau(  25) = (   0.0000000   0.2500000   0.3913924  )
        26        O      tau(  26) = (   0.0000000   0.7500000   1.1741771  )
        27        O      tau(  27) = (   0.0000000   0.7500000   0.3913924  )
        28        O      tau(  28) = (   0.0000000   0.2500000   1.1741771  )
        29        O      tau(  29) = (   0.7500000   0.0000000   0.3913924  )
        30        O      tau(  30) = (   0.2500000   0.0000000   1.1741771  )
        31        O      tau(  31) = (   0.2500000   0.0000000   0.3913924  )
        32        O      tau(  32) = (   0.7500000   0.0000000   1.1741771  )
        33        O      tau(  33) = (   0.2500000   0.5000000   1.1741771  )
        34        O      tau(  34) = (   0.2500000   0.5000000   0.3913924  )
        35        O      tau(  35) = (   0.5000000   0.2500000   0.3913924  )
        36        O      tau(  36) = (   0.5000000   0.2500000   1.1741771  )
        37        O      tau(  37) = (   0.5000000   0.7500000   0.3913924  )
        38        O      tau(  38) = (   0.5000000   0.7500000   1.1741771  )
        39        O      tau(  39) = (   0.7500000   0.5000000   1.1741771  )
        40        O      tau(  40) = (   0.7500000   0.5000000   0.3913924  )

   Crystallographic axes

     site n.     atom                  positions (cryst. coord.)
         1        Bi     tau(   1) = (  0.0000000  0.0000000  0.3548936  )
         2        Bi     tau(   2) = (  0.0000000  0.0000000  0.6451064  )
         3        Bi     tau(   3) = (  0.2500000  0.2500000  0.8548936  )
         4        Bi     tau(   4) = (  0.2500000  0.2500000  0.1451064  )
         5        Bi     tau(   5) = (  0.0000000  0.5000000  0.3548936  )
         6        Bi     tau(   6) = (  0.0000000  0.5000000  0.6451064  )
         7        Bi     tau(   7) = (  0.5000000  0.0000000  0.3548936  )
         8        Bi     tau(   8) = (  0.5000000  0.0000000  0.6451064  )
         9        Bi     tau(   9) = (  0.2500000  0.7500000  0.8548936  )
        10        Bi     tau(  10) = (  0.2500000  0.7500000  0.1451064  )
        11        Bi     tau(  11) = (  0.7500000  0.2500000  0.8548936  )
        12        Bi     tau(  12) = (  0.7500000  0.2500000  0.1451064  )
        13        Bi     tau(  13) = (  0.5000000  0.5000000  0.3548936  )
        14        Bi     tau(  14) = (  0.5000000  0.5000000  0.6451064  )
        15        Bi     tau(  15) = (  0.7500000  0.7500000  0.8548936  )
        16        Bi     tau(  16) = (  0.7500000  0.7500000  0.1451064  )
        17        Se     tau(  17) = (  0.0000000  0.0000000  0.0000000  )
        18        Se     tau(  18) = (  0.2500001  0.2500001  0.5000000  )
        19        Se     tau(  19) = (  0.0000000  0.5000000  0.0000000  )
        20        Se     tau(  20) = (  0.5000000  0.0000000  0.0000000  )
        21        Se     tau(  21) = (  0.2500001  0.7499999  0.5000000  )
        22        Se     tau(  22) = (  0.7499999  0.2500001  0.5000000  )
        23        Se     tau(  23) = (  0.5000000  0.5000000  0.0000000  )
        24        Se     tau(  24) = (  0.7499999  0.7499999  0.5000000  )
        25        O      tau(  25) = (  0.0000000  0.2500000  0.2500000  )
        26        O      tau(  26) = (  0.0000000  0.7500000  0.7500000  )
        27        O      tau(  27) = (  0.0000000  0.7500000  0.2500000  )
        28        O      tau(  28) = (  0.0000000  0.2500000  0.7500000  )
        29        O      tau(  29) = (  0.7500000  0.0000000  0.2500000  )
        30        O      tau(  30) = (  0.2500000  0.0000000  0.7500000  )
        31        O      tau(  31) = (  0.2500000  0.0000000  0.2500000  )
        32        O      tau(  32) = (  0.7500000  0.0000000  0.7500000  )
        33        O      tau(  33) = (  0.2500000  0.5000000  0.7500000  )
        34        O      tau(  34) = (  0.2500000  0.5000000  0.2500000  )
        35        O      tau(  35) = (  0.5000000  0.2500000  0.2500000  )
        36        O      tau(  36) = (  0.5000000  0.2500000  0.7500000  )
        37        O      tau(  37) = (  0.5000000  0.7500000  0.2500000  )
        38        O      tau(  38) = (  0.5000000  0.7500000  0.7500000  )
        39        O      tau(  39) = (  0.7500000  0.5000000  0.7500000  )
        40        O      tau(  40) = (  0.7500000  0.5000000  0.2500000  )

     number of k points=    40
                       cart. coord. in units 2pi/alat
        k(    1) = (   0.0000000   0.0000000   0.0000000), wk =   0.0092593
        k(    2) = (   0.0000000   0.0000000   0.1064575), wk =   0.0185185
        k(    3) = (   0.0000000   0.0000000   0.2129151), wk =   0.0185185
        k(    4) = (   0.0000000   0.0000000  -0.3193726), wk =   0.0092593
        k(    5) = (   0.0000000   0.1666667   0.0000000), wk =   0.0370370
        k(    6) = (   0.0000000   0.1666667   0.1064575), wk =   0.0740741
        k(    7) = (   0.0000000   0.1666667   0.2129151), wk =   0.0740741
        k(    8) = (   0.0000000   0.1666667  -0.3193726), wk =   0.0370370
        k(    9) = (   0.0000000   0.3333333   0.0000000), wk =   0.0370370
        k(   10) = (   0.0000000   0.3333333   0.1064575), wk =   0.0740741
        k(   11) = (   0.0000000   0.3333333   0.2129151), wk =   0.0740741
        k(   12) = (   0.0000000   0.3333333  -0.3193726), wk =   0.0370370
        k(   13) = (   0.0000000  -0.5000000   0.0000000), wk =   0.0185185
        k(   14) = (   0.0000000  -0.5000000   0.1064575), wk =   0.0370370
        k(   15) = (   0.0000000  -0.5000000   0.2129151), wk =   0.0370370
        k(   16) = (   0.0000000  -0.5000000  -0.3193726), wk =   0.0185185
        k(   17) = (   0.1666667   0.1666667   0.0000000), wk =   0.0370370
        k(   18) = (   0.1666667   0.1666667   0.1064575), wk =   0.0740741
        k(   19) = (   0.1666667   0.1666667   0.2129151), wk =   0.0740741
        k(   20) = (   0.1666667   0.1666667  -0.3193726), wk =   0.0370370
        k(   21) = (   0.1666667   0.3333333   0.0000000), wk =   0.0740741
        k(   22) = (   0.1666667   0.3333333   0.1064575), wk =   0.1481481
        k(   23) = (   0.1666667   0.3333333   0.2129151), wk =   0.1481481
        k(   24) = (   0.1666667   0.3333333  -0.3193726), wk =   0.0740741
        k(   25) = (   0.1666667  -0.5000000   0.0000000), wk =   0.0370370
        k(   26) = (   0.1666667  -0.5000000   0.1064575), wk =   0.0740741
        k(   27) = (   0.1666667  -0.5000000   0.2129151), wk =   0.0740741
        k(   28) = (   0.1666667  -0.5000000  -0.3193726), wk =   0.0370370
        k(   29) = (   0.3333333   0.3333333   0.0000000), wk =   0.0370370
        k(   30) = (   0.3333333   0.3333333   0.1064575), wk =   0.0740741
        k(   31) = (   0.3333333   0.3333333   0.2129151), wk =   0.0740741
        k(   32) = (   0.3333333   0.3333333  -0.3193726), wk =   0.0370370
        k(   33) = (   0.3333333  -0.5000000   0.0000000), wk =   0.0370370
        k(   34) = (   0.3333333  -0.5000000   0.1064575), wk =   0.0740741
        k(   35) = (   0.3333333  -0.5000000   0.2129151), wk =   0.0740741
        k(   36) = (   0.3333333  -0.5000000  -0.3193726), wk =   0.0370370
        k(   37) = (  -0.5000000  -0.5000000   0.0000000), wk =   0.0092593
        k(   38) = (  -0.5000000  -0.5000000   0.1064575), wk =   0.0185185
        k(   39) = (  -0.5000000  -0.5000000   0.2129151), wk =   0.0185185
        k(   40) = (  -0.5000000  -0.5000000  -0.3193726), wk =   0.0092593

                       cryst. coord.
        k(    1) = (   0.0000000   0.0000000   0.0000000), wk =   0.0092593
        k(    2) = (   0.0000000   0.0000000   0.1666667), wk =   0.0185185
        k(    3) = (   0.0000000   0.0000000   0.3333333), wk =   0.0185185
        k(    4) = (   0.0000000   0.0000000  -0.5000000), wk =   0.0092593
        k(    5) = (   0.0000000   0.1666667   0.0000000), wk =   0.0370370
        k(    6) = (   0.0000000   0.1666667   0.1666667), wk =   0.0740741
        k(    7) = (   0.0000000   0.1666667   0.3333333), wk =   0.0740741
        k(    8) = (   0.0000000   0.1666667  -0.5000000), wk =   0.0370370
        k(    9) = (   0.0000000   0.3333333   0.0000000), wk =   0.0370370
        k(   10) = (   0.0000000   0.3333333   0.1666667), wk =   0.0740741
        k(   11) = (   0.0000000   0.3333333   0.3333333), wk =   0.0740741
        k(   12) = (   0.0000000   0.3333333  -0.5000000), wk =   0.0370370
        k(   13) = (   0.0000000  -0.5000000   0.0000000), wk =   0.0185185
        k(   14) = (   0.0000000  -0.5000000   0.1666667), wk =   0.0370370
        k(   15) = (   0.0000000  -0.5000000   0.3333333), wk =   0.0370370
        k(   16) = (   0.0000000  -0.5000000  -0.5000000), wk =   0.0185185
        k(   17) = (   0.1666667   0.1666667   0.0000000), wk =   0.0370370
        k(   18) = (   0.1666667   0.1666667   0.1666667), wk =   0.0740741
        k(   19) = (   0.1666667   0.1666667   0.3333333), wk =   0.0740741
        k(   20) = (   0.1666667   0.1666667  -0.5000000), wk =   0.0370370
        k(   21) = (   0.1666667   0.3333333   0.0000000), wk =   0.0740741
        k(   22) = (   0.1666667   0.3333333   0.1666667), wk =   0.1481481
        k(   23) = (   0.1666667   0.3333333   0.3333333), wk =   0.1481481
        k(   24) = (   0.1666667   0.3333333  -0.5000000), wk =   0.0740741
        k(   25) = (   0.1666667  -0.5000000   0.0000000), wk =   0.0370370
        k(   26) = (   0.1666667  -0.5000000   0.1666667), wk =   0.0740741
        k(   27) = (   0.1666667  -0.5000000   0.3333333), wk =   0.0740741
        k(   28) = (   0.1666667  -0.5000000  -0.5000000), wk =   0.0370370
        k(   29) = (   0.3333333   0.3333333   0.0000000), wk =   0.0370370
        k(   30) = (   0.3333333   0.3333333   0.1666667), wk =   0.0740741
        k(   31) = (   0.3333333   0.3333333   0.3333333), wk =   0.0740741
        k(   32) = (   0.3333333   0.3333333  -0.5000000), wk =   0.0370370
        k(   33) = (   0.3333333  -0.5000000   0.0000000), wk =   0.0370370
        k(   34) = (   0.3333333  -0.5000000   0.1666667), wk =   0.0740741
        k(   35) = (   0.3333333  -0.5000000   0.3333333), wk =   0.0740741
        k(   36) = (   0.3333333  -0.5000000  -0.5000000), wk =   0.0370370
        k(   37) = (  -0.5000000  -0.5000000   0.0000000), wk =   0.0092593
        k(   38) = (  -0.5000000  -0.5000000   0.1666667), wk =   0.0185185
        k(   39) = (  -0.5000000  -0.5000000   0.3333333), wk =   0.0185185
        k(   40) = (  -0.5000000  -0.5000000  -0.5000000), wk =   0.0092593

     Dense  grid:   867655 G-vectors     FFT dimensions: ( 108, 108, 160)

     Smooth grid:   306621 G-vectors     FFT dimensions: (  75,  75, 120)

     Dynamical RAM for                 wfc:       4.24 MB

     Dynamical RAM for     wfc (w. buffer):     173.88 MB

     Dynamical RAM for           str. fact:       1.24 MB

     Dynamical RAM for           local pot:       0.00 MB

     Dynamical RAM for          nlocal pot:      11.70 MB

     Dynamical RAM for                qrad:       5.27 MB

     Dynamical RAM for          rho,v,vnew:       2.58 MB

     Dynamical RAM for               rhoin:       0.86 MB

     Dynamical RAM for            rho*nmix:       6.62 MB

     Dynamical RAM for           G-vectors:       1.62 MB

     Dynamical RAM for          h,s,v(r/c):       2.46 MB

     Dynamical RAM for          <psi|beta>:       2.27 MB

     Dynamical RAM for                 psi:       8.48 MB

     Dynamical RAM for                hpsi:       8.48 MB

     Dynamical RAM for      wfcinit/wfcrot:      12.03 MB

     Estimated static dynamical RAM per process >     201.03 MB

     Estimated max dynamical RAM per process >     229.34 MB

     Estimated total dynamical RAM >       7.17 GB

     Initial potential from superposition of free atoms

     starting charge     463.9836, renormalised to     464.0000
     Starting wfcs are  280 randomized atomic wfcs

     total cpu time spent up to now is       17.5 secs

     Self-consistent Calculation

     iteration #  1     ecut=    60.00 Ry     beta= 0.40
     Davidson diagonalization with overlap

---- Real-time Memory Report at c_bands before calling an iterative solver
           453 MiB given to the printing process from OS
             0 MiB allocation reported by mallinfo(arena+hblkhd)
         56999 MiB available memory on the node where the printing process lives
------------------
     ethr =  1.00E-02,  avg # of iterations =  2.0

     total cpu time spent up to now is       63.4 secs

     total energy              =   -5073.28449648 Ry
     estimated scf accuracy    <       8.67570442 Ry

     iteration #  2     ecut=    60.00 Ry     beta= 0.40
     Davidson diagonalization with overlap

---- Real-time Memory Report at c_bands before calling an iterative solver
           499 MiB given to the printing process from OS
             0 MiB allocation reported by mallinfo(arena+hblkhd)
         56955 MiB available memory on the node where the printing process lives
------------------
     ethr =  1.87E-03,  avg # of iterations =  4.0

     total cpu time spent up to now is      123.4 secs

     total energy              =   -5075.50109176 Ry
     estimated scf accuracy    <       3.19343310 Ry

     iteration #  3     ecut=    60.00 Ry     beta= 0.40
     Davidson diagonalization with overlap

---- Real-time Memory Report at c_bands before calling an iterative solver
           573 MiB given to the printing process from OS
             0 MiB allocation reported by mallinfo(arena+hblkhd)
         56989 MiB available memory on the node where the printing process lives
------------------
     ethr =  6.88E-04,  avg # of iterations =  4.8

     total cpu time spent up to now is      182.2 secs

     total energy              =   -5076.03476971 Ry
     estimated scf accuracy    <       0.15696509 Ry

     iteration #  4     ecut=    60.00 Ry     beta= 0.40
     Davidson diagonalization with overlap

---- Real-time Memory Report at c_bands before calling an iterative solver
           590 MiB given to the printing process from OS
             0 MiB allocation reported by mallinfo(arena+hblkhd)
         56905 MiB available memory on the node where the printing process lives
------------------
     ethr =  3.38E-05,  avg # of iterations =  4.5

     total cpu time spent up to now is      237.9 secs

     total energy              =   -5076.03484443 Ry
     estimated scf accuracy    <       0.04986750 Ry

     iteration #  5     ecut=    60.00 Ry     beta= 0.40
     Davidson diagonalization with overlap

---- Real-time Memory Report at c_bands before calling an iterative solver
           630 MiB given to the printing process from OS
             0 MiB allocation reported by mallinfo(arena+hblkhd)
         56819 MiB available memory on the node where the printing process lives
------------------
     ethr =  1.07E-05,  avg # of iterations =  5.6

     total cpu time spent up to now is      314.1 secs

     total energy              =   -5076.04199598 Ry
     estimated scf accuracy    <       0.06669932 Ry

     iteration #  6     ecut=    60.00 Ry     beta= 0.40
     Davidson diagonalization with overlap

---- Real-time Memory Report at c_bands before calling an iterative solver
           725 MiB given to the printing process from OS
             0 MiB allocation reported by mallinfo(arena+hblkhd)
         56448 MiB available memory on the node where the printing process lives
------------------
     ethr =  1.07E-05,  avg # of iterations =  3.0

     total cpu time spent up to now is      363.5 secs

     total energy              =   -5076.04567949 Ry
     estimated scf accuracy    <       0.00505527 Ry

     iteration #  7     ecut=    60.00 Ry     beta= 0.40
     Davidson diagonalization with overlap

---- Real-time Memory Report at c_bands before calling an iterative solver
           725 MiB given to the printing process from OS
             0 MiB allocation reported by mallinfo(arena+hblkhd)
         56476 MiB available memory on the node where the printing process lives
------------------
     ethr =  1.09E-06,  avg # of iterations =  6.1

     total cpu time spent up to now is      438.2 secs

     total energy              =   -5076.04736250 Ry
     estimated scf accuracy    <       0.01091363 Ry

     iteration #  8     ecut=    60.00 Ry     beta= 0.40
     Davidson diagonalization with overlap

---- Real-time Memory Report at c_bands before calling an iterative solver
           783 MiB given to the printing process from OS
             0 MiB allocation reported by mallinfo(arena+hblkhd)
         56262 MiB available memory on the node where the printing process lives
------------------
     ethr =  1.09E-06,  avg # of iterations =  4.5

     total cpu time spent up to now is      494.5 secs

     total energy              =   -5076.04857155 Ry
     estimated scf accuracy    <       0.00030250 Ry

     iteration #  9     ecut=    60.00 Ry     beta= 0.40
     Davidson diagonalization with overlap

---- Real-time Memory Report at c_bands before calling an iterative solver
           789 MiB given to the printing process from OS
             0 MiB allocation reported by mallinfo(arena+hblkhd)
         56201 MiB available memory on the node where the printing process lives
------------------
     ethr =  6.52E-08,  avg # of iterations =  6.0

     total cpu time spent up to now is      568.6 secs

     total energy              =   -5076.04867701 Ry
     estimated scf accuracy    <       0.00020766 Ry

     iteration # 10     ecut=    60.00 Ry     beta= 0.40
     Davidson diagonalization with overlap

---- Real-time Memory Report at c_bands before calling an iterative solver
           848 MiB given to the printing process from OS
             0 MiB allocation reported by mallinfo(arena+hblkhd)
         55935 MiB available memory on the node where the printing process lives
------------------
     ethr =  4.48E-08,  avg # of iterations =  3.0

     total cpu time spent up to now is      618.0 secs

     total energy              =   -5076.04869911 Ry
     estimated scf accuracy    <       0.00000940 Ry

     iteration # 11     ecut=    60.00 Ry     beta= 0.40
     Davidson diagonalization with overlap

---- Real-time Memory Report at c_bands before calling an iterative solver
           848 MiB given to the printing process from OS
             0 MiB allocation reported by mallinfo(arena+hblkhd)
         55981 MiB available memory on the node where the printing process lives
------------------
     ethr =  2.03E-09,  avg # of iterations =  6.0

     total cpu time spent up to now is      691.5 secs

     total energy              =   -5076.04870290 Ry
     estimated scf accuracy    <       0.00000532 Ry

     iteration # 12     ecut=    60.00 Ry     beta= 0.40
     Davidson diagonalization with overlap

---- Real-time Memory Report at c_bands before calling an iterative solver
           876 MiB given to the printing process from OS
             0 MiB allocation reported by mallinfo(arena+hblkhd)
         55872 MiB available memory on the node where the printing process lives
------------------
     ethr =  1.15E-09,  avg # of iterations =  2.8

     total cpu time spent up to now is      739.7 secs

     total energy              =   -5076.04870302 Ry
     estimated scf accuracy    <       0.00000081 Ry

     iteration # 13     ecut=    60.00 Ry     beta= 0.40
     Davidson diagonalization with overlap

---- Real-time Memory Report at c_bands before calling an iterative solver
           876 MiB given to the printing process from OS
             0 MiB allocation reported by mallinfo(arena+hblkhd)
         55826 MiB available memory on the node where the printing process lives
------------------
     ethr =  1.76E-10,  avg # of iterations =  6.0

     total cpu time spent up to now is      806.8 secs

     total energy              =   -5076.04870325 Ry
     estimated scf accuracy    <       0.00000023 Ry

     iteration # 14     ecut=    60.00 Ry     beta= 0.40
     Davidson diagonalization with overlap

---- Real-time Memory Report at c_bands before calling an iterative solver
           876 MiB given to the printing process from OS
             0 MiB allocation reported by mallinfo(arena+hblkhd)
         55841 MiB available memory on the node where the printing process lives
------------------
     ethr =  4.89E-11,  avg # of iterations =  3.9

     total cpu time spent up to now is      859.4 secs

     End of self-consistent calculation

          k = 0.0000 0.0000 0.0000 ( 38233 PWs)   bands (ev):

   -34.8253 -34.8252 -34.8200 -34.8164 -34.8163 -34.8060 -34.8060 -34.8039
   -34.8022 -34.8022 -34.7998 -34.7998 -34.7998 -34.7998 -34.7985 -34.7984
   -34.7963 -34.7962 -34.7962 -34.7961 -34.7961 -34.7929 -34.7929 -34.7929
   -34.7929 -34.7915 -34.7915 -34.7914 -34.7914 -34.7886 -34.7886 -34.7880
   -34.7852 -34.7814 -34.7814 -34.7814 -34.7814 -34.7803 -34.7803 -34.7696
   -11.4322 -11.4322 -11.4163 -11.4136 -11.4119 -11.4119 -11.3566 -11.3566
   -11.3566 -11.3566 -11.3404 -11.3404 -11.3404 -11.3404 -11.2168 -11.2010
   -11.2010 -11.1992 -11.1992 -11.1992 -11.1992 -11.1819 -11.1811 -11.1799
   -11.1799 -11.1785 -11.1778 -11.1778 -11.1753 -11.1753 -11.1753 -11.1753
   -11.1592 -11.1592 -11.1592 -11.1592 -11.1568 -11.1568 -11.1568 -11.1568
   -11.1499 -11.1414 -11.1414 -11.1250 -11.1250 -11.1250 -11.1250 -11.1246
   -11.1246 -11.1245 -11.1245 -11.1226 -11.1226 -11.1139 -11.1069 -11.1050
   -11.1011 -11.1011 -11.1000 -11.1000 -11.0944 -11.0944 -11.0944 -11.0944
   -11.0894 -11.0894 -11.0880 -11.0880 -11.0880 -11.0880 -11.0879 -11.0879
   -11.0869 -11.0869 -11.0869 -11.0869 -11.0846 -11.0846 -11.0789 -11.0768
    -8.3496  -8.3272  -6.8587  -6.8587  -6.8587  -6.8587  -6.8438  -6.8438
    -6.8438  -6.8438  -6.4777  -6.4777  -6.4678  -6.4678  -5.6322  -5.6321
    -1.8647  -1.2526  -0.3839  -0.3839  -0.3838  -0.3838  -0.0380  -0.0380
     0.1674   0.1674   0.2636   0.3819   0.3819   0.6338   0.6338   0.6338
     0.6338   1.3000   1.3000   1.3000   1.3000   1.6025   2.8347   3.5492
     5.5609   5.5609   5.5827   5.5827   5.6638   5.6638   6.1392   6.1392
     6.1559   6.1559   6.1560   6.1560   6.3539   6.3539   6.3540   6.3540
     6.3628   6.3628   7.0069   7.0069   7.0069   7.0069   7.0520   7.0520
     7.0520   7.0520   7.1683   7.1683   7.1683   7.1683   7.5665   7.5665
     7.7722   7.7722   8.3715   8.3860   8.5913   8.5913   8.6729   8.6729
     8.6729   8.6729   8.6913   8.6913   8.7553   9.2631   9.2631   9.3960
     9.4416   9.4416   9.4421   9.4421  10.0395  10.0727  10.0727  10.0727
    10.0727  10.1517  10.1517  10.3263  10.3264  10.5812  10.5812  10.6796
    10.9558  10.9558  10.9558  10.9558  11.1604  11.1604  11.1604  11.1604

     occupation numbers 
     1.0000   1.0000   1.0000   1.0000   1.0000   1.0000   1.0000   1.0000
     1.0000   1.0000   1.0000   1.0000   1.0000   1.0000   1.0000   1.0000
     1.0000   1.0000   1.0000   1.0000   1.0000   1.0000   1.0000   1.0000
     1.0000   1.0000   1.0000   1.0000   1.0000   1.0000   1.0000   1.0000
     1.0000   1.0000   1.0000   1.0000   1.0000   1.0000   1.0000   1.0000
     1.0000   1.0000   1.0000   1.0000   1.0000   1.0000   1.0000   1.0000
     1.0000   1.0000   1.0000   1.0000   1.0000   1.0000   1.0000   1.0000
     1.0000   1.0000   1.0000   1.0000   1.0000   1.0000   1.0000   1.0000
     1.0000   1.0000   1.0000   1.0000   1.0000   1.0000   1.0000   1.0000
     1.0000   1.0000   1.0000   1.0000   1.0000   1.0000   1.0000   1.0000
     1.0000   1.0000   1.0000   1.0000   1.0000   1.0000   1.0000   1.0000
     1.0000   1.0000   1.0000   1.0000   1.0000   1.0000   1.0000   1.0000
     1.0000   1.0000   1.0000   1.0000   1.0000   1.0000   1.0000   1.0000
     1.0000   1.0000   1.0000   1.0000   1.0000   1.0000   1.0000   1.0000
     1.0000   1.0000   1.0000   1.0000   1.0000   1.0000   1.0000   1.0000
     1.0000   1.0000   1.0000   1.0000   1.0000   1.0000   1.0000   1.0000
     1.0000   1.0000   1.0000   1.0000   1.0000   1.0000   1.0000   1.0000
     1.0000   1.0000   1.0000   1.0000   1.0000   1.0000   1.0000   1.0000
     1.0000   1.0000   1.0000   1.0000   1.0000   1.0000   1.0000   1.0000
     1.0000   1.0000   1.0000   1.0000   1.0000   1.0000   1.0000   1.0000
     1.0000   1.0000   1.0000   1.0000   1.0000   1.0000   1.0000   1.0000
     1.0000   1.0000   1.0000   1.0000   1.0000   1.0000   1.0000   1.0000
     1.0000   1.0000   1.0000   1.0000   1.0000   1.0000   1.0000   1.0000
     1.0000   1.0000   1.0000   1.0000   1.0000   1.0000   1.0000   1.0000
     1.0000   1.0000   1.0000   1.0000   1.0000   1.0000   1.0000   1.0000
     1.0000   1.0000   1.0000   1.0000   1.0000   1.0000   1.0000   1.0000
     1.0000   1.0000   1.0000   1.0000   1.0000   1.0000   1.0000   1.0000
     1.0000   1.0000   1.0000   1.0000   1.0000   1.0000   1.0000   1.0000
     1.0000   1.0000   1.0000   1.0000   1.0000   1.0000   1.0000   1.0000

          k = 0.0000 0.0000 0.1065 ( 38305 PWs)   bands (ev):

   -34.8224 -34.8223 -34.8188 -34.8147 -34.8146 -34.8107 -34.8107 -34.8066
   -34.8054 -34.8054 -34.8017 -34.8017 -34.8017 -34.8017 -34.8008 -34.8008
   -34.8007 -34.8007 -34.7981 -34.7981 -34.7975 -34.7975 -34.7974 -34.7967
   -34.7967 -34.7966 -34.7966 -34.7957 -34.7957 -34.7957 -34.7957 -34.7889
   -34.7884 -34.7851 -34.7851 -34.7831 -34.7831 -34.7831 -34.7831 -34.7717
   -11.4310 -11.4310 -11.4162 -11.4138 -11.4134 -11.4134 -11.3564 -11.3564
   -11.3564 -11.3564 -11.3407 -11.3407 -11.3407 -11.3407 -11.2152 -11.1999
   -11.1999 -11.1986 -11.1986 -11.1986 -11.1986 -11.1863 -11.1817 -11.1817
   -11.1810 -11.1787 -11.1774 -11.1774 -11.1752 -11.1752 -11.1752 -11.1752
   -11.1595 -11.1595 -11.1595 -11.1595 -11.1585 -11.1585 -11.1585 -11.1585
   -11.1454 -11.1427 -11.1427 -11.1234 -11.1234 -11.1234 -11.1234 -11.1233
   -11.1233 -11.1228 -11.1228 -11.1207 -11.1207 -11.1156 -11.1068 -11.1051
   -11.1023 -11.1023 -11.1016 -11.1016 -11.0940 -11.0940 -11.0939 -11.0939
   -11.0894 -11.0894 -11.0885 -11.0885 -11.0885 -11.0885 -11.0878 -11.0878
   -11.0873 -11.0873 -11.0873 -11.0873 -11.0849 -11.0849 -11.0787 -11.0769
    -8.3481  -8.3287  -6.8577  -6.8577  -6.8577  -6.8577  -6.8448  -6.8448
    -6.8448  -6.8448  -6.4771  -6.4771  -6.4685  -6.4685  -5.6322  -5.6321
    -1.8350  -1.3142  -0.3828  -0.3828  -0.3828  -0.3828  -0.0291  -0.0291
     0.1474   0.1474   0.3579   0.3935   0.3935   0.6308   0.6308   0.6308
     0.6308   1.3018   1.3018   1.3019   1.3019   1.4904   2.9163   3.5173
     5.5674   5.5674   5.6096   5.6096   5.6563   5.6563   6.0820   6.0820
     6.1100   6.1100   6.1100   6.1100   6.3457   6.3457   6.4371   6.4371
     6.4371   6.4371   7.0077   7.0077   7.0077   7.0077   7.0504   7.0504
     7.0504   7.0504   7.1162   7.1162   7.1162   7.1162   7.5987   7.5987
     7.8718   7.8718   8.3737   8.3840   8.5994   8.5994   8.6852   8.6852
     8.6919   8.6919   8.6919   8.6919   8.7905   9.1393   9.1393   9.3447
     9.4407   9.4407   9.4425   9.4425  10.0610  10.0654  10.0654  10.0654
    10.0654  10.1754  10.1754  10.2978  10.2978  10.5460  10.5460  10.6142
    10.9567  10.9567  10.9567  10.9567  11.1607  11.1607  11.1607  11.1607

     occupation numbers 
     1.0000   1.0000   1.0000   1.0000   1.0000   1.0000   1.0000   1.0000
     1.0000   1.0000   1.0000   1.0000   1.0000   1.0000   1.0000   1.0000
     1.0000   1.0000   1.0000   1.0000   1.0000   1.0000   1.0000   1.0000
     1.0000   1.0000   1.0000   1.0000   1.0000   1.0000   1.0000   1.0000
     1.0000   1.0000   1.0000   1.0000   1.0000   1.0000   1.0000   1.0000
     1.0000   1.0000   1.0000   1.0000   1.0000   1.0000   1.0000   1.0000
     1.0000   1.0000   1.0000   1.0000   1.0000   1.0000   1.0000   1.0000
     1.0000   1.0000   1.0000   1.0000   1.0000   1.0000   1.0000   1.0000
     1.0000   1.0000   1.0000   1.0000   1.0000   1.0000   1.0000   1.0000
     1.0000   1.0000   1.0000   1.0000   1.0000   1.0000   1.0000   1.0000
     1.0000   1.0000   1.0000   1.0000   1.0000   1.0000   1.0000   1.0000
     1.0000   1.0000   1.0000   1.0000   1.0000   1.0000   1.0000   1.0000
     1.0000   1.0000   1.0000   1.0000   1.0000   1.0000   1.0000   1.0000
     1.0000   1.0000   1.0000   1.0000   1.0000   1.0000   1.0000   1.0000
     1.0000   1.0000   1.0000   1.0000   1.0000   1.0000   1.0000   1.0000
     1.0000   1.0000   1.0000   1.0000   1.0000   1.0000   1.0000   1.0000
     1.0000   1.0000   1.0000   1.0000   1.0000   1.0000   1.0000   1.0000
     1.0000   1.0000   1.0000   1.0000   1.0000   1.0000   1.0000   1.0000
     1.0000   1.0000   1.0000   1.0000   1.0000   1.0000   1.0000   1.0000
     1.0000   1.0000   1.0000   1.0000   1.0000   1.0000   1.0000   1.0000
     1.0000   1.0000   1.0000   1.0000   1.0000   1.0000   1.0000   1.0000
     1.0000   1.0000   1.0000   1.0000   1.0000   1.0000   1.0000   1.0000
     1.0000   1.0000   1.0000   1.0000   1.0000   1.0000   1.0000   1.0000
     1.0000   1.0000   1.0000   1.0000   1.0000   1.0000   1.0000   1.0000
     1.0000   1.0000   1.0000   1.0000   1.0000   1.0000   1.0000   1.0000
     1.0000   1.0000   1.0000   1.0000   1.0000   1.0000   1.0000   1.0000
     1.0000   1.0000   1.0000   1.0000   1.0000   1.0000   1.0000   1.0000
     1.0000   1.0000   1.0000   1.0000   1.0000   1.0000   1.0000   1.0000
     1.0000   1.0000   1.0000   1.0000   1.0000   1.0000   1.0000   1.0000

          k = 0.0000 0.0000 0.2129 ( 38296 PWs)   bands (ev):

   -34.8194 -34.8193 -34.8191 -34.8135 -34.8135 -34.8088 -34.8088 -34.8085
   -34.8084 -34.8081 -34.8032 -34.8032 -34.8023 -34.8023 -34.8023 -34.8023
   -34.7997 -34.7997 -34.7997 -34.7997 -34.7989 -34.7989 -34.7989 -34.7989
   -34.7983 -34.7983 -34.7940 -34.7940 -34.7940 -34.7940 -34.7921 -34.7921
   -34.7890 -34.7872 -34.7861 -34.7794 -34.7794 -34.7794 -34.7794 -34.7698
   -11.4275 -11.4275 -11.4173 -11.4173 -11.4157 -11.4143 -11.3560 -11.3560
   -11.3560 -11.3560 -11.3411 -11.3411 -11.3411 -11.3411 -11.2107 -11.1973
   -11.1973 -11.1973 -11.1973 -11.1967 -11.1967 -11.1949 -11.1863 -11.1863
   -11.1804 -11.1792 -11.1769 -11.1769 -11.1749 -11.1749 -11.1749 -11.1749
   -11.1616 -11.1616 -11.1616 -11.1616 -11.1600 -11.1600 -11.1600 -11.1600
   -11.1451 -11.1451 -11.1365 -11.1211 -11.1211 -11.1204 -11.1204 -11.1204
   -11.1204 -11.1202 -11.1181 -11.1181 -11.1160 -11.1160 -11.1064 -11.1059
   -11.1059 -11.1056 -11.1056 -11.1055 -11.0928 -11.0928 -11.0928 -11.0928
   -11.0896 -11.0896 -11.0896 -11.0896 -11.0894 -11.0894 -11.0883 -11.0883
   -11.0883 -11.0883 -11.0878 -11.0878 -11.0853 -11.0853 -11.0783 -11.0773
    -8.3440  -8.3329  -6.8551  -6.8551  -6.8551  -6.8551  -6.8474  -6.8474
    -6.8474  -6.8474  -6.4753  -6.4753  -6.4704  -6.4704  -5.6322  -5.6321
    -1.7487  -1.4572  -0.3807  -0.3807  -0.3807  -0.3807  -0.0045  -0.0045
     0.1044   0.1044   0.4130   0.4130   0.5969   0.6249   0.6249   0.6249
     0.6249   1.2255   1.3055   1.3055   1.3056   1.3056   3.0929   3.4239
     5.5850   5.5850   5.6368   5.6368   5.6869   5.6869   5.9522   5.9522
     6.0557   6.0557   6.0557   6.0557   6.3144   6.3144   6.5984   6.5984
     6.5984   6.5984   6.9835   6.9835   6.9835   6.9835   7.0092   7.0092
     7.0092   7.0092   7.0484   7.0484   7.0484   7.0484   7.6614   7.6614
     8.1302   8.1302   8.3761   8.3810   8.6202   8.6202   8.6688   8.6688
     8.7294   8.7294   8.7294   8.7294   8.8379   8.8379   8.8927   9.2102
     9.4408   9.4408   9.4427   9.4427  10.0502  10.0502  10.0502  10.0502
    10.1412  10.2399  10.2399  10.2432  10.2432  10.4556  10.4556  10.4584
    10.9587  10.9587  10.9587  10.9587  11.1613  11.1613  11.1614  11.1614

     occupation numbers 
     1.0000   1.0000   1.0000   1.0000   1.0000   1.0000   1.0000   1.0000
     1.0000   1.0000   1.0000   1.0000   1.0000   1.0000   1.0000   1.0000
     1.0000   1.0000   1.0000   1.0000   1.0000   1.0000   1.0000   1.0000
     1.0000   1.0000   1.0000   1.0000   1.0000   1.0000   1.0000   1.0000
     1.0000   1.0000   1.0000   1.0000   1.0000   1.0000   1.0000   1.0000
     1.0000   1.0000   1.0000   1.0000   1.0000   1.0000   1.0000   1.0000
     1.0000   1.0000   1.0000   1.0000   1.0000   1.0000   1.0000   1.0000
     1.0000   1.0000   1.0000   1.0000   1.0000   1.0000   1.0000   1.0000
     1.0000   1.0000   1.0000   1.0000   1.0000   1.0000   1.0000   1.0000
     1.0000   1.0000   1.0000   1.0000   1.0000   1.0000   1.0000   1.0000
     1.0000   1.0000   1.0000   1.0000   1.0000   1.0000   1.0000   1.0000
     1.0000   1.0000   1.0000   1.0000   1.0000   1.0000   1.0000   1.0000
     1.0000   1.0000   1.0000   1.0000   1.0000   1.0000   1.0000   1.0000
     1.0000   1.0000   1.0000   1.0000   1.0000   1.0000   1.0000   1.0000
     1.0000   1.0000   1.0000   1.0000   1.0000   1.0000   1.0000   1.0000
     1.0000   1.0000   1.0000   1.0000   1.0000   1.0000   1.0000   1.0000
     1.0000   1.0000   1.0000   1.0000   1.0000   1.0000   1.0000   1.0000
     1.0000   1.0000   1.0000   1.0000   1.0000   1.0000   1.0000   1.0000
     1.0000   1.0000   1.0000   1.0000   1.0000   1.0000   1.0000   1.0000
     1.0000   1.0000   1.0000   1.0000   1.0000   1.0000   1.0000   1.0000
     1.0000   1.0000   1.0000   1.0000   1.0000   1.0000   1.0000   1.0000
     1.0000   1.0000   1.0000   1.0000   1.0000   1.0000   1.0000   1.0000
     1.0000   1.0000   1.0000   1.0000   1.0000   1.0000   1.0000   1.0000
     1.0000   1.0000   1.0000   1.0000   1.0000   1.0000   1.0000   1.0000
     1.0000   1.0000   1.0000   1.0000   1.0000   1.0000   1.0000   1.0000
     1.0000   1.0000   1.0000   1.0000   1.0000   1.0000   1.0000   1.0000
     1.0000   1.0000   1.0000   1.0000   1.0000   1.0000   1.0000   1.0000
     1.0000   1.0000   1.0000   1.0000   1.0000   1.0000   1.0000   1.0000
     1.0000   1.0000   1.0000   1.0000   1.0000   1.0000   1.0000   1.0000

          k = 0.0000 0.0000-0.3194 ( 38240 PWs)   bands (ev):

   -34.8217 -34.8216 -34.8141 -34.8141 -34.8081 -34.8080 -34.8072 -34.8071
   -34.8035 -34.8035 -34.8034 -34.8034 -34.7996 -34.7996 -34.7996 -34.7996
   -34.7995 -34.7995 -34.7995 -34.7995 -34.7986 -34.7986 -34.7985 -34.7985
   -34.7956 -34.7956 -34.7956 -34.7956 -34.7907 -34.7907 -34.7907 -34.7907
   -34.7818 -34.7817 -34.7782 -34.7782 -34.7720 -34.7720 -34.7720 -34.7720
   -11.4225 -11.4225 -11.4225 -11.4225 -11.4150 -11.4150 -11.3558 -11.3558
   -11.3558 -11.3558 -11.3413 -11.3413 -11.3413 -11.3413 -11.2036 -11.2036
   -11.1967 -11.1967 -11.1967 -11.1967 -11.1919 -11.1919 -11.1919 -11.1919
   -11.1798 -11.1798 -11.1766 -11.1766 -11.1747 -11.1747 -11.1747 -11.1747
   -11.1630 -11.1630 -11.1630 -11.1630 -11.1603 -11.1603 -11.1603 -11.1603
   -11.1462 -11.1462 -11.1275 -11.1275 -11.1201 -11.1201 -11.1189 -11.1189
   -11.1189 -11.1189 -11.1119 -11.1119 -11.1119 -11.1119 -11.1104 -11.1104
   -11.1104 -11.1104 -11.1060 -11.1060 -11.0920 -11.0920 -11.0920 -11.0920
   -11.0902 -11.0902 -11.0902 -11.0902 -11.0894 -11.0894 -11.0890 -11.0890
   -11.0890 -11.0890 -11.0878 -11.0878 -11.0856 -11.0856 -11.0778 -11.0778
    -8.3384  -8.3384  -6.8525  -6.8525  -6.8525  -6.8525  -6.8500  -6.8500
    -6.8500  -6.8500  -6.4728  -6.4728  -6.4728  -6.4728  -5.6322  -5.6322
    -1.6157  -1.6157  -0.3797  -0.3797  -0.3796  -0.3796   0.0175   0.0176
     0.0742   0.0742   0.4216   0.4216   0.6221   0.6221   0.6221   0.6221
     0.9063   0.9063   1.3074   1.3074   1.3074   1.3074   3.2764   3.2764
     5.6099   5.6099   5.6099   5.6099   5.8079   5.8079   5.8079   5.8079
     6.0356   6.0356   6.0356   6.0356   6.2994   6.2994   6.7396   6.7396
     6.7396   6.7396   6.8508   6.8508   6.8508   6.8508   7.0102   7.0102
     7.0102   7.0102   7.0477   7.0477   7.0477   7.0477   7.6925   7.6925
     8.3778   8.3778   8.4746   8.4746   8.4746   8.4746   8.6475   8.6475
     8.6475   8.6475   8.7476   8.7476   8.7476   8.7476   9.0441   9.0441
     9.4416   9.4416   9.4417   9.4417  10.0422  10.0422  10.0422  10.0422
    10.2106  10.2107  10.2832  10.2832  10.3439  10.3439  10.3440  10.3440
    10.9600  10.9600  10.9600  10.9600  11.1616  11.1616  11.1617  11.1617

     occupation numbers 
     1.0000   1.0000   1.0000   1.0000   1.0000   1.0000   1.0000   1.0000
     1.0000   1.0000   1.0000   1.0000   1.0000   1.0000   1.0000   1.0000
     1.0000   1.0000   1.0000   1.0000   1.0000   1.0000   1.0000   1.0000
     1.0000   1.0000   1.0000   1.0000   1.0000   1.0000   1.0000   1.0000
     1.0000   1.0000   1.0000   1.0000   1.0000   1.0000   1.0000   1.0000
     1.0000   1.0000   1.0000   1.0000   1.0000   1.0000   1.0000   1.0000
     1.0000   1.0000   1.0000   1.0000   1.0000   1.0000   1.0000   1.0000
     1.0000   1.0000   1.0000   1.0000   1.0000   1.0000   1.0000   1.0000
     1.0000   1.0000   1.0000   1.0000   1.0000   1.0000   1.0000   1.0000
     1.0000   1.0000   1.0000   1.0000   1.0000   1.0000   1.0000   1.0000
     1.0000   1.0000   1.0000   1.0000   1.0000   1.0000   1.0000   1.0000
     1.0000   1.0000   1.0000   1.0000   1.0000   1.0000   1.0000   1.0000
     1.0000   1.0000   1.0000   1.0000   1.0000   1.0000   1.0000   1.0000
     1.0000   1.0000   1.0000   1.0000   1.0000   1.0000   1.0000   1.0000
     1.0000   1.0000   1.0000   1.0000   1.0000   1.0000   1.0000   1.0000
     1.0000   1.0000   1.0000   1.0000   1.0000   1.0000   1.0000   1.0000
     1.0000   1.0000   1.0000   1.0000   1.0000   1.0000   1.0000   1.0000
     1.0000   1.0000   1.0000   1.0000   1.0000   1.0000   1.0000   1.0000
     1.0000   1.0000   1.0000   1.0000   1.0000   1.0000   1.0000   1.0000
     1.0000   1.0000   1.0000   1.0000   1.0000   1.0000   1.0000   1.0000
     1.0000   1.0000   1.0000   1.0000   1.0000   1.0000   1.0000   1.0000
     1.0000   1.0000   1.0000   1.0000   1.0000   1.0000   1.0000   1.0000
     1.0000   1.0000   1.0000   1.0000   1.0000   1.0000   1.0000   1.0000
     1.0000   1.0000   1.0000   1.0000   1.0000   1.0000   1.0000   1.0000
     1.0000   1.0000   1.0000   1.0000   1.0000   1.0000   1.0000   1.0000
     1.0000   1.0000   1.0000   1.0000   1.0000   1.0000   1.0000   1.0000
     1.0000   1.0000   1.0000   1.0000   1.0000   1.0000   1.0000   1.0000
     1.0000   1.0000   1.0000   1.0000   1.0000   1.0000   1.0000   1.0000
     1.0000   1.0000   1.0000   1.0000   1.0000   1.0000   1.0000   1.0000

          k = 0.0000 0.1667 0.0000 ( 38340 PWs)   bands (ev):

   -34.8197 -34.8196 -34.8112 -34.8111 -34.8100 -34.8091 -34.8089 -34.8076
   -34.8076 -34.8073 -34.8064 -34.8053 -34.8053 -34.8048 -34.8046 -34.8046
   -34.8023 -34.8023 -34.8014 -34.8014 -34.8005 -34.7989 -34.7988 -34.7982
   -34.7976 -34.7976 -34.7965 -34.7962 -34.7950 -34.7940 -34.7933 -34.7933
   -34.7922 -34.7901 -34.7900 -34.7895 -34.7830 -34.7824 -34.7821 -34.7820
   -11.4272 -11.4272 -11.4144 -11.4114 -11.4071 -11.4071 -11.3801 -11.3667
   -11.3616 -11.3616 -11.3451 -11.3450 -11.3217 -11.3038 -11.2166 -11.2050
   -11.2001 -11.1977 -11.1967 -11.1967 -11.1935 -11.1828 -11.1824 -11.1793
   -11.1792 -11.1784 -11.1783 -11.1771 -11.1759 -11.1720 -11.1720 -11.1671
   -11.1653 -11.1624 -11.1569 -11.1569 -11.1533 -11.1533 -11.1524 -11.1519
   -11.1471 -11.1411 -11.1411 -11.1356 -11.1352 -11.1285 -11.1285 -11.1272
   -11.1240 -11.1240 -11.1240 -11.1208 -11.1208 -11.1166 -11.1121 -11.1102
   -11.1042 -11.1002 -11.1002 -11.0964 -11.0964 -11.0962 -11.0958 -11.0952
   -11.0939 -11.0939 -11.0930 -11.0928 -11.0927 -11.0898 -11.0898 -11.0879
   -11.0869 -11.0865 -11.0864 -11.0864 -11.0851 -11.0851 -11.0799 -11.0776
    -8.2961  -8.2735  -7.2310  -7.2123  -6.8353  -6.8353  -6.8206  -6.8206
    -6.5057  -6.5057  -6.5004  -6.4954  -6.4954  -6.4898  -5.6643  -5.6639
    -1.8116  -1.2100  -0.6498  -0.4477  -0.3571  -0.3570  -0.0301  -0.0301
     0.1749   0.1749   0.2824   0.4479   0.4479   0.6080   0.6080   0.6150
     0.9394   1.0573   1.2443   1.2443   1.5272   1.7081   2.7977   3.3942
     5.5029   5.5029   5.6082   5.6094   5.6173   5.7076   5.8157   6.0220
     6.0220   6.0272   6.0272   6.0497   6.0497   6.2246   6.4530   6.4530
     6.5651   6.6124   6.6190   6.6733   7.0846   7.1430   7.1431   7.2672
     7.2672   7.3441   7.4036   7.4036   7.4050   7.4448   7.7027   7.7027
     7.9787   7.9787   8.1527   8.1976   8.4122   8.5375   8.5937   8.6304
     8.6562   8.6685   8.6710   8.6710   9.0006   9.2970   9.2970   9.3074
     9.3074   9.3867   9.3867   9.4045   9.9282  10.0449  10.0449  10.0575
    10.1414  10.1676  10.1861  10.1862  10.1958  10.4964  10.6141  10.6692
    10.6985  10.6985  10.8225  10.9155  10.9155  10.9357  11.0301  11.1411

     occupation numbers 
     1.0000   1.0000   1.0000   1.0000   1.0000   1.0000   1.0000   1.0000
     1.0000   1.0000   1.0000   1.0000   1.0000   1.0000   1.0000   1.0000
     1.0000   1.0000   1.0000   1.0000   1.0000   1.0000   1.0000   1.0000
     1.0000   1.0000   1.0000   1.0000   1.0000   1.0000   1.0000   1.0000
     1.0000   1.0000   1.0000   1.0000   1.0000   1.0000   1.0000   1.0000
     1.0000   1.0000   1.0000   1.0000   1.0000   1.0000   1.0000   1.0000
     1.0000   1.0000   1.0000   1.0000   1.0000   1.0000   1.0000   1.0000
     1.0000   1.0000   1.0000   1.0000   1.0000   1.0000   1.0000   1.0000
     1.0000   1.0000   1.0000   1.0000   1.0000   1.0000   1.0000   1.0000
     1.0000   1.0000   1.0000   1.0000   1.0000   1.0000   1.0000   1.0000
     1.0000   1.0000   1.0000   1.0000   1.0000   1.0000   1.0000   1.0000
     1.0000   1.0000   1.0000   1.0000   1.0000   1.0000   1.0000   1.0000
     1.0000   1.0000   1.0000   1.0000   1.0000   1.0000   1.0000   1.0000
     1.0000   1.0000   1.0000   1.0000   1.0000   1.0000   1.0000   1.0000
     1.0000   1.0000   1.0000   1.0000   1.0000   1.0000   1.0000   1.0000
     1.0000   1.0000   1.0000   1.0000   1.0000   1.0000   1.0000   1.0000
     1.0000   1.0000   1.0000   1.0000   1.0000   1.0000   1.0000   1.0000
     1.0000   1.0000   1.0000   1.0000   1.0000   1.0000   1.0000   1.0000
     1.0000   1.0000   1.0000   1.0000   1.0000   1.0000   1.0000   1.0000
     1.0000   1.0000   1.0000   1.0000   1.0000   1.0000   1.0000   1.0000
     1.0000   1.0000   1.0000   1.0000   1.0000   1.0000   1.0000   1.0000
     1.0000   1.0000   1.0000   1.0000   1.0000   1.0000   1.0000   1.0000
     1.0000   1.0000   1.0000   1.0000   1.0000   1.0000   1.0000   1.0000
     1.0000   1.0000   1.0000   1.0000   1.0000   1.0000   1.0000   1.0000
     1.0000   1.0000   1.0000   1.0000   1.0000   1.0000   1.0000   1.0000
     1.0000   1.0000   1.0000   1.0000   1.0000   1.0000   1.0000   1.0000
     1.0000   1.0000   1.0000   1.0000   1.0000   1.0000   1.0000   1.0000
     1.0000   1.0000   1.0000   1.0000   1.0000   1.0000   1.0000   1.0000
     1.0000   1.0000   1.0000   1.0000   1.0000   1.0000   1.0000   1.0000

          k = 0.0000 0.1667 0.1065 ( 38331 PWs)   bands (ev):

   -34.8210 -34.8210 -34.8118 -34.8110 -34.8110 -34.8093 -34.8092 -34.8089
   -34.8089 -34.8063 -34.8058 -34.8058 -34.8055 -34.8037 -34.8037 -34.8028
   -34.8028 -34.8022 -34.8021 -34.8004 -34.7999 -34.7997 -34.7991 -34.7991
   -34.7991 -34.7984 -34.7974 -34.7972 -34.7970 -34.7969 -34.7892 -34.7886
   -34.7886 -34.7865 -34.7865 -34.7862 -34.7856 -34.7823 -34.7821 -34.7786
   -11.4260 -11.4260 -11.4142 -11.4116 -11.4086 -11.4086 -11.3794 -11.3679
   -11.3613 -11.3613 -11.3455 -11.3455 -11.3204 -11.3049 -11.2151 -11.2038
   -11.1990 -11.1966 -11.1962 -11.1962 -11.1937 -11.1872 -11.1818 -11.1810
   -11.1799 -11.1780 -11.1780 -11.1777 -11.1760 -11.1718 -11.1718 -11.1701
   -11.1634 -11.1626 -11.1571 -11.1571 -11.1551 -11.1548 -11.1548 -11.1524
   -11.1435 -11.1425 -11.1425 -11.1329 -11.1328 -11.1268 -11.1268 -11.1256
   -11.1233 -11.1224 -11.1224 -11.1196 -11.1196 -11.1178 -11.1127 -11.1116
   -11.1038 -11.1017 -11.1017 -11.0965 -11.0962 -11.0960 -11.0960 -11.0947
   -11.0937 -11.0937 -11.0929 -11.0928 -11.0926 -11.0904 -11.0904 -11.0887
   -11.0873 -11.0868 -11.0867 -11.0867 -11.0853 -11.0853 -11.0797 -11.0778
    -8.2946  -8.2751  -7.2298  -7.2136  -6.8343  -6.8343  -6.8216  -6.8216
    -6.5050  -6.5050  -6.4996  -6.4960  -6.4960  -6.4905  -5.6642  -5.6639
    -1.7823  -1.2702  -0.6368  -0.4616  -0.3562  -0.3561  -0.0244  -0.0244
     0.1627   0.1627   0.3729   0.4548   0.4548   0.6057   0.6057   0.6217
     0.8528   1.1656   1.2456   1.2456   1.4295   1.6796   2.8623   3.3664
     5.5166   5.5167   5.6124   5.6146   5.6189   5.7005   5.8309   5.9045
     5.9045   5.9880   5.9880   6.1587   6.1816   6.1816   6.4991   6.4991
     6.6230   6.6345   6.6540   6.6693   7.0415   7.0543   7.0543   7.3034
     7.3128   7.3128   7.4024   7.4024   7.4075   7.4423   7.6733   7.6733
     8.0814   8.0814   8.1549   8.1941   8.4664   8.5447   8.6192   8.6242
     8.6549   8.6783   8.6783   8.6790   8.9716   9.1263   9.1263   9.3029
     9.3606   9.3606   9.3858   9.3858  10.0087  10.0394  10.0394  10.0593
    10.1517  10.1698  10.2075  10.2075  10.2192  10.4403  10.5803  10.6579
    10.7142  10.7142  10.8337  10.9074  10.9075  10.9310  11.0376  11.1338

     occupation numbers 
     1.0000   1.0000   1.0000   1.0000   1.0000   1.0000   1.0000   1.0000
     1.0000   1.0000   1.0000   1.0000   1.0000   1.0000   1.0000   1.0000
     1.0000   1.0000   1.0000   1.0000   1.0000   1.0000   1.0000   1.0000
     1.0000   1.0000   1.0000   1.0000   1.0000   1.0000   1.0000   1.0000
     1.0000   1.0000   1.0000   1.0000   1.0000   1.0000   1.0000   1.0000
     1.0000   1.0000   1.0000   1.0000   1.0000   1.0000   1.0000   1.0000
     1.0000   1.0000   1.0000   1.0000   1.0000   1.0000   1.0000   1.0000
     1.0000   1.0000   1.0000   1.0000   1.0000   1.0000   1.0000   1.0000
     1.0000   1.0000   1.0000   1.0000   1.0000   1.0000   1.0000   1.0000
     1.0000   1.0000   1.0000   1.0000   1.0000   1.0000   1.0000   1.0000
     1.0000   1.0000   1.0000   1.0000   1.0000   1.0000   1.0000   1.0000
     1.0000   1.0000   1.0000   1.0000   1.0000   1.0000   1.0000   1.0000
     1.0000   1.0000   1.0000   1.0000   1.0000   1.0000   1.0000   1.0000
     1.0000   1.0000   1.0000   1.0000   1.0000   1.0000   1.0000   1.0000
     1.0000   1.0000   1.0000   1.0000   1.0000   1.0000   1.0000   1.0000
     1.0000   1.0000   1.0000   1.0000   1.0000   1.0000   1.0000   1.0000
     1.0000   1.0000   1.0000   1.0000   1.0000   1.0000   1.0000   1.0000
     1.0000   1.0000   1.0000   1.0000   1.0000   1.0000   1.0000   1.0000
     1.0000   1.0000   1.0000   1.0000   1.0000   1.0000   1.0000   1.0000
     1.0000   1.0000   1.0000   1.0000   1.0000   1.0000   1.0000   1.0000
     1.0000   1.0000   1.0000   1.0000   1.0000   1.0000   1.0000   1.0000
     1.0000   1.0000   1.0000   1.0000   1.0000   1.0000   1.0000   1.0000
     1.0000   1.0000   1.0000   1.0000   1.0000   1.0000   1.0000   1.0000
     1.0000   1.0000   1.0000   1.0000   1.0000   1.0000   1.0000   1.0000
     1.0000   1.0000   1.0000   1.0000   1.0000   1.0000   1.0000   1.0000
     1.0000   1.0000   1.0000   1.0000   1.0000   1.0000   1.0000   1.0000
     1.0000   1.0000   1.0000   1.0000   1.0000   1.0000   1.0000   1.0000
     1.0000   1.0000   1.0000   1.0000   1.0000   1.0000   1.0000   1.0000
     1.0000   1.0000   1.0000   1.0000   1.0000   1.0000   1.0000   1.0000

          k = 0.0000 0.1667 0.2129 ( 38347 PWs)   bands (ev):

   -34.8201 -34.8201 -34.8148 -34.8148 -34.8123 -34.8099 -34.8088 -34.8083
   -34.8071 -34.8070 -34.8057 -34.8056 -34.8056 -34.8052 -34.8051 -34.8045
   -34.8039 -34.8028 -34.8024 -34.8023 -34.8020 -34.8010 -34.8007 -34.7998
   -34.7997 -34.7987 -34.7987 -34.7978 -34.7974 -34.7974 -34.7963 -34.7952
   -34.7922 -34.7867 -34.7855 -34.7844 -34.7844 -34.7822 -34.7769 -34.7727
   -11.4225 -11.4225 -11.4137 -11.4125 -11.4125 -11.4122 -11.3773 -11.3708
   -11.3605 -11.3605 -11.3463 -11.3463 -11.3169 -11.3080 -11.2107 -11.2009
   -11.1958 -11.1955 -11.1952 -11.1952 -11.1948 -11.1936 -11.1857 -11.1838
   -11.1799 -11.1777 -11.1775 -11.1775 -11.1765 -11.1737 -11.1712 -11.1712
   -11.1645 -11.1598 -11.1594 -11.1581 -11.1581 -11.1573 -11.1573 -11.1541
   -11.1448 -11.1448 -11.1358 -11.1278 -11.1275 -11.1236 -11.1236 -11.1225
   -11.1217 -11.1217 -11.1194 -11.1193 -11.1163 -11.1163 -11.1155 -11.1145
   -11.1059 -11.1059 -11.1026 -11.0984 -11.0955 -11.0948 -11.0948 -11.0936
   -11.0936 -11.0933 -11.0930 -11.0930 -11.0918 -11.0918 -11.0917 -11.0908
   -11.0883 -11.0877 -11.0874 -11.0874 -11.0857 -11.0857 -11.0793 -11.0781
    -8.2905  -8.2792  -7.2264  -7.2170  -6.8318  -6.8318  -6.8242  -6.8242
    -6.5032  -6.5032  -6.4980  -6.4980  -6.4977  -6.4925  -5.6642  -5.6640
    -1.6971  -1.4104  -0.6007  -0.4995  -0.3544  -0.3543  -0.0108  -0.0107
     0.1373   0.1373   0.4675   0.4675   0.6011   0.6012   0.6012   0.6439
     0.7552   1.1906   1.2480   1.2480   1.3231   1.5980   3.0063   3.2856
     5.5505   5.5505   5.6175   5.6213   5.6317   5.6818   5.8299   5.8299
     5.8761   5.8824   5.8824   6.0481   6.3531   6.3531   6.5592   6.5592
     6.6326   6.6592   6.7001   6.8174   6.9003   6.9003   6.9480   7.1918
     7.3593   7.3593   7.3982   7.3982   7.4151   7.4357   7.6661   7.6661
     8.1613   8.1831   8.2865   8.2865   8.5640   8.5995   8.6097   8.6450
     8.6530   8.6930   8.6930   8.7563   8.8524   8.8524   8.8859   9.1062
     9.3741   9.3741   9.3841   9.3841  10.0279  10.0279  10.0660  10.1164
    10.1227  10.2250  10.2251  10.2827  10.2860  10.3287  10.4931  10.5867
    10.7519  10.7519  10.8615  10.8848  10.8848  10.9166  11.0581  11.1136

     occupation numbers 
     1.0000   1.0000   1.0000   1.0000   1.0000   1.0000   1.0000   1.0000
     1.0000   1.0000   1.0000   1.0000   1.0000   1.0000   1.0000   1.0000
     1.0000   1.0000   1.0000   1.0000   1.0000   1.0000   1.0000   1.0000
     1.0000   1.0000   1.0000   1.0000   1.0000   1.0000   1.0000   1.0000
     1.0000   1.0000   1.0000   1.0000   1.0000   1.0000   1.0000   1.0000
     1.0000   1.0000   1.0000   1.0000   1.0000   1.0000   1.0000   1.0000
     1.0000   1.0000   1.0000   1.0000   1.0000   1.0000   1.0000   1.0000
     1.0000   1.0000   1.0000   1.0000   1.0000   1.0000   1.0000   1.0000
     1.0000   1.0000   1.0000   1.0000   1.0000   1.0000   1.0000   1.0000
     1.0000   1.0000   1.0000   1.0000   1.0000   1.0000   1.0000   1.0000
     1.0000   1.0000   1.0000   1.0000   1.0000   1.0000   1.0000   1.0000
     1.0000   1.0000   1.0000   1.0000   1.0000   1.0000   1.0000   1.0000
     1.0000   1.0000   1.0000   1.0000   1.0000   1.0000   1.0000   1.0000
     1.0000   1.0000   1.0000   1.0000   1.0000   1.0000   1.0000   1.0000
     1.0000   1.0000   1.0000   1.0000   1.0000   1.0000   1.0000   1.0000
     1.0000   1.0000   1.0000   1.0000   1.0000   1.0000   1.0000   1.0000
     1.0000   1.0000   1.0000   1.0000   1.0000   1.0000   1.0000   1.0000
     1.0000   1.0000   1.0000   1.0000   1.0000   1.0000   1.0000   1.0000
     1.0000   1.0000   1.0000   1.0000   1.0000   1.0000   1.0000   1.0000
     1.0000   1.0000   1.0000   1.0000   1.0000   1.0000   1.0000   1.0000
     1.0000   1.0000   1.0000   1.0000   1.0000   1.0000   1.0000   1.0000
     1.0000   1.0000   1.0000   1.0000   1.0000   1.0000   1.0000   1.0000
     1.0000   1.0000   1.0000   1.0000   1.0000   1.0000   1.0000   1.0000
     1.0000   1.0000   1.0000   1.0000   1.0000   1.0000   1.0000   1.0000
     1.0000   1.0000   1.0000   1.0000   1.0000   1.0000   1.0000   1.0000
     1.0000   1.0000   1.0000   1.0000   1.0000   1.0000   1.0000   1.0000
     1.0000   1.0000   1.0000   1.0000   1.0000   1.0000   1.0000   1.0000
     1.0000   1.0000   1.0000   1.0000   1.0000   1.0000   1.0000   1.0000
     1.0000   1.0000   1.0000   1.0000   1.0000   1.0000   1.0000   1.0000

          k = 0.0000 0.1667-0.3194 ( 38346 PWs)   bands (ev):

   -34.8172 -34.8172 -34.8157 -34.8156 -34.8104 -34.8103 -34.8085 -34.8085
   -34.8067 -34.8067 -34.8064 -34.8063 -34.8059 -34.8058 -34.8040 -34.8039
   -34.8024 -34.8023 -34.8020 -34.8019 -34.8010 -34.8010 -34.8009 -34.8008
   -34.8005 -34.8005 -34.7994 -34.7994 -34.7979 -34.7979 -34.7974 -34.7974
   -34.7896 -34.7896 -34.7828 -34.7828 -34.7824 -34.7824 -34.7777 -34.7777
   -11.4180 -11.4180 -11.4172 -11.4172 -11.4129 -11.4129 -11.3743 -11.3743
   -11.3601 -11.3601 -11.3468 -11.3468 -11.3123 -11.3123 -11.2039 -11.2039
   -11.1973 -11.1973 -11.1947 -11.1947 -11.1911 -11.1911 -11.1890 -11.1890
   -11.1771 -11.1771 -11.1771 -11.1771 -11.1771 -11.1771 -11.1709 -11.1709
   -11.1635 -11.1635 -11.1595 -11.1595 -11.1576 -11.1576 -11.1565 -11.1565
   -11.1459 -11.1459 -11.1279 -11.1279 -11.1239 -11.1239 -11.1220 -11.1220
   -11.1212 -11.1212 -11.1178 -11.1178 -11.1176 -11.1176 -11.1115 -11.1115
   -11.1111 -11.1111 -11.1007 -11.1007 -11.0936 -11.0935 -11.0935 -11.0935
   -11.0935 -11.0935 -11.0932 -11.0932 -11.0931 -11.0931 -11.0917 -11.0917
   -11.0887 -11.0887 -11.0878 -11.0878 -11.0860 -11.0860 -11.0787 -11.0787
    -8.2849  -8.2849  -7.2217  -7.2217  -6.8291  -6.8291  -6.8268  -6.8268
    -6.5006  -6.5006  -6.5005  -6.5005  -6.4951  -6.4951  -5.6641  -5.6641
    -1.5663  -1.5662  -0.5506  -0.5505  -0.3534  -0.3534  -0.0023  -0.0023
     0.1234   0.1235   0.4734   0.4734   0.5989   0.5989   0.6863   0.6863
     0.8937   0.8937   1.2492   1.2492   1.4740   1.4740   3.1599   3.1599
     5.5737   5.5737   5.6211   5.6211   5.6560   5.6560   5.8046   5.8046
     5.8309   5.8309   5.9498   5.9498   6.4557   6.4557   6.5795   6.5795
     6.6458   6.6458   6.7982   6.7982   6.8021   6.8021   7.0330   7.0330
     7.3803   7.3803   7.3910   7.3910   7.4254   7.4254   7.6776   7.6776
     8.1709   8.1709   8.4758   8.4759   8.5879   8.5879   8.6284   8.6285
     8.6505   8.6505   8.7003   8.7003   8.7541   8.7541   8.9108   8.9108
     9.3772   9.3772   9.3833   9.3833  10.0221  10.0221  10.0844  10.0844
    10.2182  10.2182  10.2249  10.2250  10.3845  10.3846  10.4482  10.4482
    10.7781  10.7782  10.8659  10.8660  10.8923  10.8923  11.0859  11.0860

     occupation numbers 
     1.0000   1.0000   1.0000   1.0000   1.0000   1.0000   1.0000   1.0000
     1.0000   1.0000   1.0000   1.0000   1.0000   1.0000   1.0000   1.0000
     1.0000   1.0000   1.0000   1.0000   1.0000   1.0000   1.0000   1.0000
     1.0000   1.0000   1.0000   1.0000   1.0000   1.0000   1.0000   1.0000
     1.0000   1.0000   1.0000   1.0000   1.0000   1.0000   1.0000   1.0000
     1.0000   1.0000   1.0000   1.0000   1.0000   1.0000   1.0000   1.0000
     1.0000   1.0000   1.0000   1.0000   1.0000   1.0000   1.0000   1.0000
     1.0000   1.0000   1.0000   1.0000   1.0000   1.0000   1.0000   1.0000
     1.0000   1.0000   1.0000   1.0000   1.0000   1.0000   1.0000   1.0000
     1.0000   1.0000   1.0000   1.0000   1.0000   1.0000   1.0000   1.0000
     1.0000   1.0000   1.0000   1.0000   1.0000   1.0000   1.0000   1.0000
     1.0000   1.0000   1.0000   1.0000   1.0000   1.0000   1.0000   1.0000
     1.0000   1.0000   1.0000   1.0000   1.0000   1.0000   1.0000   1.0000
     1.0000   1.0000   1.0000   1.0000   1.0000   1.0000   1.0000   1.0000
     1.0000   1.0000   1.0000   1.0000   1.0000   1.0000   1.0000   1.0000
     1.0000   1.0000   1.0000   1.0000   1.0000   1.0000   1.0000   1.0000
     1.0000   1.0000   1.0000   1.0000   1.0000   1.0000   1.0000   1.0000
     1.0000   1.0000   1.0000   1.0000   1.0000   1.0000   1.0000   1.0000
     1.0000   1.0000   1.0000   1.0000   1.0000   1.0000   1.0000   1.0000
     1.0000   1.0000   1.0000   1.0000   1.0000   1.0000   1.0000   1.0000
     1.0000   1.0000   1.0000   1.0000   1.0000   1.0000   1.0000   1.0000
     1.0000   1.0000   1.0000   1.0000   1.0000   1.0000   1.0000   1.0000
     1.0000   1.0000   1.0000   1.0000   1.0000   1.0000   1.0000   1.0000
     1.0000   1.0000   1.0000   1.0000   1.0000   1.0000   1.0000   1.0000
     1.0000   1.0000   1.0000   1.0000   1.0000   1.0000   1.0000   1.0000
     1.0000   1.0000   1.0000   1.0000   1.0000   1.0000   1.0000   1.0000
     1.0000   1.0000   1.0000   1.0000   1.0000   1.0000   1.0000   1.0000
     1.0000   1.0000   1.0000   1.0000   1.0000   1.0000   1.0000   1.0000
     1.0000   1.0000   1.0000   1.0000   1.0000   1.0000   1.0000   1.0000

          k = 0.0000 0.3333 0.0000 ( 38336 PWs)   bands (ev):

   -34.8165 -34.8164 -34.8123 -34.8095 -34.8092 -34.8092 -34.8084 -34.8081
   -34.8073 -34.8068 -34.8060 -34.8057 -34.8053 -34.8052 -34.8048 -34.8045
   -34.8042 -34.8041 -34.8024 -34.8023 -34.8011 -34.8002 -34.8002 -34.7994
   -34.7994 -34.7960 -34.7959 -34.7951 -34.7946 -34.7930 -34.7926 -34.7926
   -34.7915 -34.7909 -34.7908 -34.7908 -34.7866 -34.7827 -34.7794 -34.7791
   -11.4135 -11.4135 -11.4097 -11.4054 -11.3945 -11.3940 -11.3940 -11.3844
   -11.3755 -11.3755 -11.3580 -11.3580 -11.2767 -11.2579 -11.2159 -11.2101
   -11.1975 -11.1906 -11.1906 -11.1895 -11.1884 -11.1882 -11.1876 -11.1803
   -11.1803 -11.1774 -11.1772 -11.1748 -11.1724 -11.1702 -11.1683 -11.1622
   -11.1622 -11.1588 -11.1576 -11.1528 -11.1502 -11.1487 -11.1487 -11.1448
   -11.1448 -11.1432 -11.1429 -11.1412 -11.1412 -11.1388 -11.1366 -11.1355
   -11.1355 -11.1323 -11.1222 -11.1209 -11.1209 -11.1161 -11.1161 -11.1102
   -11.1095 -11.1083 -11.1082 -11.1041 -11.1041 -11.1016 -11.1016 -11.1002
   -11.0989 -11.0989 -11.0958 -11.0945 -11.0933 -11.0933 -11.0910 -11.0903
   -11.0870 -11.0859 -11.0859 -11.0852 -11.0852 -11.0850 -11.0827 -11.0798
    -8.1408  -8.1180  -7.5866  -7.5653  -6.7700  -6.7700  -6.7560  -6.7560
    -6.5801  -6.5801  -6.5685  -6.5685  -6.1856  -6.1792  -5.7636  -5.7624
    -1.6532  -1.0866  -1.0439  -0.6658  -0.2823  -0.2822  -0.0745  -0.0745
     0.2573   0.2573   0.3442   0.5285   0.5285   0.6254   0.6254   0.6581
     0.8159   1.0869   1.0869   1.3303   1.6912   2.1104   2.6752   2.9678
     5.3921   5.3921   5.5325   5.5918   5.6283   5.6283   5.7418   5.7474
     5.8387   5.8578   5.8578   5.8936   5.8936   6.0965   6.2674   6.3348
     6.6626   6.6626   6.9838   7.0458   7.0570   7.0570   7.2345   7.5288
     7.6908   7.6908   7.7856   7.7994   7.8292   7.8950   7.9679   7.9679
     7.9823   7.9823   8.1582   8.2768   8.3310   8.3780   8.4137   8.4137
     8.4514   8.5762   8.6484   8.6484   8.9526   8.9526   9.2536   9.2876
     9.2876   9.4085   9.4278   9.4278   9.9650   9.9876   9.9876  10.0235
    10.0236  10.1240  10.1742  10.1743  10.3170  10.3170  10.3278  10.3383
    10.3540  10.4775  10.5251  10.5725  10.7088  10.7939  10.7943  11.0137

     occupation numbers 
     1.0000   1.0000   1.0000   1.0000   1.0000   1.0000   1.0000   1.0000
     1.0000   1.0000   1.0000   1.0000   1.0000   1.0000   1.0000   1.0000
     1.0000   1.0000   1.0000   1.0000   1.0000   1.0000   1.0000   1.0000
     1.0000   1.0000   1.0000   1.0000   1.0000   1.0000   1.0000   1.0000
     1.0000   1.0000   1.0000   1.0000   1.0000   1.0000   1.0000   1.0000
     1.0000   1.0000   1.0000   1.0000   1.0000   1.0000   1.0000   1.0000
     1.0000   1.0000   1.0000   1.0000   1.0000   1.0000   1.0000   1.0000
     1.0000   1.0000   1.0000   1.0000   1.0000   1.0000   1.0000   1.0000
     1.0000   1.0000   1.0000   1.0000   1.0000   1.0000   1.0000   1.0000
     1.0000   1.0000   1.0000   1.0000   1.0000   1.0000   1.0000   1.0000
     1.0000   1.0000   1.0000   1.0000   1.0000   1.0000   1.0000   1.0000
     1.0000   1.0000   1.0000   1.0000   1.0000   1.0000   1.0000   1.0000
     1.0000   1.0000   1.0000   1.0000   1.0000   1.0000   1.0000   1.0000
     1.0000   1.0000   1.0000   1.0000   1.0000   1.0000   1.0000   1.0000
     1.0000   1.0000   1.0000   1.0000   1.0000   1.0000   1.0000   1.0000
     1.0000   1.0000   1.0000   1.0000   1.0000   1.0000   1.0000   1.0000
     1.0000   1.0000   1.0000   1.0000   1.0000   1.0000   1.0000   1.0000
     1.0000   1.0000   1.0000   1.0000   1.0000   1.0000   1.0000   1.0000
     1.0000   1.0000   1.0000   1.0000   1.0000   1.0000   1.0000   1.0000
     1.0000   1.0000   1.0000   1.0000   1.0000   1.0000   1.0000   1.0000
     1.0000   1.0000   1.0000   1.0000   1.0000   1.0000   1.0000   1.0000
     1.0000   1.0000   1.0000   1.0000   1.0000   1.0000   1.0000   1.0000
     1.0000   1.0000   1.0000   1.0000   1.0000   1.0000   1.0000   1.0000
     1.0000   1.0000   1.0000   1.0000   1.0000   1.0000   1.0000   1.0000
     1.0000   1.0000   1.0000   1.0000   1.0000   1.0000   1.0000   1.0000
     1.0000   1.0000   1.0000   1.0000   1.0000   1.0000   1.0000   1.0000
     1.0000   1.0000   1.0000   1.0000   1.0000   1.0000   1.0000   1.0000
     1.0000   1.0000   1.0000   1.0000   1.0000   1.0000   1.0000   1.0000
     1.0000   1.0000   1.0000   1.0000   1.0000   1.0000   1.0000   1.0000

          k = 0.0000 0.3333 0.1065 ( 38328 PWs)   bands (ev):

   -34.8149 -34.8148 -34.8115 -34.8114 -34.8085 -34.8084 -34.8082 -34.8075
   -34.8071 -34.8058 -34.8047 -34.8047 -34.8042 -34.8038 -34.8035 -34.8034
   -34.8034 -34.8030 -34.8025 -34.8024 -34.8024 -34.8023 -34.8023 -34.7994
   -34.7993 -34.7991 -34.7973 -34.7973 -34.7964 -34.7947 -34.7924 -34.7924
   -34.7923 -34.7894 -34.7884 -34.7884 -34.7831 -34.7825 -34.7793 -34.7780
   -11.4123 -11.4123 -11.4094 -11.4057 -11.3954 -11.3954 -11.3939 -11.3852
   -11.3748 -11.3748 -11.3588 -11.3588 -11.2756 -11.2593 -11.2145 -11.2085
   -11.1964 -11.1921 -11.1902 -11.1902 -11.1895 -11.1876 -11.1870 -11.1800
   -11.1800 -11.1791 -11.1771 -11.1750 -11.1743 -11.1725 -11.1684 -11.1618
   -11.1618 -11.1572 -11.1572 -11.1557 -11.1496 -11.1496 -11.1456 -11.1455
   -11.1455 -11.1440 -11.1435 -11.1429 -11.1429 -11.1358 -11.1351 -11.1336
   -11.1336 -11.1323 -11.1228 -11.1193 -11.1193 -11.1151 -11.1151 -11.1110
   -11.1093 -11.1083 -11.1083 -11.1041 -11.1041 -11.1011 -11.1011 -11.0999
   -11.0999 -11.0996 -11.0955 -11.0952 -11.0941 -11.0940 -11.0916 -11.0900
   -11.0874 -11.0861 -11.0861 -11.0855 -11.0854 -11.0853 -11.0825 -11.0800
    -8.1393  -8.1196  -7.5852  -7.5667  -6.7691  -6.7691  -6.7570  -6.7570
    -6.5793  -6.5793  -6.5693  -6.5693  -6.1852  -6.1796  -5.7635  -5.7624
    -1.6251  -1.1422  -1.0230  -0.6974  -0.2817  -0.2817  -0.0739  -0.0738
     0.2554   0.2554   0.4221   0.5277   0.5278   0.6271   0.6271   0.6759
     0.8100   1.0870   1.0870   1.2652   1.7175   2.0811   2.7022   2.9523
     5.3776   5.3776   5.5484   5.5681   5.5681   5.6166   5.7302   5.7534
     5.8327   5.8917   5.8917   5.9489   5.9489   6.0451   6.2714   6.3299
     6.7132   6.7133   7.0141   7.0141   7.0356   7.0533   7.2180   7.5029
     7.7076   7.7076   7.7890   7.8045   7.8267   7.8888   7.9018   7.9018
     7.9750   7.9750   8.1744   8.2739   8.3833   8.3944   8.4466   8.4635
     8.4635   8.6018   8.6388   8.6388   8.9183   8.9183   9.1846   9.2832
     9.2876   9.2876   9.3852   9.3852   9.9477   9.9477  10.0515  10.0960
    10.0961  10.1333  10.2120  10.2120  10.3124  10.3436  10.3436  10.3500
    10.3838  10.4038  10.5846  10.6067  10.6791  10.7883  10.8083  10.9983

     occupation numbers 
     1.0000   1.0000   1.0000   1.0000   1.0000   1.0000   1.0000   1.0000
     1.0000   1.0000   1.0000   1.0000   1.0000   1.0000   1.0000   1.0000
     1.0000   1.0000   1.0000   1.0000   1.0000   1.0000   1.0000   1.0000
     1.0000   1.0000   1.0000   1.0000   1.0000   1.0000   1.0000   1.0000
     1.0000   1.0000   1.0000   1.0000   1.0000   1.0000   1.0000   1.0000
     1.0000   1.0000   1.0000   1.0000   1.0000   1.0000   1.0000   1.0000
     1.0000   1.0000   1.0000   1.0000   1.0000   1.0000   1.0000   1.0000
     1.0000   1.0000   1.0000   1.0000   1.0000   1.0000   1.0000   1.0000
     1.0000   1.0000   1.0000   1.0000   1.0000   1.0000   1.0000   1.0000
     1.0000   1.0000   1.0000   1.0000   1.0000   1.0000   1.0000   1.0000
     1.0000   1.0000   1.0000   1.0000   1.0000   1.0000   1.0000   1.0000
     1.0000   1.0000   1.0000   1.0000   1.0000   1.0000   1.0000   1.0000
     1.0000   1.0000   1.0000   1.0000   1.0000   1.0000   1.0000   1.0000
     1.0000   1.0000   1.0000   1.0000   1.0000   1.0000   1.0000   1.0000
     1.0000   1.0000   1.0000   1.0000   1.0000   1.0000   1.0000   1.0000
     1.0000   1.0000   1.0000   1.0000   1.0000   1.0000   1.0000   1.0000
     1.0000   1.0000   1.0000   1.0000   1.0000   1.0000   1.0000   1.0000
     1.0000   1.0000   1.0000   1.0000   1.0000   1.0000   1.0000   1.0000
     1.0000   1.0000   1.0000   1.0000   1.0000   1.0000   1.0000   1.0000
     1.0000   1.0000   1.0000   1.0000   1.0000   1.0000   1.0000   1.0000
     1.0000   1.0000   1.0000   1.0000   1.0000   1.0000   1.0000   1.0000
     1.0000   1.0000   1.0000   1.0000   1.0000   1.0000   1.0000   1.0000
     1.0000   1.0000   1.0000   1.0000   1.0000   1.0000   1.0000   1.0000
     1.0000   1.0000   1.0000   1.0000   1.0000   1.0000   1.0000   1.0000
     1.0000   1.0000   1.0000   1.0000   1.0000   1.0000   1.0000   1.0000
     1.0000   1.0000   1.0000   1.0000   1.0000   1.0000   1.0000   1.0000
     1.0000   1.0000   1.0000   1.0000   1.0000   1.0000   1.0000   1.0000
     1.0000   1.0000   1.0000   1.0000   1.0000   1.0000   1.0000   1.0000
     1.0000   1.0000   1.0000   1.0000   1.0000   1.0000   1.0000   1.0000

          k = 0.0000 0.3333 0.2129 ( 38325 PWs)   bands (ev):

   -34.8152 -34.8151 -34.8103 -34.8102 -34.8087 -34.8086 -34.8081 -34.8081
   -34.8064 -34.8063 -34.8049 -34.8039 -34.8032 -34.8032 -34.8026 -34.8025
   -34.8025 -34.8024 -34.8024 -34.8019 -34.8012 -34.8012 -34.7995 -34.7994
   -34.7993 -34.7993 -34.7989 -34.7988 -34.7963 -34.7962 -34.7941 -34.7923
   -34.7923 -34.7893 -34.7893 -34.7872 -34.7833 -34.7812 -34.7796 -34.7793
   -11.4091 -11.4091 -11.4086 -11.4065 -11.3990 -11.3990 -11.3922 -11.3872
   -11.3731 -11.3731 -11.3607 -11.3607 -11.2723 -11.2630 -11.2107 -11.2043
   -11.1981 -11.1934 -11.1933 -11.1895 -11.1895 -11.1851 -11.1851 -11.1836
   -11.1795 -11.1794 -11.1783 -11.1769 -11.1764 -11.1753 -11.1678 -11.1619
   -11.1609 -11.1609 -11.1536 -11.1519 -11.1518 -11.1518 -11.1464 -11.1464
   -11.1462 -11.1454 -11.1452 -11.1452 -11.1403 -11.1331 -11.1315 -11.1309
   -11.1309 -11.1289 -11.1247 -11.1162 -11.1162 -11.1151 -11.1125 -11.1125
   -11.1083 -11.1083 -11.1065 -11.1052 -11.1052 -11.1017 -11.1017 -11.1000
   -11.1000 -11.0983 -11.0980 -11.0960 -11.0960 -11.0937 -11.0933 -11.0900
   -11.0880 -11.0867 -11.0867 -11.0861 -11.0859 -11.0859 -11.0819 -11.0805
    -8.1351  -8.1238  -7.5813  -7.5707  -6.7666  -6.7666  -6.7594  -6.7594
    -6.5772  -6.5772  -6.5715  -6.5715  -6.1840  -6.1808  -5.7633  -5.7626
    -1.5440  -1.2729  -0.9634  -0.7775  -0.2807  -0.2806  -0.0727  -0.0726
     0.2516   0.2517   0.5262   0.5263   0.6170   0.6304   0.6304   0.7170
     0.7916   1.0871   1.0871   1.0927   1.7909   2.0015   2.7673   2.9084
     5.3499   5.3499   5.4957   5.4957   5.5908   5.6881   5.6969   5.7694
     5.8149   5.8892   5.8892   5.9273   6.0934   6.0934   6.2834   6.3171
     6.8207   6.8207   6.9200   6.9200   7.0755   7.1283   7.2062   7.4293
     7.7423   7.7423   7.7875   7.7875   7.7969   7.8190   7.8205   7.8704
     7.9577   7.9577   8.2102   8.2638   8.3983   8.4349   8.5206   8.5206
     8.5589   8.6215   8.6215   8.6867   8.8594   8.8594   9.0075   9.0540
     9.2806   9.2806   9.3447   9.3447   9.8924   9.8924  10.1612  10.1668
    10.2055  10.2055  10.2598  10.2626  10.2626  10.3187  10.3963  10.3963
    10.4125  10.4745  10.6017  10.6159  10.6725  10.7683  10.8470  10.9566

     occupation numbers 
     1.0000   1.0000   1.0000   1.0000   1.0000   1.0000   1.0000   1.0000
     1.0000   1.0000   1.0000   1.0000   1.0000   1.0000   1.0000   1.0000
     1.0000   1.0000   1.0000   1.0000   1.0000   1.0000   1.0000   1.0000
     1.0000   1.0000   1.0000   1.0000   1.0000   1.0000   1.0000   1.0000
     1.0000   1.0000   1.0000   1.0000   1.0000   1.0000   1.0000   1.0000
     1.0000   1.0000   1.0000   1.0000   1.0000   1.0000   1.0000   1.0000
     1.0000   1.0000   1.0000   1.0000   1.0000   1.0000   1.0000   1.0000
     1.0000   1.0000   1.0000   1.0000   1.0000   1.0000   1.0000   1.0000
     1.0000   1.0000   1.0000   1.0000   1.0000   1.0000   1.0000   1.0000
     1.0000   1.0000   1.0000   1.0000   1.0000   1.0000   1.0000   1.0000
     1.0000   1.0000   1.0000   1.0000   1.0000   1.0000   1.0000   1.0000
     1.0000   1.0000   1.0000   1.0000   1.0000   1.0000   1.0000   1.0000
     1.0000   1.0000   1.0000   1.0000   1.0000   1.0000   1.0000   1.0000
     1.0000   1.0000   1.0000   1.0000   1.0000   1.0000   1.0000   1.0000
     1.0000   1.0000   1.0000   1.0000   1.0000   1.0000   1.0000   1.0000
     1.0000   1.0000   1.0000   1.0000   1.0000   1.0000   1.0000   1.0000
     1.0000   1.0000   1.0000   1.0000   1.0000   1.0000   1.0000   1.0000
     1.0000   1.0000   1.0000   1.0000   1.0000   1.0000   1.0000   1.0000
     1.0000   1.0000   1.0000   1.0000   1.0000   1.0000   1.0000   1.0000
     1.0000   1.0000   1.0000   1.0000   1.0000   1.0000   1.0000   1.0000
     1.0000   1.0000   1.0000   1.0000   1.0000   1.0000   1.0000   1.0000
     1.0000   1.0000   1.0000   1.0000   1.0000   1.0000   1.0000   1.0000
     1.0000   1.0000   1.0000   1.0000   1.0000   1.0000   1.0000   1.0000
     1.0000   1.0000   1.0000   1.0000   1.0000   1.0000   1.0000   1.0000
     1.0000   1.0000   1.0000   1.0000   1.0000   1.0000   1.0000   1.0000
     1.0000   1.0000   1.0000   1.0000   1.0000   1.0000   1.0000   1.0000
     1.0000   1.0000   1.0000   1.0000   1.0000   1.0000   1.0000   1.0000
     1.0000   1.0000   1.0000   1.0000   1.0000   1.0000   1.0000   1.0000
     1.0000   1.0000   1.0000   1.0000   1.0000   1.0000   1.0000   1.0000

          k = 0.0000 0.3333-0.3194 ( 38304 PWs)   bands (ev):

   -34.8162 -34.8161 -34.8096 -34.8095 -34.8091 -34.8090 -34.8068 -34.8068
   -34.8056 -34.8056 -34.8046 -34.8046 -34.8040 -34.8039 -34.8014 -34.8014
   -34.8011 -34.8010 -34.7988 -34.7988 -34.7984 -34.7984 -34.7975 -34.7974
   -34.7968 -34.7968 -34.7964 -34.7964 -34.7946 -34.7945 -34.7938 -34.7938
   -34.7928 -34.7927 -34.7866 -34.7866 -34.7843 -34.7843 -34.7789 -34.7788
   -11.4075 -11.4075 -11.4056 -11.4056 -11.4026 -11.4026 -11.3897 -11.3897
   -11.3720 -11.3720 -11.3618 -11.3618 -11.2678 -11.2678 -11.2049 -11.2049
   -11.1988 -11.1988 -11.1891 -11.1891 -11.1889 -11.1888 -11.1821 -11.1821
   -11.1814 -11.1814 -11.1791 -11.1791 -11.1759 -11.1759 -11.1656 -11.1656
   -11.1602 -11.1601 -11.1533 -11.1533 -11.1496 -11.1496 -11.1484 -11.1484
   -11.1467 -11.1467 -11.1461 -11.1461 -11.1358 -11.1358 -11.1297 -11.1297
   -11.1277 -11.1277 -11.1214 -11.1214 -11.1146 -11.1146 -11.1096 -11.1096
   -11.1081 -11.1081 -11.1080 -11.1080 -11.1024 -11.1024 -11.1022 -11.1022
   -11.0987 -11.0987 -11.0977 -11.0977 -11.0957 -11.0957 -11.0916 -11.0916
   -11.0872 -11.0872 -11.0869 -11.0869 -11.0861 -11.0861 -11.0812 -11.0812
    -8.1295  -8.1295  -7.5760  -7.5760  -6.7639  -6.7638  -6.7621  -6.7621
    -6.5746  -6.5746  -6.5741  -6.5741  -6.1824  -6.1824  -5.7629  -5.7629
    -1.4197  -1.4197  -0.8754  -0.8753  -0.2801  -0.2801  -0.0721  -0.0720
     0.2497   0.2497   0.5255   0.5255   0.6320   0.6320   0.7598   0.7598
     0.8597   0.8597   1.0873   1.0873   1.8948   1.8948   2.8428   2.8428
     5.3366   5.3367   5.4690   5.4690   5.6459   5.6459   5.7923   5.7923
     5.7975   5.7975   5.8887   5.8887   6.1650   6.1650   6.2997   6.2997
     6.8655   6.8655   6.8794   6.8794   7.1097   7.1097   7.3163   7.3163
     7.7320   7.7320   7.7607   7.7607   7.8083   7.8083   7.8454   7.8454
     7.9475   7.9475   8.2430   8.2430   8.4171   8.4171   8.5288   8.5288
     8.6134   8.6134   8.7809   8.7809   8.8405   8.8405   8.8417   8.8417
     9.2736   9.2736   9.3388   9.3388   9.8707   9.8707  10.2051  10.2052
    10.2447  10.2447  10.2492  10.2492  10.2829  10.2829  10.4221  10.4221
    10.5035  10.5035  10.5746  10.5746  10.7302  10.7303  10.9011  10.9011

     occupation numbers 
     1.0000   1.0000   1.0000   1.0000   1.0000   1.0000   1.0000   1.0000
     1.0000   1.0000   1.0000   1.0000   1.0000   1.0000   1.0000   1.0000
     1.0000   1.0000   1.0000   1.0000   1.0000   1.0000   1.0000   1.0000
     1.0000   1.0000   1.0000   1.0000   1.0000   1.0000   1.0000   1.0000
     1.0000   1.0000   1.0000   1.0000   1.0000   1.0000   1.0000   1.0000
     1.0000   1.0000   1.0000   1.0000   1.0000   1.0000   1.0000   1.0000
     1.0000   1.0000   1.0000   1.0000   1.0000   1.0000   1.0000   1.0000
     1.0000   1.0000   1.0000   1.0000   1.0000   1.0000   1.0000   1.0000
     1.0000   1.0000   1.0000   1.0000   1.0000   1.0000   1.0000   1.0000
     1.0000   1.0000   1.0000   1.0000   1.0000   1.0000   1.0000   1.0000
     1.0000   1.0000   1.0000   1.0000   1.0000   1.0000   1.0000   1.0000
     1.0000   1.0000   1.0000   1.0000   1.0000   1.0000   1.0000   1.0000
     1.0000   1.0000   1.0000   1.0000   1.0000   1.0000   1.0000   1.0000
     1.0000   1.0000   1.0000   1.0000   1.0000   1.0000   1.0000   1.0000
     1.0000   1.0000   1.0000   1.0000   1.0000   1.0000   1.0000   1.0000
     1.0000   1.0000   1.0000   1.0000   1.0000   1.0000   1.0000   1.0000
     1.0000   1.0000   1.0000   1.0000   1.0000   1.0000   1.0000   1.0000
     1.0000   1.0000   1.0000   1.0000   1.0000   1.0000   1.0000   1.0000
     1.0000   1.0000   1.0000   1.0000   1.0000   1.0000   1.0000   1.0000
     1.0000   1.0000   1.0000   1.0000   1.0000   1.0000   1.0000   1.0000
     1.0000   1.0000   1.0000   1.0000   1.0000   1.0000   1.0000   1.0000
     1.0000   1.0000   1.0000   1.0000   1.0000   1.0000   1.0000   1.0000
     1.0000   1.0000   1.0000   1.0000   1.0000   1.0000   1.0000   1.0000
     1.0000   1.0000   1.0000   1.0000   1.0000   1.0000   1.0000   1.0000
     1.0000   1.0000   1.0000   1.0000   1.0000   1.0000   1.0000   1.0000
     1.0000   1.0000   1.0000   1.0000   1.0000   1.0000   1.0000   1.0000
     1.0000   1.0000   1.0000   1.0000   1.0000   1.0000   1.0000   1.0000
     1.0000   1.0000   1.0000   1.0000   1.0000   1.0000   1.0000   1.0000
     1.0000   1.0000   1.0000   1.0000   1.0000   1.0000   1.0000   1.0000

          k = 0.0000-0.5000 0.0000 ( 38340 PWs)   bands (ev):

   -34.8164 -34.8164 -34.8164 -34.8164 -34.8090 -34.8090 -34.8064 -34.8064
   -34.8053 -34.8053 -34.8046 -34.8046 -34.8046 -34.8046 -34.8031 -34.8031
   -34.8030 -34.8030 -34.8030 -34.8029 -34.8013 -34.8012 -34.7997 -34.7997
   -34.7997 -34.7997 -34.7970 -34.7970 -34.7944 -34.7944 -34.7940 -34.7940
   -34.7939 -34.7939 -34.7936 -34.7936 -34.7791 -34.7791 -34.7783 -34.7783
   -11.4034 -11.4034 -11.3965 -11.3965 -11.3945 -11.3945 -11.3945 -11.3945
   -11.3760 -11.3760 -11.3760 -11.3760 -11.2268 -11.2268 -11.2138 -11.2138
   -11.2082 -11.2082 -11.1935 -11.1935 -11.1844 -11.1844 -11.1844 -11.1844
   -11.1830 -11.1830 -11.1741 -11.1741 -11.1736 -11.1736 -11.1717 -11.1717
   -11.1511 -11.1511 -11.1479 -11.1479 -11.1479 -11.1479 -11.1472 -11.1472
   -11.1465 -11.1465 -11.1434 -11.1434 -11.1434 -11.1434 -11.1328 -11.1328
   -11.1276 -11.1276 -11.1276 -11.1276 -11.1257 -11.1257 -11.1156 -11.1156
   -11.1156 -11.1156 -11.1078 -11.1078 -11.1078 -11.1078 -11.1035 -11.1035
   -11.0973 -11.0973 -11.0969 -11.0969 -11.0969 -11.0969 -11.0881 -11.0881
   -11.0866 -11.0865 -11.0855 -11.0855 -11.0854 -11.0854 -11.0826 -11.0826
    -7.8978  -7.8977  -7.8752  -7.8752  -6.6773  -6.6773  -6.6773  -6.6773
    -6.6644  -6.6644  -6.6644  -6.6644  -5.9368  -5.9368  -5.9335  -5.9335
    -1.3932  -1.3932  -0.8964  -0.8964  -0.1770  -0.1770  -0.1769  -0.1769
     0.4000   0.4000   0.4000   0.4000   0.4633   0.4633   0.8610   0.8610
     0.8610   0.8610   1.0739   1.0739   2.3643   2.3643   2.4460   2.4460
     5.4114   5.4114   5.4114   5.4114   5.5035   5.5035   5.8088   5.8088
     5.8088   5.8088   5.9193   5.9193   5.9712   5.9712   6.0517   6.0517
     6.8904   6.8904   6.8904   6.8904   7.3829   7.3829   7.6088   7.6088
     7.6373   7.6373   7.7289   7.7289   8.0422   8.0422   8.0422   8.0422
     8.1204   8.1204   8.1753   8.1753   8.4286   8.4286   8.4360   8.4360
     8.4360   8.4360   8.6499   8.6499   8.6499   8.6499   9.3737   9.3737
     9.6170   9.6170   9.6170   9.6170   9.7135   9.7135   9.7136   9.7136
     9.9638   9.9638   9.9638   9.9639  10.2621  10.2621  10.2906  10.2906
    10.4541  10.4541  10.5385  10.5385  10.6097  10.6097  10.8517  10.8517

     occupation numbers 
     1.0000   1.0000   1.0000   1.0000   1.0000   1.0000   1.0000   1.0000
     1.0000   1.0000   1.0000   1.0000   1.0000   1.0000   1.0000   1.0000
     1.0000   1.0000   1.0000   1.0000   1.0000   1.0000   1.0000   1.0000
     1.0000   1.0000   1.0000   1.0000   1.0000   1.0000   1.0000   1.0000
     1.0000   1.0000   1.0000   1.0000   1.0000   1.0000   1.0000   1.0000
     1.0000   1.0000   1.0000   1.0000   1.0000   1.0000   1.0000   1.0000
     1.0000   1.0000   1.0000   1.0000   1.0000   1.0000   1.0000   1.0000
     1.0000   1.0000   1.0000   1.0000   1.0000   1.0000   1.0000   1.0000
     1.0000   1.0000   1.0000   1.0000   1.0000   1.0000   1.0000   1.0000
     1.0000   1.0000   1.0000   1.0000   1.0000   1.0000   1.0000   1.0000
     1.0000   1.0000   1.0000   1.0000   1.0000   1.0000   1.0000   1.0000
     1.0000   1.0000   1.0000   1.0000   1.0000   1.0000   1.0000   1.0000
     1.0000   1.0000   1.0000   1.0000   1.0000   1.0000   1.0000   1.0000
     1.0000   1.0000   1.0000   1.0000   1.0000   1.0000   1.0000   1.0000
     1.0000   1.0000   1.0000   1.0000   1.0000   1.0000   1.0000   1.0000
     1.0000   1.0000   1.0000   1.0000   1.0000   1.0000   1.0000   1.0000
     1.0000   1.0000   1.0000   1.0000   1.0000   1.0000   1.0000   1.0000
     1.0000   1.0000   1.0000   1.0000   1.0000   1.0000   1.0000   1.0000
     1.0000   1.0000   1.0000   1.0000   1.0000   1.0000   1.0000   1.0000
     1.0000   1.0000   1.0000   1.0000   1.0000   1.0000   1.0000   1.0000
     1.0000   1.0000   1.0000   1.0000   1.0000   1.0000   1.0000   1.0000
     1.0000   1.0000   1.0000   1.0000   1.0000   1.0000   1.0000   1.0000
     1.0000   1.0000   1.0000   1.0000   1.0000   1.0000   1.0000   1.0000
     1.0000   1.0000   1.0000   1.0000   1.0000   1.0000   1.0000   1.0000
     1.0000   1.0000   1.0000   1.0000   1.0000   1.0000   1.0000   1.0000
     1.0000   1.0000   1.0000   1.0000   1.0000   1.0000   1.0000   1.0000
     1.0000   1.0000   1.0000   1.0000   1.0000   1.0000   1.0000   1.0000
     1.0000   1.0000   1.0000   1.0000   1.0000   1.0000   1.0000   1.0000
     1.0000   1.0000   1.0000   1.0000   1.0000   1.0000   1.0000   1.0000

          k = 0.0000-0.5000 0.1065 ( 38320 PWs)   bands (ev):

   -34.8140 -34.8140 -34.8140 -34.8139 -34.8061 -34.8061 -34.8057 -34.8057
   -34.8057 -34.8057 -34.8035 -34.8035 -34.8025 -34.8025 -34.8024 -34.8024
   -34.8018 -34.8017 -34.8015 -34.8015 -34.8015 -34.8015 -34.8001 -34.8001
   -34.7994 -34.7994 -34.7994 -34.7994 -34.7947 -34.7946 -34.7927 -34.7926
   -34.7924 -34.7924 -34.7924 -34.7924 -34.7814 -34.7814 -34.7772 -34.7772
   -11.4029 -11.4029 -11.3970 -11.3970 -11.3935 -11.3935 -11.3935 -11.3935
   -11.3771 -11.3771 -11.3771 -11.3771 -11.2260 -11.2260 -11.2149 -11.2149
   -11.2069 -11.2069 -11.1925 -11.1925 -11.1857 -11.1857 -11.1841 -11.1841
   -11.1841 -11.1841 -11.1761 -11.1761 -11.1729 -11.1729 -11.1716 -11.1716
   -11.1507 -11.1507 -11.1481 -11.1480 -11.1480 -11.1480 -11.1467 -11.1467
   -11.1456 -11.1456 -11.1437 -11.1437 -11.1437 -11.1437 -11.1334 -11.1334
   -11.1277 -11.1277 -11.1277 -11.1277 -11.1238 -11.1238 -11.1144 -11.1144
   -11.1144 -11.1144 -11.1073 -11.1073 -11.1073 -11.1073 -11.1047 -11.1047
   -11.0979 -11.0979 -11.0979 -11.0979 -11.0967 -11.0967 -11.0888 -11.0888
   -11.0862 -11.0862 -11.0857 -11.0857 -11.0857 -11.0857 -11.0828 -11.0828
    -7.8962  -7.8962  -7.8768  -7.8768  -6.6764  -6.6764  -6.6764  -6.6764
    -6.6653  -6.6653  -6.6653  -6.6653  -5.9366  -5.9366  -5.9338  -5.9338
    -1.3677  -1.3677  -0.9427  -0.9427  -0.1769  -0.1769  -0.1769  -0.1768
     0.4002   0.4002   0.4002   0.4002   0.5186   0.5186   0.8608   0.8609
     0.8609   0.8609   1.0425   1.0425   2.3670   2.3670   2.4372   2.4372
     5.3741   5.3741   5.3741   5.3741   5.5273   5.5273   5.8601   5.8601
     5.8601   5.8601   5.8860   5.8860   5.9766   5.9766   6.0457   6.0457
     6.9011   6.9011   6.9011   6.9011   7.4099   7.4099   7.6046   7.6046
     7.6404   7.6404   7.7178   7.7178   7.9944   7.9944   7.9944   7.9944
     8.1245   8.1245   8.1714   8.1714   8.4278   8.4278   8.4278   8.4278
     8.4759   8.4759   8.6646   8.6646   8.6646   8.6646   9.2773   9.2773
     9.5784   9.5784   9.5784   9.5784   9.6822   9.6822   9.6822   9.6822
    10.0731  10.0731  10.0731  10.0731  10.2921  10.2921  10.2953  10.2953
    10.4746  10.4746  10.5575  10.5575  10.6115  10.6115  10.8285  10.8285

     occupation numbers 
     1.0000   1.0000   1.0000   1.0000   1.0000   1.0000   1.0000   1.0000
     1.0000   1.0000   1.0000   1.0000   1.0000   1.0000   1.0000   1.0000
     1.0000   1.0000   1.0000   1.0000   1.0000   1.0000   1.0000   1.0000
     1.0000   1.0000   1.0000   1.0000   1.0000   1.0000   1.0000   1.0000
     1.0000   1.0000   1.0000   1.0000   1.0000   1.0000   1.0000   1.0000
     1.0000   1.0000   1.0000   1.0000   1.0000   1.0000   1.0000   1.0000
     1.0000   1.0000   1.0000   1.0000   1.0000   1.0000   1.0000   1.0000
     1.0000   1.0000   1.0000   1.0000   1.0000   1.0000   1.0000   1.0000
     1.0000   1.0000   1.0000   1.0000   1.0000   1.0000   1.0000   1.0000
     1.0000   1.0000   1.0000   1.0000   1.0000   1.0000   1.0000   1.0000
     1.0000   1.0000   1.0000   1.0000   1.0000   1.0000   1.0000   1.0000
     1.0000   1.0000   1.0000   1.0000   1.0000   1.0000   1.0000   1.0000
     1.0000   1.0000   1.0000   1.0000   1.0000   1.0000   1.0000   1.0000
     1.0000   1.0000   1.0000   1.0000   1.0000   1.0000   1.0000   1.0000
     1.0000   1.0000   1.0000   1.0000   1.0000   1.0000   1.0000   1.0000
     1.0000   1.0000   1.0000   1.0000   1.0000   1.0000   1.0000   1.0000
     1.0000   1.0000   1.0000   1.0000   1.0000   1.0000   1.0000   1.0000
     1.0000   1.0000   1.0000   1.0000   1.0000   1.0000   1.0000   1.0000
     1.0000   1.0000   1.0000   1.0000   1.0000   1.0000   1.0000   1.0000
     1.0000   1.0000   1.0000   1.0000   1.0000   1.0000   1.0000   1.0000
     1.0000   1.0000   1.0000   1.0000   1.0000   1.0000   1.0000   1.0000
     1.0000   1.0000   1.0000   1.0000   1.0000   1.0000   1.0000   1.0000
     1.0000   1.0000   1.0000   1.0000   1.0000   1.0000   1.0000   1.0000
     1.0000   1.0000   1.0000   1.0000   1.0000   1.0000   1.0000   1.0000
     1.0000   1.0000   1.0000   1.0000   1.0000   1.0000   1.0000   1.0000
     1.0000   1.0000   1.0000   1.0000   1.0000   1.0000   1.0000   1.0000
     1.0000   1.0000   1.0000   1.0000   1.0000   1.0000   1.0000   1.0000
     1.0000   1.0000   1.0000   1.0000   1.0000   1.0000   1.0000   1.0000
     1.0000   1.0000   1.0000   1.0000   1.0000   1.0000   1.0000   1.0000

          k = 0.0000-0.5000 0.2129 ( 38308 PWs)   bands (ev):

   -34.8115 -34.8115 -34.8114 -34.8114 -34.8077 -34.8077 -34.8075 -34.8075
   -34.8050 -34.8049 -34.8033 -34.8033 -34.8031 -34.8031 -34.8031 -34.8031
   -34.8019 -34.8019 -34.8015 -34.8015 -34.7994 -34.7994 -34.7994 -34.7994
   -34.7956 -34.7956 -34.7956 -34.7956 -34.7956 -34.7955 -34.7953 -34.7953
   -34.7890 -34.7890 -34.7890 -34.7890 -34.7853 -34.7853 -34.7803 -34.7803
   -11.4017 -11.4017 -11.3983 -11.3983 -11.3909 -11.3909 -11.3909 -11.3909
   -11.3801 -11.3801 -11.3801 -11.3801 -11.2239 -11.2239 -11.2175 -11.2175
   -11.2033 -11.2033 -11.1915 -11.1915 -11.1897 -11.1897 -11.1835 -11.1834
   -11.1834 -11.1834 -11.1806 -11.1805 -11.1721 -11.1721 -11.1714 -11.1714
   -11.1498 -11.1498 -11.1484 -11.1484 -11.1484 -11.1483 -11.1473 -11.1473
   -11.1442 -11.1442 -11.1442 -11.1442 -11.1420 -11.1420 -11.1354 -11.1354
   -11.1280 -11.1280 -11.1280 -11.1280 -11.1191 -11.1191 -11.1116 -11.1116
   -11.1116 -11.1116 -11.1081 -11.1081 -11.1061 -11.1061 -11.1061 -11.1061
   -11.1005 -11.1005 -11.1005 -11.1005 -11.0950 -11.0950 -11.0905 -11.0905
   -11.0862 -11.0862 -11.0862 -11.0862 -11.0854 -11.0854 -11.0835 -11.0834
    -7.8922  -7.8922  -7.8809  -7.8809  -6.6741  -6.6741  -6.6741  -6.6741
    -6.6676  -6.6676  -6.6676  -6.6676  -5.9360  -5.9360  -5.9344  -5.9344
    -1.2944  -1.2944  -1.0544  -1.0544  -0.1768  -0.1768  -0.1767  -0.1767
     0.4008   0.4008   0.4008   0.4008   0.6539   0.6539   0.8604   0.8604
     0.8604   0.8604   0.9515   0.9515   2.3762   2.3763   2.4161   2.4161
     5.3168   5.3168   5.3168   5.3168   5.5946   5.5946   5.8000   5.8000
     5.9471   5.9471   5.9471   5.9471   5.9903   5.9903   6.0305   6.0305
     6.9256   6.9256   6.9256   6.9256   7.4736   7.4736   7.5867   7.5867
     7.6487   7.6487   7.6899   7.6899   7.9004   7.9004   7.9004   7.9004
     8.1347   8.1347   8.1617   8.1617   8.4115   8.4115   8.4115   8.4115
     8.6122   8.6122   8.6879   8.6879   8.6879   8.6879   9.0591   9.0591
     9.4914   9.4914   9.4914   9.4915   9.7020   9.7020   9.7020   9.7020
    10.2199  10.2200  10.2200  10.2200  10.3065  10.3065  10.3194  10.3194
    10.5343  10.5343  10.6102  10.6102  10.6108  10.6108  10.7668  10.7668

     occupation numbers 
     1.0000   1.0000   1.0000   1.0000   1.0000   1.0000   1.0000   1.0000
     1.0000   1.0000   1.0000   1.0000   1.0000   1.0000   1.0000   1.0000
     1.0000   1.0000   1.0000   1.0000   1.0000   1.0000   1.0000   1.0000
     1.0000   1.0000   1.0000   1.0000   1.0000   1.0000   1.0000   1.0000
     1.0000   1.0000   1.0000   1.0000   1.0000   1.0000   1.0000   1.0000
     1.0000   1.0000   1.0000   1.0000   1.0000   1.0000   1.0000   1.0000
     1.0000   1.0000   1.0000   1.0000   1.0000   1.0000   1.0000   1.0000
     1.0000   1.0000   1.0000   1.0000   1.0000   1.0000   1.0000   1.0000
     1.0000   1.0000   1.0000   1.0000   1.0000   1.0000   1.0000   1.0000
     1.0000   1.0000   1.0000   1.0000   1.0000   1.0000   1.0000   1.0000
     1.0000   1.0000   1.0000   1.0000   1.0000   1.0000   1.0000   1.0000
     1.0000   1.0000   1.0000   1.0000   1.0000   1.0000   1.0000   1.0000
     1.0000   1.0000   1.0000   1.0000   1.0000   1.0000   1.0000   1.0000
     1.0000   1.0000   1.0000   1.0000   1.0000   1.0000   1.0000   1.0000
     1.0000   1.0000   1.0000   1.0000   1.0000   1.0000   1.0000   1.0000
     1.0000   1.0000   1.0000   1.0000   1.0000   1.0000   1.0000   1.0000
     1.0000   1.0000   1.0000   1.0000   1.0000   1.0000   1.0000   1.0000
     1.0000   1.0000   1.0000   1.0000   1.0000   1.0000   1.0000   1.0000
     1.0000   1.0000   1.0000   1.0000   1.0000   1.0000   1.0000   1.0000
     1.0000   1.0000   1.0000   1.0000   1.0000   1.0000   1.0000   1.0000
     1.0000   1.0000   1.0000   1.0000   1.0000   1.0000   1.0000   1.0000
     1.0000   1.0000   1.0000   1.0000   1.0000   1.0000   1.0000   1.0000
     1.0000   1.0000   1.0000   1.0000   1.0000   1.0000   1.0000   1.0000
     1.0000   1.0000   1.0000   1.0000   1.0000   1.0000   1.0000   1.0000
     1.0000   1.0000   1.0000   1.0000   1.0000   1.0000   1.0000   1.0000
     1.0000   1.0000   1.0000   1.0000   1.0000   1.0000   1.0000   1.0000
     1.0000   1.0000   1.0000   1.0000   1.0000   1.0000   1.0000   1.0000
     1.0000   1.0000   1.0000   1.0000   1.0000   1.0000   1.0000   1.0000
     1.0000   1.0000   1.0000   1.0000   1.0000   1.0000   1.0000   1.0000

          k = 0.0000-0.5000-0.3194 ( 38336 PWs)   bands (ev):

   -34.8157 -34.8157 -34.8157 -34.8156 -34.8075 -34.8075 -34.8075 -34.8075
   -34.8063 -34.8063 -34.8063 -34.8062 -34.8042 -34.8042 -34.8042 -34.8042
   -34.7995 -34.7995 -34.7995 -34.7995 -34.7995 -34.7995 -34.7995 -34.7994
   -34.7974 -34.7974 -34.7974 -34.7974 -34.7950 -34.7950 -34.7949 -34.7949
   -34.7933 -34.7933 -34.7933 -34.7933 -34.7823 -34.7823 -34.7822 -34.7822
   -11.4000 -11.4000 -11.4000 -11.4000 -11.3888 -11.3888 -11.3888 -11.3888
   -11.3824 -11.3824 -11.3824 -11.3824 -11.2208 -11.2208 -11.2208 -11.2208
   -11.1978 -11.1978 -11.1978 -11.1978 -11.1855 -11.1855 -11.1855 -11.1855
   -11.1832 -11.1832 -11.1832 -11.1832 -11.1715 -11.1715 -11.1715 -11.1715
   -11.1486 -11.1486 -11.1486 -11.1486 -11.1485 -11.1485 -11.1485 -11.1485
   -11.1445 -11.1445 -11.1445 -11.1445 -11.1384 -11.1384 -11.1384 -11.1384
   -11.1281 -11.1281 -11.1281 -11.1281 -11.1133 -11.1133 -11.1133 -11.1133
   -11.1098 -11.1097 -11.1097 -11.1097 -11.1049 -11.1049 -11.1049 -11.1049
   -11.1031 -11.1030 -11.1030 -11.1030 -11.0928 -11.0928 -11.0928 -11.0928
   -11.0864 -11.0864 -11.0864 -11.0864 -11.0844 -11.0844 -11.0844 -11.0844
    -7.8866  -7.8866  -7.8865  -7.8865  -6.6714  -6.6714  -6.6714  -6.6714
    -6.6704  -6.6704  -6.6704  -6.6704  -5.9352  -5.9352  -5.9352  -5.9352
    -1.1833  -1.1833  -1.1832  -1.1832  -0.1767  -0.1767  -0.1767  -0.1766
     0.4010   0.4010   0.4010   0.4010   0.8131   0.8131   0.8131   0.8131
     0.8601   0.8601   0.8601   0.8601   2.3932   2.3932   2.3932   2.3932
     5.2927   5.2927   5.2927   5.2927   5.6931   5.6931   5.6931   5.6931
     5.9856   5.9856   5.9856   5.9856   6.0104   6.0104   6.0104   6.0104
     6.9398   6.9398   6.9398   6.9398   7.5425   7.5425   7.5425   7.5426
     7.6640   7.6640   7.6640   7.6640   7.8524   7.8524   7.8524   7.8524
     8.1482   8.1482   8.1482   8.1482   8.4025   8.4025   8.4025   8.4025
     8.6972   8.6972   8.6972   8.6972   8.8188   8.8188   8.8188   8.8188
     9.4568   9.4568   9.4568   9.4568   9.7163   9.7163   9.7163   9.7163
    10.2800  10.2800  10.2800  10.2800  10.3184  10.3184  10.3185  10.3185
    10.5884  10.5884  10.5884  10.5885  10.6867  10.6867  10.6867  10.6867

     occupation numbers 
     1.0000   1.0000   1.0000   1.0000   1.0000   1.0000   1.0000   1.0000
     1.0000   1.0000   1.0000   1.0000   1.0000   1.0000   1.0000   1.0000
     1.0000   1.0000   1.0000   1.0000   1.0000   1.0000   1.0000   1.0000
     1.0000   1.0000   1.0000   1.0000   1.0000   1.0000   1.0000   1.0000
     1.0000   1.0000   1.0000   1.0000   1.0000   1.0000   1.0000   1.0000
     1.0000   1.0000   1.0000   1.0000   1.0000   1.0000   1.0000   1.0000
     1.0000   1.0000   1.0000   1.0000   1.0000   1.0000   1.0000   1.0000
     1.0000   1.0000   1.0000   1.0000   1.0000   1.0000   1.0000   1.0000
     1.0000   1.0000   1.0000   1.0000   1.0000   1.0000   1.0000   1.0000
     1.0000   1.0000   1.0000   1.0000   1.0000   1.0000   1.0000   1.0000
     1.0000   1.0000   1.0000   1.0000   1.0000   1.0000   1.0000   1.0000
     1.0000   1.0000   1.0000   1.0000   1.0000   1.0000   1.0000   1.0000
     1.0000   1.0000   1.0000   1.0000   1.0000   1.0000   1.0000   1.0000
     1.0000   1.0000   1.0000   1.0000   1.0000   1.0000   1.0000   1.0000
     1.0000   1.0000   1.0000   1.0000   1.0000   1.0000   1.0000   1.0000
     1.0000   1.0000   1.0000   1.0000   1.0000   1.0000   1.0000   1.0000
     1.0000   1.0000   1.0000   1.0000   1.0000   1.0000   1.0000   1.0000
     1.0000   1.0000   1.0000   1.0000   1.0000   1.0000   1.0000   1.0000
     1.0000   1.0000   1.0000   1.0000   1.0000   1.0000   1.0000   1.0000
     1.0000   1.0000   1.0000   1.0000   1.0000   1.0000   1.0000   1.0000
     1.0000   1.0000   1.0000   1.0000   1.0000   1.0000   1.0000   1.0000
     1.0000   1.0000   1.0000   1.0000   1.0000   1.0000   1.0000   1.0000
     1.0000   1.0000   1.0000   1.0000   1.0000   1.0000   1.0000   1.0000
     1.0000   1.0000   1.0000   1.0000   1.0000   1.0000   1.0000   1.0000
     1.0000   1.0000   1.0000   1.0000   1.0000   1.0000   1.0000   1.0000
     1.0000   1.0000   1.0000   1.0000   1.0000   1.0000   1.0000   1.0000
     1.0000   1.0000   1.0000   1.0000   1.0000   1.0000   1.0000   1.0000
     1.0000   1.0000   1.0000   1.0000   1.0000   1.0000   1.0000   1.0000
     1.0000   1.0000   1.0000   1.0000   1.0000   1.0000   1.0000   1.0000

          k = 0.1667 0.1667 0.0000 ( 38375 PWs)   bands (ev):

   -34.8180 -34.8175 -34.8171 -34.8127 -34.8117 -34.8110 -34.8110 -34.8084
   -34.8084 -34.8075 -34.8068 -34.8055 -34.8055 -34.8054 -34.8053 -34.8040
   -34.8040 -34.8015 -34.8015 -34.8012 -34.8012 -34.8011 -34.7996 -34.7979
   -34.7977 -34.7977 -34.7967 -34.7963 -34.7963 -34.7950 -34.7942 -34.7935
   -34.7926 -34.7907 -34.7903 -34.7903 -34.7898 -34.7898 -34.7896 -34.7885
   -11.4279 -11.4165 -11.4128 -11.4095 -11.4086 -11.3960 -11.3836 -11.3836
   -11.3697 -11.3697 -11.3285 -11.3285 -11.3101 -11.3101 -11.2160 -11.2025
   -11.2025 -11.1991 -11.1947 -11.1911 -11.1911 -11.1812 -11.1811 -11.1791
   -11.1791 -11.1789 -11.1780 -11.1765 -11.1754 -11.1727 -11.1637 -11.1637
   -11.1626 -11.1626 -11.1595 -11.1595 -11.1523 -11.1517 -11.1517 -11.1464
   -11.1464 -11.1445 -11.1434 -11.1383 -11.1346 -11.1346 -11.1338 -11.1329
   -11.1246 -11.1241 -11.1228 -11.1228 -11.1226 -11.1174 -11.1115 -11.1058
   -11.1021 -11.1014 -11.1009 -11.1006 -11.1001 -11.0986 -11.0974 -11.0974
   -11.0962 -11.0962 -11.0955 -11.0948 -11.0948 -11.0936 -11.0898 -11.0898
   -11.0878 -11.0874 -11.0874 -11.0865 -11.0865 -11.0864 -11.0810 -11.0785
    -8.2436  -8.2209  -7.1987  -7.1987  -7.1803  -7.1803  -6.6384  -6.6260
    -6.4877  -6.4877  -6.4773  -6.4773  -6.4249  -6.4158  -5.6938  -5.6932
    -1.7593  -1.1682  -0.6161  -0.6161  -0.4233  -0.4233  -0.0831  -0.0338
     0.0695   0.2982   0.3680   0.4028   0.5795   0.5795   0.6186   0.8979
     0.8979   1.0315   1.0315   1.4546   1.6436   1.6436   2.7573   3.2549
     5.3361   5.4849   5.5697   5.6621   5.6621   5.7049   5.7388   5.7640
     5.8522   5.8838   5.8838   6.1235   6.2458   6.2893   6.2893   6.4728
     6.4728   6.8829   6.9307   6.9307   6.9432   6.9432   7.1725   7.1725
     7.2650   7.2650   7.5503   7.5503   7.6064   7.7577   7.7974   7.7974
     7.9479   7.9843   8.0990   8.3440   8.3511   8.4687   8.4726   8.4828
     8.4828   8.8034   8.8353   8.9699   8.9699   9.0170   9.2682   9.3114
     9.3654   9.4036   9.4075   9.4147   9.8175   9.9745   9.9912   9.9912
    10.1055  10.1727  10.1727  10.2280  10.3532  10.3806  10.4409  10.4409
    10.6109  10.6412  10.6412  10.6775  10.9387  10.9387  11.0929  11.0929

     occupation numbers 
     1.0000   1.0000   1.0000   1.0000   1.0000   1.0000   1.0000   1.0000
     1.0000   1.0000   1.0000   1.0000   1.0000   1.0000   1.0000   1.0000
     1.0000   1.0000   1.0000   1.0000   1.0000   1.0000   1.0000   1.0000
     1.0000   1.0000   1.0000   1.0000   1.0000   1.0000   1.0000   1.0000
     1.0000   1.0000   1.0000   1.0000   1.0000   1.0000   1.0000   1.0000
     1.0000   1.0000   1.0000   1.0000   1.0000   1.0000   1.0000   1.0000
     1.0000   1.0000   1.0000   1.0000   1.0000   1.0000   1.0000   1.0000
     1.0000   1.0000   1.0000   1.0000   1.0000   1.0000   1.0000   1.0000
     1.0000   1.0000   1.0000   1.0000   1.0000   1.0000   1.0000   1.0000
     1.0000   1.0000   1.0000   1.0000   1.0000   1.0000   1.0000   1.0000
     1.0000   1.0000   1.0000   1.0000   1.0000   1.0000   1.0000   1.0000
     1.0000   1.0000   1.0000   1.0000   1.0000   1.0000   1.0000   1.0000
     1.0000   1.0000   1.0000   1.0000   1.0000   1.0000   1.0000   1.0000
     1.0000   1.0000   1.0000   1.0000   1.0000   1.0000   1.0000   1.0000
     1.0000   1.0000   1.0000   1.0000   1.0000   1.0000   1.0000   1.0000
     1.0000   1.0000   1.0000   1.0000   1.0000   1.0000   1.0000   1.0000
     1.0000   1.0000   1.0000   1.0000   1.0000   1.0000   1.0000   1.0000
     1.0000   1.0000   1.0000   1.0000   1.0000   1.0000   1.0000   1.0000
     1.0000   1.0000   1.0000   1.0000   1.0000   1.0000   1.0000   1.0000
     1.0000   1.0000   1.0000   1.0000   1.0000   1.0000   1.0000   1.0000
     1.0000   1.0000   1.0000   1.0000   1.0000   1.0000   1.0000   1.0000
     1.0000   1.0000   1.0000   1.0000   1.0000   1.0000   1.0000   1.0000
     1.0000   1.0000   1.0000   1.0000   1.0000   1.0000   1.0000   1.0000
     1.0000   1.0000   1.0000   1.0000   1.0000   1.0000   1.0000   1.0000
     1.0000   1.0000   1.0000   1.0000   1.0000   1.0000   1.0000   1.0000
     1.0000   1.0000   1.0000   1.0000   1.0000   1.0000   1.0000   1.0000
     1.0000   1.0000   1.0000   1.0000   1.0000   1.0000   1.0000   1.0000
     1.0000   1.0000   1.0000   1.0000   1.0000   1.0000   1.0000   1.0000
     1.0000   1.0000   1.0000   1.0000   1.0000   1.0000   1.0000   1.0000

          k = 0.1667 0.1667 0.1065 ( 38366 PWs)   bands (ev):

   -34.8208 -34.8184 -34.8141 -34.8114 -34.8112 -34.8103 -34.8092 -34.8092
   -34.8077 -34.8077 -34.8066 -34.8055 -34.8055 -34.8040 -34.8040 -34.8035
   -34.8031 -34.8026 -34.8026 -34.8021 -34.8020 -34.8006 -34.8004 -34.8000
   -34.8000 -34.7996 -34.7974 -34.7974 -34.7973 -34.7973 -34.7947 -34.7918
   -34.7910 -34.7900 -34.7900 -34.7887 -34.7869 -34.7869 -34.7867 -34.7827
   -11.4267 -11.4152 -11.4126 -11.4100 -11.4097 -11.3975 -11.3828 -11.3828
   -11.3709 -11.3709 -11.3271 -11.3271 -11.3113 -11.3113 -11.2145 -11.2015
   -11.2015 -11.1981 -11.1937 -11.1914 -11.1914 -11.1867 -11.1808 -11.1806
   -11.1784 -11.1784 -11.1778 -11.1766 -11.1752 -11.1729 -11.1667 -11.1667
   -11.1603 -11.1603 -11.1598 -11.1598 -11.1532 -11.1532 -11.1511 -11.1483
   -11.1483 -11.1443 -11.1406 -11.1404 -11.1347 -11.1316 -11.1316 -11.1301
   -11.1233 -11.1230 -11.1221 -11.1221 -11.1208 -11.1162 -11.1130 -11.1056
   -11.1032 -11.1024 -11.1021 -11.1015 -11.1001 -11.0987 -11.0973 -11.0973
   -11.0956 -11.0956 -11.0954 -11.0944 -11.0944 -11.0938 -11.0905 -11.0905
   -11.0879 -11.0878 -11.0878 -11.0870 -11.0870 -11.0867 -11.0808 -11.0787
    -8.2421  -8.2225  -7.1975  -7.1975  -7.1815  -7.1815  -6.6376  -6.6268
    -6.4869  -6.4869  -6.4780  -6.4780  -6.4243  -6.4164  -5.6937  -5.6932
    -1.7304  -1.2271  -0.6036  -0.6036  -0.4365  -0.4365  -0.0800  -0.0372
     0.0804   0.3050   0.3846   0.4607   0.5868   0.5868   0.6137   0.8189
     0.8189   1.1303   1.1303   1.3691   1.6168   1.6168   2.8081   3.2305
     5.3457   5.4929   5.5666   5.6677   5.6677   5.6754   5.7308   5.7457
     5.8442   5.8524   5.8524   6.1917   6.2387   6.3245   6.3245   6.5204
     6.5204   6.8463   6.9133   6.9133   6.9203   6.9203   7.1255   7.1255
     7.2425   7.2425   7.6052   7.6052   7.6441   7.7933   7.7933   7.8507
     7.9316   7.9584   8.0905   8.3405   8.3496   8.5149   8.5149   8.5158
     8.5363   8.8055   8.8327   8.9346   8.9351   8.9351   9.2037   9.2697
     9.2770   9.2985   9.4049   9.4112   9.9574   9.9958   9.9958  10.0716
    10.1195  10.1517  10.1517  10.2677  10.3336  10.3563  10.4636  10.4636
    10.5069  10.6351  10.6351  10.7340  10.9495  10.9495  11.0831  11.0831

     occupation numbers 
     1.0000   1.0000   1.0000   1.0000   1.0000   1.0000   1.0000   1.0000
     1.0000   1.0000   1.0000   1.0000   1.0000   1.0000   1.0000   1.0000
     1.0000   1.0000   1.0000   1.0000   1.0000   1.0000   1.0000   1.0000
     1.0000   1.0000   1.0000   1.0000   1.0000   1.0000   1.0000   1.0000
     1.0000   1.0000   1.0000   1.0000   1.0000   1.0000   1.0000   1.0000
     1.0000   1.0000   1.0000   1.0000   1.0000   1.0000   1.0000   1.0000
     1.0000   1.0000   1.0000   1.0000   1.0000   1.0000   1.0000   1.0000
     1.0000   1.0000   1.0000   1.0000   1.0000   1.0000   1.0000   1.0000
     1.0000   1.0000   1.0000   1.0000   1.0000   1.0000   1.0000   1.0000
     1.0000   1.0000   1.0000   1.0000   1.0000   1.0000   1.0000   1.0000
     1.0000   1.0000   1.0000   1.0000   1.0000   1.0000   1.0000   1.0000
     1.0000   1.0000   1.0000   1.0000   1.0000   1.0000   1.0000   1.0000
     1.0000   1.0000   1.0000   1.0000   1.0000   1.0000   1.0000   1.0000
     1.0000   1.0000   1.0000   1.0000   1.0000   1.0000   1.0000   1.0000
     1.0000   1.0000   1.0000   1.0000   1.0000   1.0000   1.0000   1.0000
     1.0000   1.0000   1.0000   1.0000   1.0000   1.0000   1.0000   1.0000
     1.0000   1.0000   1.0000   1.0000   1.0000   1.0000   1.0000   1.0000
     1.0000   1.0000   1.0000   1.0000   1.0000   1.0000   1.0000   1.0000
     1.0000   1.0000   1.0000   1.0000   1.0000   1.0000   1.0000   1.0000
     1.0000   1.0000   1.0000   1.0000   1.0000   1.0000   1.0000   1.0000
     1.0000   1.0000   1.0000   1.0000   1.0000   1.0000   1.0000   1.0000
     1.0000   1.0000   1.0000   1.0000   1.0000   1.0000   1.0000   1.0000
     1.0000   1.0000   1.0000   1.0000   1.0000   1.0000   1.0000   1.0000
     1.0000   1.0000   1.0000   1.0000   1.0000   1.0000   1.0000   1.0000
     1.0000   1.0000   1.0000   1.0000   1.0000   1.0000   1.0000   1.0000
     1.0000   1.0000   1.0000   1.0000   1.0000   1.0000   1.0000   1.0000
     1.0000   1.0000   1.0000   1.0000   1.0000   1.0000   1.0000   1.0000
     1.0000   1.0000   1.0000   1.0000   1.0000   1.0000   1.0000   1.0000
     1.0000   1.0000   1.0000   1.0000   1.0000   1.0000   1.0000   1.0000

          k = 0.1667 0.1667 0.2129 ( 38359 PWs)   bands (ev):

   -34.8189 -34.8181 -34.8119 -34.8101 -34.8098 -34.8098 -34.8094 -34.8078
   -34.8076 -34.8076 -34.8069 -34.8068 -34.8058 -34.8051 -34.8051 -34.8048
   -34.8037 -34.8037 -34.8035 -34.8008 -34.8006 -34.8006 -34.8004 -34.8004
   -34.7994 -34.7994 -34.7988 -34.7987 -34.7987 -34.7980 -34.7950 -34.7925
   -34.7909 -34.7896 -34.7892 -34.7892 -34.7889 -34.7854 -34.7811 -34.7811
   -11.4234 -11.4138 -11.4120 -11.4116 -11.4103 -11.4015 -11.3806 -11.3806
   -11.3738 -11.3738 -11.3236 -11.3236 -11.3145 -11.3145 -11.2102 -11.1987
   -11.1987 -11.1952 -11.1951 -11.1927 -11.1927 -11.1909 -11.1852 -11.1816
   -11.1793 -11.1769 -11.1765 -11.1765 -11.1746 -11.1733 -11.1702 -11.1702
   -11.1611 -11.1611 -11.1567 -11.1567 -11.1566 -11.1566 -11.1510 -11.1510
   -11.1467 -11.1456 -11.1437 -11.1374 -11.1323 -11.1265 -11.1265 -11.1258
   -11.1220 -11.1212 -11.1212 -11.1186 -11.1174 -11.1161 -11.1135 -11.1071
   -11.1055 -11.1050 -11.1049 -11.1031 -11.0998 -11.0990 -11.0968 -11.0968
   -11.0951 -11.0943 -11.0943 -11.0942 -11.0935 -11.0935 -11.0925 -11.0925
   -11.0886 -11.0886 -11.0883 -11.0883 -11.0881 -11.0874 -11.0803 -11.0791
    -8.2380  -8.2267  -7.1941  -7.1941  -7.1849  -7.1849  -6.6353  -6.6291
    -6.4850  -6.4850  -6.4799  -6.4799  -6.4226  -6.4181  -5.6936  -5.6933
    -1.6465  -1.3645  -0.5690  -0.5690  -0.4724  -0.4724  -0.0713  -0.0465
     0.1125   0.2301   0.5217   0.5978   0.6022   0.6103   0.6103   0.7236
     0.7236   1.1536   1.2794   1.2794   1.5397   1.5397   2.9250   3.1604
     5.3779   5.5131   5.5425   5.5558   5.6881   5.6881   5.7655   5.7881
     5.7881   5.8067   5.8224   6.0640   6.4216   6.4216   6.4385   6.6041
     6.6041   6.7541   6.8211   6.8211   6.8850   6.8850   7.0969   7.0969
     7.1852   7.1852   7.6904   7.6904   7.7177   7.7796   7.7796   7.8448
     7.9890   8.0640   8.0879   8.3378   8.3451   8.6032   8.6032   8.6330
     8.6643   8.7037   8.8117   8.8268   8.8443   8.8443   8.9705   9.0406
     9.2711   9.2836   9.4060   9.4075  10.0131  10.0131  10.1023  10.1023
    10.1326  10.1597  10.1804  10.2828  10.3011  10.3750  10.4203  10.5167
    10.5167  10.6138  10.6138  10.7216  10.9788  10.9788  11.0557  11.0557

     occupation numbers 
     1.0000   1.0000   1.0000   1.0000   1.0000   1.0000   1.0000   1.0000
     1.0000   1.0000   1.0000   1.0000   1.0000   1.0000   1.0000   1.0000
     1.0000   1.0000   1.0000   1.0000   1.0000   1.0000   1.0000   1.0000
     1.0000   1.0000   1.0000   1.0000   1.0000   1.0000   1.0000   1.0000
     1.0000   1.0000   1.0000   1.0000   1.0000   1.0000   1.0000   1.0000
     1.0000   1.0000   1.0000   1.0000   1.0000   1.0000   1.0000   1.0000
     1.0000   1.0000   1.0000   1.0000   1.0000   1.0000   1.0000   1.0000
     1.0000   1.0000   1.0000   1.0000   1.0000   1.0000   1.0000   1.0000
     1.0000   1.0000   1.0000   1.0000   1.0000   1.0000   1.0000   1.0000
     1.0000   1.0000   1.0000   1.0000   1.0000   1.0000   1.0000   1.0000
     1.0000   1.0000   1.0000   1.0000   1.0000   1.0000   1.0000   1.0000
     1.0000   1.0000   1.0000   1.0000   1.0000   1.0000   1.0000   1.0000
     1.0000   1.0000   1.0000   1.0000   1.0000   1.0000   1.0000   1.0000
     1.0000   1.0000   1.0000   1.0000   1.0000   1.0000   1.0000   1.0000
     1.0000   1.0000   1.0000   1.0000   1.0000   1.0000   1.0000   1.0000
     1.0000   1.0000   1.0000   1.0000   1.0000   1.0000   1.0000   1.0000
     1.0000   1.0000   1.0000   1.0000   1.0000   1.0000   1.0000   1.0000
     1.0000   1.0000   1.0000   1.0000   1.0000   1.0000   1.0000   1.0000
     1.0000   1.0000   1.0000   1.0000   1.0000   1.0000   1.0000   1.0000
     1.0000   1.0000   1.0000   1.0000   1.0000   1.0000   1.0000   1.0000
     1.0000   1.0000   1.0000   1.0000   1.0000   1.0000   1.0000   1.0000
     1.0000   1.0000   1.0000   1.0000   1.0000   1.0000   1.0000   1.0000
     1.0000   1.0000   1.0000   1.0000   1.0000   1.0000   1.0000   1.0000
     1.0000   1.0000   1.0000   1.0000   1.0000   1.0000   1.0000   1.0000
     1.0000   1.0000   1.0000   1.0000   1.0000   1.0000   1.0000   1.0000
     1.0000   1.0000   1.0000   1.0000   1.0000   1.0000   1.0000   1.0000
     1.0000   1.0000   1.0000   1.0000   1.0000   1.0000   1.0000   1.0000
     1.0000   1.0000   1.0000   1.0000   1.0000   1.0000   1.0000   1.0000
     1.0000   1.0000   1.0000   1.0000   1.0000   1.0000   1.0000   1.0000

          k = 0.1667 0.1667-0.3194 ( 38344 PWs)   bands (ev):

   -34.8169 -34.8168 -34.8102 -34.8102 -34.8094 -34.8094 -34.8093 -34.8093
   -34.8076 -34.8076 -34.8055 -34.8055 -34.8055 -34.8055 -34.8050 -34.8050
   -34.8033 -34.8033 -34.8032 -34.8032 -34.7999 -34.7999 -34.7999 -34.7999
   -34.7998 -34.7997 -34.7970 -34.7970 -34.7970 -34.7970 -34.7958 -34.7957
   -34.7867 -34.7866 -34.7852 -34.7852 -34.7852 -34.7852 -34.7851 -34.7851
   -11.4187 -11.4187 -11.4111 -11.4111 -11.4067 -11.4067 -11.3774 -11.3774
   -11.3774 -11.3774 -11.3190 -11.3190 -11.3190 -11.3190 -11.2035 -11.2035
   -11.1954 -11.1954 -11.1954 -11.1954 -11.1905 -11.1905 -11.1866 -11.1866
   -11.1779 -11.1779 -11.1740 -11.1740 -11.1736 -11.1736 -11.1736 -11.1736
   -11.1600 -11.1600 -11.1600 -11.1600 -11.1537 -11.1537 -11.1537 -11.1537
   -11.1456 -11.1456 -11.1416 -11.1416 -11.1241 -11.1241 -11.1227 -11.1226
   -11.1226 -11.1226 -11.1226 -11.1226 -11.1128 -11.1128 -11.1104 -11.1104
   -11.1095 -11.1095 -11.1040 -11.1040 -11.0994 -11.0994 -11.0951 -11.0951
   -11.0950 -11.0950 -11.0946 -11.0946 -11.0930 -11.0930 -11.0930 -11.0930
   -11.0892 -11.0892 -11.0892 -11.0892 -11.0880 -11.0880 -11.0797 -11.0797
    -8.2323  -8.2323  -7.1895  -7.1895  -7.1895  -7.1895  -6.6322  -6.6322
    -6.4825  -6.4825  -6.4825  -6.4825  -6.4204  -6.4204  -5.6935  -5.6935
    -1.5176  -1.5176  -0.5211  -0.5211  -0.5211  -0.5211  -0.0590  -0.0590
     0.1638   0.1638   0.5678   0.5678   0.6542   0.6542   0.6542   0.6542
     0.8784   0.8784   1.4223   1.4223   1.4223   1.4223   3.0532   3.0532
     5.4413   5.4413   5.5372   5.5372   5.7284   5.7284   5.7284   5.7284
     5.7937   5.7937   5.9232   5.9232   6.5525   6.5525   6.5525   6.5525
     6.6187   6.6187   6.8233   6.8233   6.8233   6.8233   7.1254   7.1254
     7.1254   7.1254   7.7487   7.7487   7.7487   7.7487   7.7800   7.7800
     8.0279   8.0279   8.3406   8.3406   8.3951   8.3951   8.7233   8.7233
     8.7233   8.7233   8.7981   8.7982   8.8138   8.8138   8.8197   8.8197
     9.2745   9.2745   9.4069   9.4069  10.0496  10.0496  10.0496  10.0496
    10.2187  10.2188  10.2355  10.2355  10.2661  10.2661  10.5729  10.5729
    10.5729  10.5729  10.6046  10.6046  11.0176  11.0176  11.0177  11.0177

     occupation numbers 
     1.0000   1.0000   1.0000   1.0000   1.0000   1.0000   1.0000   1.0000
     1.0000   1.0000   1.0000   1.0000   1.0000   1.0000   1.0000   1.0000
     1.0000   1.0000   1.0000   1.0000   1.0000   1.0000   1.0000   1.0000
     1.0000   1.0000   1.0000   1.0000   1.0000   1.0000   1.0000   1.0000
     1.0000   1.0000   1.0000   1.0000   1.0000   1.0000   1.0000   1.0000
     1.0000   1.0000   1.0000   1.0000   1.0000   1.0000   1.0000   1.0000
     1.0000   1.0000   1.0000   1.0000   1.0000   1.0000   1.0000   1.0000
     1.0000   1.0000   1.0000   1.0000   1.0000   1.0000   1.0000   1.0000
     1.0000   1.0000   1.0000   1.0000   1.0000   1.0000   1.0000   1.0000
     1.0000   1.0000   1.0000   1.0000   1.0000   1.0000   1.0000   1.0000
     1.0000   1.0000   1.0000   1.0000   1.0000   1.0000   1.0000   1.0000
     1.0000   1.0000   1.0000   1.0000   1.0000   1.0000   1.0000   1.0000
     1.0000   1.0000   1.0000   1.0000   1.0000   1.0000   1.0000   1.0000
     1.0000   1.0000   1.0000   1.0000   1.0000   1.0000   1.0000   1.0000
     1.0000   1.0000   1.0000   1.0000   1.0000   1.0000   1.0000   1.0000
     1.0000   1.0000   1.0000   1.0000   1.0000   1.0000   1.0000   1.0000
     1.0000   1.0000   1.0000   1.0000   1.0000   1.0000   1.0000   1.0000
     1.0000   1.0000   1.0000   1.0000   1.0000   1.0000   1.0000   1.0000
     1.0000   1.0000   1.0000   1.0000   1.0000   1.0000   1.0000   1.0000
     1.0000   1.0000   1.0000   1.0000   1.0000   1.0000   1.0000   1.0000
     1.0000   1.0000   1.0000   1.0000   1.0000   1.0000   1.0000   1.0000
     1.0000   1.0000   1.0000   1.0000   1.0000   1.0000   1.0000   1.0000
     1.0000   1.0000   1.0000   1.0000   1.0000   1.0000   1.0000   1.0000
     1.0000   1.0000   1.0000   1.0000   1.0000   1.0000   1.0000   1.0000
     1.0000   1.0000   1.0000   1.0000   1.0000   1.0000   1.0000   1.0000
     1.0000   1.0000   1.0000   1.0000   1.0000   1.0000   1.0000   1.0000
     1.0000   1.0000   1.0000   1.0000   1.0000   1.0000   1.0000   1.0000
     1.0000   1.0000   1.0000   1.0000   1.0000   1.0000   1.0000   1.0000
     1.0000   1.0000   1.0000   1.0000   1.0000   1.0000   1.0000   1.0000

          k = 0.1667 0.3333 0.0000 ( 38357 PWs)   bands (ev):

   -34.8149 -34.8125 -34.8116 -34.8112 -34.8109 -34.8102 -34.8090 -34.8085
   -34.8076 -34.8068 -34.8065 -34.8063 -34.8062 -34.8051 -34.8048 -34.8046
   -34.8042 -34.8033 -34.8016 -34.8015 -34.8005 -34.7998 -34.7997 -34.7989
   -34.7985 -34.7983 -34.7977 -34.7974 -34.7973 -34.7951 -34.7950 -34.7942
   -34.7928 -34.7918 -34.7916 -34.7894 -34.7891 -34.7875 -34.7830 -34.7816
   -11.4199 -11.4090 -11.4041 -11.4019 -11.3968 -11.3964 -11.3932 -11.3858
   -11.3782 -11.3764 -11.3469 -11.3277 -11.2853 -11.2659 -11.2144 -11.2078
   -11.1966 -11.1957 -11.1925 -11.1861 -11.1858 -11.1853 -11.1851 -11.1850
   -11.1773 -11.1766 -11.1765 -11.1753 -11.1744 -11.1689 -11.1678 -11.1657
   -11.1639 -11.1577 -11.1555 -11.1545 -11.1544 -11.1517 -11.1505 -11.1498
   -11.1459 -11.1420 -11.1399 -11.1395 -11.1372 -11.1369 -11.1358 -11.1315
   -11.1304 -11.1304 -11.1288 -11.1194 -11.1187 -11.1154 -11.1137 -11.1135
   -11.1119 -11.1096 -11.1089 -11.1069 -11.1040 -11.1037 -11.1032 -11.0997
   -11.0993 -11.0988 -11.0985 -11.0963 -11.0947 -11.0946 -11.0936 -11.0919
   -11.0898 -11.0896 -11.0886 -11.0868 -11.0863 -11.0861 -11.0840 -11.0808
    -8.0912  -8.0684  -7.5472  -7.5260  -7.1063  -7.0886  -6.8017  -6.7871
    -6.4550  -6.4452  -6.4002  -6.3914  -6.1850  -6.1787  -5.7860  -5.7846
    -1.6034  -1.0474  -1.0039  -0.6363  -0.5193  -0.3552  -0.2004  -0.1607
     0.1746   0.3509   0.4758   0.4776   0.5861   0.6337   0.7696   0.7822
     0.8843   0.9467   1.2644   1.4592   1.6500   2.0445   2.6257   2.8639
     5.2648   5.3559   5.4199   5.4692   5.5225   5.5261   5.6082   5.6610
     5.7931   5.8807   5.9537   6.0575   6.2763   6.3009   6.3306   6.5794
     6.6004   6.7101   6.9366   7.0491   7.0592   7.0839   7.3099   7.3993
     7.4333   7.6037   7.6460   7.7239   7.7311   7.7352   7.7603   7.9073
     7.9305   8.1182   8.1210   8.1790   8.2863   8.3827   8.5327   8.6048
     8.6578   8.7617   8.8393   8.8634   9.0242   9.1637   9.1927   9.2177
     9.3797   9.3992   9.4235   9.5802   9.6550   9.8320   9.9519   9.9866
     9.9987  10.0223  10.1964  10.2039  10.2223  10.3062  10.3417  10.3579
    10.3989  10.4048  10.4115  10.4984  10.7134  10.8273  11.0317  11.0392

     occupation numbers 
     1.0000   1.0000   1.0000   1.0000   1.0000   1.0000   1.0000   1.0000
     1.0000   1.0000   1.0000   1.0000   1.0000   1.0000   1.0000   1.0000
     1.0000   1.0000   1.0000   1.0000   1.0000   1.0000   1.0000   1.0000
     1.0000   1.0000   1.0000   1.0000   1.0000   1.0000   1.0000   1.0000
     1.0000   1.0000   1.0000   1.0000   1.0000   1.0000   1.0000   1.0000
     1.0000   1.0000   1.0000   1.0000   1.0000   1.0000   1.0000   1.0000
     1.0000   1.0000   1.0000   1.0000   1.0000   1.0000   1.0000   1.0000
     1.0000   1.0000   1.0000   1.0000   1.0000   1.0000   1.0000   1.0000
     1.0000   1.0000   1.0000   1.0000   1.0000   1.0000   1.0000   1.0000
     1.0000   1.0000   1.0000   1.0000   1.0000   1.0000   1.0000   1.0000
     1.0000   1.0000   1.0000   1.0000   1.0000   1.0000   1.0000   1.0000
     1.0000   1.0000   1.0000   1.0000   1.0000   1.0000   1.0000   1.0000
     1.0000   1.0000   1.0000   1.0000   1.0000   1.0000   1.0000   1.0000
     1.0000   1.0000   1.0000   1.0000   1.0000   1.0000   1.0000   1.0000
     1.0000   1.0000   1.0000   1.0000   1.0000   1.0000   1.0000   1.0000
     1.0000   1.0000   1.0000   1.0000   1.0000   1.0000   1.0000   1.0000
     1.0000   1.0000   1.0000   1.0000   1.0000   1.0000   1.0000   1.0000
     1.0000   1.0000   1.0000   1.0000   1.0000   1.0000   1.0000   1.0000
     1.0000   1.0000   1.0000   1.0000   1.0000   1.0000   1.0000   1.0000
     1.0000   1.0000   1.0000   1.0000   1.0000   1.0000   1.0000   1.0000
     1.0000   1.0000   1.0000   1.0000   1.0000   1.0000   1.0000   1.0000
     1.0000   1.0000   1.0000   1.0000   1.0000   1.0000   1.0000   1.0000
     1.0000   1.0000   1.0000   1.0000   1.0000   1.0000   1.0000   1.0000
     1.0000   1.0000   1.0000   1.0000   1.0000   1.0000   1.0000   1.0000
     1.0000   1.0000   1.0000   1.0000   1.0000   1.0000   1.0000   1.0000
     1.0000   1.0000   1.0000   1.0000   1.0000   1.0000   1.0000   1.0000
     1.0000   1.0000   1.0000   1.0000   1.0000   1.0000   1.0000   1.0000
     1.0000   1.0000   1.0000   1.0000   1.0000   1.0000   1.0000   1.0000
     1.0000   1.0000   1.0000   1.0000   1.0000   1.0000   1.0000   1.0000

          k = 0.1667 0.3333 0.1065 ( 38348 PWs)   bands (ev):

   -34.8156 -34.8122 -34.8113 -34.8107 -34.8091 -34.8084 -34.8082 -34.8075
   -34.8073 -34.8071 -34.8065 -34.8062 -34.8058 -34.8051 -34.8033 -34.8032
   -34.8027 -34.8025 -34.8024 -34.8020 -34.8017 -34.8005 -34.7998 -34.7992
   -34.7987 -34.7974 -34.7971 -34.7970 -34.7965 -34.7951 -34.7935 -34.7931
   -34.7922 -34.7920 -34.7906 -34.7903 -34.7892 -34.7884 -34.7837 -34.7828
   -11.4188 -11.4086 -11.4045 -11.4032 -11.3957 -11.3954 -11.3923 -11.3866
   -11.3794 -11.3779 -11.3455 -11.3290 -11.2841 -11.2674 -11.2132 -11.2063
   -11.1956 -11.1947 -11.1939 -11.1876 -11.1856 -11.1856 -11.1845 -11.1843
   -11.1801 -11.1780 -11.1769 -11.1744 -11.1744 -11.1698 -11.1683 -11.1657
   -11.1633 -11.1580 -11.1575 -11.1554 -11.1539 -11.1528 -11.1495 -11.1467
   -11.1464 -11.1431 -11.1419 -11.1416 -11.1371 -11.1342 -11.1339 -11.1303
   -11.1296 -11.1282 -11.1272 -11.1186 -11.1179 -11.1151 -11.1144 -11.1133
   -11.1112 -11.1103 -11.1088 -11.1071 -11.1039 -11.1032 -11.1029 -11.1003
   -11.0998 -11.0992 -11.0978 -11.0963 -11.0958 -11.0953 -11.0944 -11.0916
   -11.0899 -11.0898 -11.0891 -11.0872 -11.0868 -11.0864 -11.0838 -11.0810
    -8.0897  -8.0700  -7.5458  -7.5275  -7.1051  -7.0898  -6.8007  -6.7881
    -6.4543  -6.4458  -6.3996  -6.3920  -6.1846  -6.1791  -5.7859  -5.7846
    -1.5758  -1.1017  -0.9835  -0.6669  -0.5085  -0.3663  -0.1973  -0.1630
     0.1855   0.4219   0.4250   0.4861   0.6398   0.6494   0.7185   0.7647
     0.8735   1.0243   1.2068   1.4368   1.6751   2.0172   2.6460   2.8504
     5.2629   5.3740   5.4411   5.4421   5.4507   5.5018   5.5930   5.7550
     5.7629   5.9432   5.9596   6.0496   6.2332   6.3509   6.3615   6.5698
     6.5898   6.7343   6.9613   7.0057   7.0334   7.0669   7.2483   7.3842
     7.4345   7.5446   7.6570   7.6862   7.7579   7.8222   7.8508   7.9315
     8.0119   8.0305   8.1725   8.2316   8.2493   8.3649   8.5552   8.5673
     8.6590   8.7574   8.8291   8.8405   9.0402   9.1436   9.1505   9.1886
     9.2753   9.3749   9.3907   9.4414   9.8170   9.8699   9.9360  10.0252
    10.0337  10.0413  10.1910  10.1955  10.2413  10.3006  10.3280  10.3468
    10.3928  10.3966  10.4844  10.5235  10.7160  10.8392  11.0387  11.0421

     occupation numbers 
     1.0000   1.0000   1.0000   1.0000   1.0000   1.0000   1.0000   1.0000
     1.0000   1.0000   1.0000   1.0000   1.0000   1.0000   1.0000   1.0000
     1.0000   1.0000   1.0000   1.0000   1.0000   1.0000   1.0000   1.0000
     1.0000   1.0000   1.0000   1.0000   1.0000   1.0000   1.0000   1.0000
     1.0000   1.0000   1.0000   1.0000   1.0000   1.0000   1.0000   1.0000
     1.0000   1.0000   1.0000   1.0000   1.0000   1.0000   1.0000   1.0000
     1.0000   1.0000   1.0000   1.0000   1.0000   1.0000   1.0000   1.0000
     1.0000   1.0000   1.0000   1.0000   1.0000   1.0000   1.0000   1.0000
     1.0000   1.0000   1.0000   1.0000   1.0000   1.0000   1.0000   1.0000
     1.0000   1.0000   1.0000   1.0000   1.0000   1.0000   1.0000   1.0000
     1.0000   1.0000   1.0000   1.0000   1.0000   1.0000   1.0000   1.0000
     1.0000   1.0000   1.0000   1.0000   1.0000   1.0000   1.0000   1.0000
     1.0000   1.0000   1.0000   1.0000   1.0000   1.0000   1.0000   1.0000
     1.0000   1.0000   1.0000   1.0000   1.0000   1.0000   1.0000   1.0000
     1.0000   1.0000   1.0000   1.0000   1.0000   1.0000   1.0000   1.0000
     1.0000   1.0000   1.0000   1.0000   1.0000   1.0000   1.0000   1.0000
     1.0000   1.0000   1.0000   1.0000   1.0000   1.0000   1.0000   1.0000
     1.0000   1.0000   1.0000   1.0000   1.0000   1.0000   1.0000   1.0000
     1.0000   1.0000   1.0000   1.0000   1.0000   1.0000   1.0000   1.0000
     1.0000   1.0000   1.0000   1.0000   1.0000   1.0000   1.0000   1.0000
     1.0000   1.0000   1.0000   1.0000   1.0000   1.0000   1.0000   1.0000
     1.0000   1.0000   1.0000   1.0000   1.0000   1.0000   1.0000   1.0000
     1.0000   1.0000   1.0000   1.0000   1.0000   1.0000   1.0000   1.0000
     1.0000   1.0000   1.0000   1.0000   1.0000   1.0000   1.0000   1.0000
     1.0000   1.0000   1.0000   1.0000   1.0000   1.0000   1.0000   1.0000
     1.0000   1.0000   1.0000   1.0000   1.0000   1.0000   1.0000   1.0000
     1.0000   1.0000   1.0000   1.0000   1.0000   1.0000   1.0000   1.0000
     1.0000   1.0000   1.0000   1.0000   1.0000   1.0000   1.0000   1.0000
     1.0000   1.0000   1.0000   1.0000   1.0000   1.0000   1.0000   1.0000

          k = 0.1667 0.3333 0.2129 ( 38346 PWs)   bands (ev):

   -34.8151 -34.8126 -34.8123 -34.8097 -34.8092 -34.8085 -34.8075 -34.8072
   -34.8066 -34.8063 -34.8062 -34.8053 -34.8035 -34.8035 -34.8034 -34.8032
   -34.8028 -34.8023 -34.8018 -34.8016 -34.8011 -34.8002 -34.7994 -34.7993
   -34.7992 -34.7978 -34.7974 -34.7973 -34.7962 -34.7956 -34.7943 -34.7940
   -34.7928 -34.7928 -34.7909 -34.7906 -34.7886 -34.7870 -34.7867 -34.7848
   -11.4157 -11.4077 -11.4067 -11.4053 -11.3939 -11.3919 -11.3899 -11.3886
   -11.3825 -11.3818 -11.3419 -11.3325 -11.2808 -11.2712 -11.2095 -11.2024
   -11.1981 -11.1931 -11.1919 -11.1917 -11.1872 -11.1851 -11.1835 -11.1824
   -11.1820 -11.1818 -11.1781 -11.1743 -11.1741 -11.1740 -11.1664 -11.1648
   -11.1620 -11.1605 -11.1594 -11.1590 -11.1532 -11.1495 -11.1474 -11.1473
   -11.1469 -11.1451 -11.1442 -11.1435 -11.1357 -11.1308 -11.1307 -11.1283
   -11.1279 -11.1233 -11.1231 -11.1177 -11.1166 -11.1159 -11.1145 -11.1141
   -11.1123 -11.1094 -11.1077 -11.1064 -11.1040 -11.1031 -11.1022 -11.1021
   -11.1018 -11.0986 -11.0981 -11.0972 -11.0968 -11.0963 -11.0960 -11.0917
   -11.0901 -11.0898 -11.0896 -11.0882 -11.0882 -11.0874 -11.0831 -11.0815
    -8.0856  -8.0742  -7.5419  -7.5314  -7.1019  -7.0930  -6.7981  -6.7908
    -6.4525  -6.4476  -6.3980  -6.3936  -6.1834  -6.1803  -5.7856  -5.7849
    -1.4959  -1.2296  -0.9254  -0.7446  -0.4788  -0.3965  -0.1892  -0.1695
     0.2181   0.3418   0.5127   0.6095   0.6297   0.6854   0.7191   0.7494
     0.8413   1.0513   1.1511   1.3722   1.7452   1.9433   2.6966   2.8126
     5.2649   5.3455   5.4228   5.4264   5.4592   5.5012   5.5497   5.6854
     5.8840   5.9764   6.0285   6.0902   6.1312   6.3551   6.5262   6.5581
     6.5716   6.7949   6.9243   6.9524   6.9604   6.9870   7.2075   7.3380
     7.4413   7.4916   7.6858   7.7459   7.7506   7.9360   7.9754   7.9775
     8.0282   8.0943   8.1480   8.1703   8.3047   8.4230   8.4622   8.6367
     8.6676   8.7317   8.7555   8.8483   8.9850   9.0420   9.0589   9.0869
     9.2121   9.3120   9.3796   9.3796   9.8103   9.8897  10.0709  10.0953
    10.0972  10.1045  10.1726  10.1801  10.2193  10.3036  10.3188  10.3354
    10.3546  10.3857  10.5865  10.6463  10.7042  10.8422  11.0483  11.0496

     occupation numbers 
     1.0000   1.0000   1.0000   1.0000   1.0000   1.0000   1.0000   1.0000
     1.0000   1.0000   1.0000   1.0000   1.0000   1.0000   1.0000   1.0000
     1.0000   1.0000   1.0000   1.0000   1.0000   1.0000   1.0000   1.0000
     1.0000   1.0000   1.0000   1.0000   1.0000   1.0000   1.0000   1.0000
     1.0000   1.0000   1.0000   1.0000   1.0000   1.0000   1.0000   1.0000
     1.0000   1.0000   1.0000   1.0000   1.0000   1.0000   1.0000   1.0000
     1.0000   1.0000   1.0000   1.0000   1.0000   1.0000   1.0000   1.0000
     1.0000   1.0000   1.0000   1.0000   1.0000   1.0000   1.0000   1.0000
     1.0000   1.0000   1.0000   1.0000   1.0000   1.0000   1.0000   1.0000
     1.0000   1.0000   1.0000   1.0000   1.0000   1.0000   1.0000   1.0000
     1.0000   1.0000   1.0000   1.0000   1.0000   1.0000   1.0000   1.0000
     1.0000   1.0000   1.0000   1.0000   1.0000   1.0000   1.0000   1.0000
     1.0000   1.0000   1.0000   1.0000   1.0000   1.0000   1.0000   1.0000
     1.0000   1.0000   1.0000   1.0000   1.0000   1.0000   1.0000   1.0000
     1.0000   1.0000   1.0000   1.0000   1.0000   1.0000   1.0000   1.0000
     1.0000   1.0000   1.0000   1.0000   1.0000   1.0000   1.0000   1.0000
     1.0000   1.0000   1.0000   1.0000   1.0000   1.0000   1.0000   1.0000
     1.0000   1.0000   1.0000   1.0000   1.0000   1.0000   1.0000   1.0000
     1.0000   1.0000   1.0000   1.0000   1.0000   1.0000   1.0000   1.0000
     1.0000   1.0000   1.0000   1.0000   1.0000   1.0000   1.0000   1.0000
     1.0000   1.0000   1.0000   1.0000   1.0000   1.0000   1.0000   1.0000
     1.0000   1.0000   1.0000   1.0000   1.0000   1.0000   1.0000   1.0000
     1.0000   1.0000   1.0000   1.0000   1.0000   1.0000   1.0000   1.0000
     1.0000   1.0000   1.0000   1.0000   1.0000   1.0000   1.0000   1.0000
     1.0000   1.0000   1.0000   1.0000   1.0000   1.0000   1.0000   1.0000
     1.0000   1.0000   1.0000   1.0000   1.0000   1.0000   1.0000   1.0000
     1.0000   1.0000   1.0000   1.0000   1.0000   1.0000   1.0000   1.0000
     1.0000   1.0000   1.0000   1.0000   1.0000   1.0000   1.0000   1.0000
     1.0000   1.0000   1.0000   1.0000   1.0000   1.0000   1.0000   1.0000

          k = 0.1667 0.3333-0.3194 ( 38354 PWs)   bands (ev):

   -34.8155 -34.8154 -34.8106 -34.8106 -34.8081 -34.8080 -34.8080 -34.8079
   -34.8078 -34.8077 -34.8069 -34.8068 -34.8052 -34.8052 -34.8048 -34.8047
   -34.8021 -34.8021 -34.8020 -34.8020 -34.8018 -34.8018 -34.7987 -34.7987
   -34.7983 -34.7983 -34.7974 -34.7973 -34.7954 -34.7954 -34.7945 -34.7945
   -34.7918 -34.7918 -34.7892 -34.7891 -34.7878 -34.7877 -34.7872 -34.7871
   -11.4113 -11.4113 -11.4066 -11.4066 -11.3914 -11.3914 -11.3870 -11.3870
   -11.3863 -11.3863 -11.3372 -11.3372 -11.2761 -11.2761 -11.2040 -11.2040
   -11.1971 -11.1971 -11.1900 -11.1900 -11.1877 -11.1877 -11.1841 -11.1841
   -11.1801 -11.1801 -11.1783 -11.1783 -11.1742 -11.1742 -11.1636 -11.1636
   -11.1627 -11.1627 -11.1604 -11.1604 -11.1511 -11.1511 -11.1465 -11.1465
   -11.1462 -11.1462 -11.1454 -11.1454 -11.1329 -11.1329 -11.1285 -11.1285
   -11.1211 -11.1211 -11.1191 -11.1191 -11.1189 -11.1189 -11.1145 -11.1145
   -11.1102 -11.1101 -11.1064 -11.1064 -11.1037 -11.1037 -11.1025 -11.1025
   -11.0999 -11.0999 -11.0996 -11.0996 -11.0967 -11.0967 -11.0936 -11.0936
   -11.0896 -11.0896 -11.0892 -11.0892 -11.0886 -11.0886 -11.0823 -11.0823
    -8.0799  -8.0799  -7.5366  -7.5366  -7.0975  -7.0975  -6.7944  -6.7944
    -6.4500  -6.4500  -6.3958  -6.3958  -6.1819  -6.1819  -5.7852  -5.7852
    -1.3737  -1.3737  -0.8397  -0.8397  -0.4378  -0.4377  -0.1790  -0.1789
     0.2712   0.2712   0.5599   0.5599   0.7223   0.7223   0.7888   0.7888
     0.8368   0.8368   1.2729   1.2729   1.8433   1.8433   2.7575   2.7576
     5.2873   5.2873   5.4282   5.4282   5.4874   5.4874   5.5890   5.5890
     6.0013   6.0013   6.0096   6.0096   6.2551   6.2551   6.5589   6.5589
     6.7459   6.7459   6.8794   6.8794   6.9287   6.9287   7.2674   7.2674
     7.4597   7.4597   7.7198   7.7199   7.9174   7.9174   7.9474   7.9474
     8.0907   8.0907   8.1894   8.1894   8.3210   8.3210   8.6181   8.6181
     8.6957   8.6957   8.7907   8.7907   8.8865   8.8865   9.0630   9.0630
     9.2544   9.2544   9.3716   9.3716   9.8378   9.8378  10.1369  10.1369
    10.1393  10.1394  10.1516  10.1516  10.2643  10.2643  10.3215  10.3215
    10.3589  10.3589  10.6574  10.6575  10.7825  10.7825  11.0528  11.0528

     occupation numbers 
     1.0000   1.0000   1.0000   1.0000   1.0000   1.0000   1.0000   1.0000
     1.0000   1.0000   1.0000   1.0000   1.0000   1.0000   1.0000   1.0000
     1.0000   1.0000   1.0000   1.0000   1.0000   1.0000   1.0000   1.0000
     1.0000   1.0000   1.0000   1.0000   1.0000   1.0000   1.0000   1.0000
     1.0000   1.0000   1.0000   1.0000   1.0000   1.0000   1.0000   1.0000
     1.0000   1.0000   1.0000   1.0000   1.0000   1.0000   1.0000   1.0000
     1.0000   1.0000   1.0000   1.0000   1.0000   1.0000   1.0000   1.0000
     1.0000   1.0000   1.0000   1.0000   1.0000   1.0000   1.0000   1.0000
     1.0000   1.0000   1.0000   1.0000   1.0000   1.0000   1.0000   1.0000
     1.0000   1.0000   1.0000   1.0000   1.0000   1.0000   1.0000   1.0000
     1.0000   1.0000   1.0000   1.0000   1.0000   1.0000   1.0000   1.0000
     1.0000   1.0000   1.0000   1.0000   1.0000   1.0000   1.0000   1.0000
     1.0000   1.0000   1.0000   1.0000   1.0000   1.0000   1.0000   1.0000
     1.0000   1.0000   1.0000   1.0000   1.0000   1.0000   1.0000   1.0000
     1.0000   1.0000   1.0000   1.0000   1.0000   1.0000   1.0000   1.0000
     1.0000   1.0000   1.0000   1.0000   1.0000   1.0000   1.0000   1.0000
     1.0000   1.0000   1.0000   1.0000   1.0000   1.0000   1.0000   1.0000
     1.0000   1.0000   1.0000   1.0000   1.0000   1.0000   1.0000   1.0000
     1.0000   1.0000   1.0000   1.0000   1.0000   1.0000   1.0000   1.0000
     1.0000   1.0000   1.0000   1.0000   1.0000   1.0000   1.0000   1.0000
     1.0000   1.0000   1.0000   1.0000   1.0000   1.0000   1.0000   1.0000
     1.0000   1.0000   1.0000   1.0000   1.0000   1.0000   1.0000   1.0000
     1.0000   1.0000   1.0000   1.0000   1.0000   1.0000   1.0000   1.0000
     1.0000   1.0000   1.0000   1.0000   1.0000   1.0000   1.0000   1.0000
     1.0000   1.0000   1.0000   1.0000   1.0000   1.0000   1.0000   1.0000
     1.0000   1.0000   1.0000   1.0000   1.0000   1.0000   1.0000   1.0000
     1.0000   1.0000   1.0000   1.0000   1.0000   1.0000   1.0000   1.0000
     1.0000   1.0000   1.0000   1.0000   1.0000   1.0000   1.0000   1.0000
     1.0000   1.0000   1.0000   1.0000   1.0000   1.0000   1.0000   1.0000

          k = 0.1667-0.5000 0.0000 ( 38352 PWs)   bands (ev):

   -34.8124 -34.8124 -34.8117 -34.8117 -34.8108 -34.8108 -34.8088 -34.8088
   -34.8044 -34.8044 -34.8044 -34.8044 -34.8043 -34.8043 -34.8040 -34.8040
   -34.8027 -34.8027 -34.8023 -34.8023 -34.8020 -34.8020 -34.8011 -34.8011
   -34.7996 -34.7996 -34.7983 -34.7983 -34.7949 -34.7949 -34.7949 -34.7949
   -34.7910 -34.7910 -34.7909 -34.7909 -34.7871 -34.7871 -34.7838 -34.7838
   -11.4068 -11.4068 -11.4038 -11.4038 -11.3964 -11.3964 -11.3902 -11.3902
   -11.3717 -11.3717 -11.3518 -11.3518 -11.2367 -11.2367 -11.2170 -11.2170
   -11.2119 -11.2119 -11.1909 -11.1909 -11.1902 -11.1902 -11.1821 -11.1820
   -11.1793 -11.1793 -11.1725 -11.1725 -11.1713 -11.1713 -11.1705 -11.1705
   -11.1534 -11.1534 -11.1529 -11.1529 -11.1509 -11.1509 -11.1498 -11.1498
   -11.1415 -11.1415 -11.1374 -11.1374 -11.1358 -11.1358 -11.1332 -11.1332
   -11.1261 -11.1261 -11.1257 -11.1257 -11.1246 -11.1246 -11.1246 -11.1246
   -11.1145 -11.1144 -11.1099 -11.1099 -11.1061 -11.1060 -11.1032 -11.1032
   -11.1005 -11.1005 -11.0976 -11.0976 -11.0973 -11.0973 -11.0906 -11.0906
   -11.0906 -11.0906 -11.0881 -11.0881 -11.0865 -11.0865 -11.0836 -11.0836
    -7.8526  -7.8526  -7.8301  -7.8301  -6.9669  -6.9669  -6.9504  -6.9504
    -6.4181  -6.4181  -6.4089  -6.4089  -5.9485  -5.9485  -5.9452  -5.9452
    -1.3476  -1.3476  -0.8613  -0.8613  -0.3734  -0.3734  -0.2595  -0.2595
     0.3289   0.3290   0.4559   0.4559   0.6231   0.6231   0.7933   0.7933
     1.0169   1.0170   1.1871   1.1871   2.2961   2.2961   2.3860   2.3860
     5.3159   5.3159   5.3209   5.3209   5.4164   5.4164   5.6590   5.6590
     5.6951   5.6951   6.2393   6.2393   6.2662   6.2662   6.3056   6.3056
     6.6981   6.6981   7.0934   7.0934   7.2339   7.2339   7.3602   7.3602
     7.5675   7.5675   7.6683   7.6683   7.8232   7.8232   7.9070   7.9070
     7.9531   7.9531   7.9849   7.9849   8.5136   8.5136   8.6660   8.6660
     8.7104   8.7104   8.8666   8.8666   8.8895   8.8895   9.3498   9.3498
     9.3818   9.3818   9.6030   9.6030   9.6905   9.6905   9.9832   9.9832
    10.0028  10.0028  10.0734  10.0734  10.1681  10.1682  10.2329  10.2329
    10.2545  10.2545  10.4789  10.4789  10.7104  10.7104  10.9813  10.9813

     occupation numbers 
     1.0000   1.0000   1.0000   1.0000   1.0000   1.0000   1.0000   1.0000
     1.0000   1.0000   1.0000   1.0000   1.0000   1.0000   1.0000   1.0000
     1.0000   1.0000   1.0000   1.0000   1.0000   1.0000   1.0000   1.0000
     1.0000   1.0000   1.0000   1.0000   1.0000   1.0000   1.0000   1.0000
     1.0000   1.0000   1.0000   1.0000   1.0000   1.0000   1.0000   1.0000
     1.0000   1.0000   1.0000   1.0000   1.0000   1.0000   1.0000   1.0000
     1.0000   1.0000   1.0000   1.0000   1.0000   1.0000   1.0000   1.0000
     1.0000   1.0000   1.0000   1.0000   1.0000   1.0000   1.0000   1.0000
     1.0000   1.0000   1.0000   1.0000   1.0000   1.0000   1.0000   1.0000
     1.0000   1.0000   1.0000   1.0000   1.0000   1.0000   1.0000   1.0000
     1.0000   1.0000   1.0000   1.0000   1.0000   1.0000   1.0000   1.0000
     1.0000   1.0000   1.0000   1.0000   1.0000   1.0000   1.0000   1.0000
     1.0000   1.0000   1.0000   1.0000   1.0000   1.0000   1.0000   1.0000
     1.0000   1.0000   1.0000   1.0000   1.0000   1.0000   1.0000   1.0000
     1.0000   1.0000   1.0000   1.0000   1.0000   1.0000   1.0000   1.0000
     1.0000   1.0000   1.0000   1.0000   1.0000   1.0000   1.0000   1.0000
     1.0000   1.0000   1.0000   1.0000   1.0000   1.0000   1.0000   1.0000
     1.0000   1.0000   1.0000   1.0000   1.0000   1.0000   1.0000   1.0000
     1.0000   1.0000   1.0000   1.0000   1.0000   1.0000   1.0000   1.0000
     1.0000   1.0000   1.0000   1.0000   1.0000   1.0000   1.0000   1.0000
     1.0000   1.0000   1.0000   1.0000   1.0000   1.0000   1.0000   1.0000
     1.0000   1.0000   1.0000   1.0000   1.0000   1.0000   1.0000   1.0000
     1.0000   1.0000   1.0000   1.0000   1.0000   1.0000   1.0000   1.0000
     1.0000   1.0000   1.0000   1.0000   1.0000   1.0000   1.0000   1.0000
     1.0000   1.0000   1.0000   1.0000   1.0000   1.0000   1.0000   1.0000
     1.0000   1.0000   1.0000   1.0000   1.0000   1.0000   1.0000   1.0000
     1.0000   1.0000   1.0000   1.0000   1.0000   1.0000   1.0000   1.0000
     1.0000   1.0000   1.0000   1.0000   1.0000   1.0000   1.0000   1.0000
     1.0000   1.0000   1.0000   1.0000   1.0000   1.0000   1.0000   1.0000

          k = 0.1667-0.5000 0.1065 ( 38376 PWs)   bands (ev):

   -34.8146 -34.8146 -34.8134 -34.8134 -34.8103 -34.8103 -34.8089 -34.8089
   -34.8077 -34.8077 -34.8063 -34.8063 -34.8047 -34.8047 -34.8044 -34.8044
   -34.8038 -34.8038 -34.8011 -34.8011 -34.8007 -34.8007 -34.7994 -34.7994
   -34.7991 -34.7991 -34.7991 -34.7991 -34.7974 -34.7974 -34.7967 -34.7967
   -34.7917 -34.7917 -34.7917 -34.7917 -34.7898 -34.7898 -34.7859 -34.7859
   -11.4058 -11.4058 -11.4033 -11.4033 -11.3969 -11.3969 -11.3915 -11.3915
   -11.3704 -11.3704 -11.3533 -11.3532 -11.2358 -11.2358 -11.2198 -11.2198
   -11.2091 -11.2091 -11.1899 -11.1899 -11.1893 -11.1893 -11.1850 -11.1849
   -11.1798 -11.1798 -11.1742 -11.1742 -11.1705 -11.1705 -11.1702 -11.1702
   -11.1530 -11.1530 -11.1527 -11.1527 -11.1505 -11.1504 -11.1501 -11.1501
   -11.1418 -11.1418 -11.1372 -11.1372 -11.1364 -11.1364 -11.1324 -11.1324
   -11.1267 -11.1267 -11.1267 -11.1267 -11.1229 -11.1229 -11.1222 -11.1222
   -11.1135 -11.1135 -11.1099 -11.1099 -11.1054 -11.1054 -11.1044 -11.1044
   -11.0998 -11.0998 -11.0984 -11.0984 -11.0982 -11.0982 -11.0913 -11.0913
   -11.0906 -11.0906 -11.0877 -11.0877 -11.0869 -11.0869 -11.0839 -11.0839
    -7.8511  -7.8511  -7.8316  -7.8316  -6.9658  -6.9658  -6.9515  -6.9515
    -6.4175  -6.4175  -6.4095  -6.4095  -5.9483  -5.9483  -5.9454  -5.9454
    -1.3226  -1.3226  -0.9065  -0.9065  -0.3656  -0.3656  -0.2669  -0.2669
     0.3387   0.3387   0.5078   0.5078   0.5706   0.5707   0.8522   0.8522
     0.9890   0.9890   1.1705   1.1705   2.2994   2.2994   2.3767   2.3767
     5.3027   5.3027   5.3438   5.3438   5.3613   5.3613   5.6681   5.6681
     5.7526   5.7526   6.2398   6.2398   6.2533   6.2533   6.2987   6.2987
     6.7206   6.7206   7.0753   7.0753   7.2465   7.2465   7.3715   7.3715
     7.5633   7.5633   7.5993   7.5993   7.7452   7.7452   7.9573   7.9573
     8.0176   8.0176   8.0561   8.0561   8.5059   8.5059   8.6051   8.6051
     8.7195   8.7195   8.8844   8.8844   8.8912   8.8913   9.2589   9.2589
     9.3868   9.3868   9.5721   9.5721   9.6811   9.6811   9.9433   9.9433
    10.0659  10.0659  10.1019  10.1019  10.1776  10.1776  10.2330  10.2330
    10.3199  10.3199  10.4312  10.4312  10.7715  10.7715  10.9801  10.9801

     occupation numbers 
     1.0000   1.0000   1.0000   1.0000   1.0000   1.0000   1.0000   1.0000
     1.0000   1.0000   1.0000   1.0000   1.0000   1.0000   1.0000   1.0000
     1.0000   1.0000   1.0000   1.0000   1.0000   1.0000   1.0000   1.0000
     1.0000   1.0000   1.0000   1.0000   1.0000   1.0000   1.0000   1.0000
     1.0000   1.0000   1.0000   1.0000   1.0000   1.0000   1.0000   1.0000
     1.0000   1.0000   1.0000   1.0000   1.0000   1.0000   1.0000   1.0000
     1.0000   1.0000   1.0000   1.0000   1.0000   1.0000   1.0000   1.0000
     1.0000   1.0000   1.0000   1.0000   1.0000   1.0000   1.0000   1.0000
     1.0000   1.0000   1.0000   1.0000   1.0000   1.0000   1.0000   1.0000
     1.0000   1.0000   1.0000   1.0000   1.0000   1.0000   1.0000   1.0000
     1.0000   1.0000   1.0000   1.0000   1.0000   1.0000   1.0000   1.0000
     1.0000   1.0000   1.0000   1.0000   1.0000   1.0000   1.0000   1.0000
     1.0000   1.0000   1.0000   1.0000   1.0000   1.0000   1.0000   1.0000
     1.0000   1.0000   1.0000   1.0000   1.0000   1.0000   1.0000   1.0000
     1.0000   1.0000   1.0000   1.0000   1.0000   1.0000   1.0000   1.0000
     1.0000   1.0000   1.0000   1.0000   1.0000   1.0000   1.0000   1.0000
     1.0000   1.0000   1.0000   1.0000   1.0000   1.0000   1.0000   1.0000
     1.0000   1.0000   1.0000   1.0000   1.0000   1.0000   1.0000   1.0000
     1.0000   1.0000   1.0000   1.0000   1.0000   1.0000   1.0000   1.0000
     1.0000   1.0000   1.0000   1.0000   1.0000   1.0000   1.0000   1.0000
     1.0000   1.0000   1.0000   1.0000   1.0000   1.0000   1.0000   1.0000
     1.0000   1.0000   1.0000   1.0000   1.0000   1.0000   1.0000   1.0000
     1.0000   1.0000   1.0000   1.0000   1.0000   1.0000   1.0000   1.0000
     1.0000   1.0000   1.0000   1.0000   1.0000   1.0000   1.0000   1.0000
     1.0000   1.0000   1.0000   1.0000   1.0000   1.0000   1.0000   1.0000
     1.0000   1.0000   1.0000   1.0000   1.0000   1.0000   1.0000   1.0000
     1.0000   1.0000   1.0000   1.0000   1.0000   1.0000   1.0000   1.0000
     1.0000   1.0000   1.0000   1.0000   1.0000   1.0000   1.0000   1.0000
     1.0000   1.0000   1.0000   1.0000   1.0000   1.0000   1.0000   1.0000

          k = 0.1667-0.5000 0.2129 ( 38338 PWs)   bands (ev):

   -34.8132 -34.8132 -34.8107 -34.8107 -34.8097 -34.8097 -34.8071 -34.8071
   -34.8061 -34.8061 -34.8051 -34.8051 -34.8043 -34.8043 -34.8032 -34.8032
   -34.8023 -34.8023 -34.8021 -34.8021 -34.7994 -34.7994 -34.7975 -34.7974
   -34.7963 -34.7963 -34.7961 -34.7961 -34.7954 -34.7954 -34.7935 -34.7935
   -34.7932 -34.7931 -34.7908 -34.7908 -34.7893 -34.7893 -34.7851 -34.7851
   -11.4030 -11.4030 -11.4020 -11.4020 -11.3983 -11.3983 -11.3948 -11.3948
   -11.3668 -11.3668 -11.3570 -11.3570 -11.2331 -11.2331 -11.2243 -11.2243
   -11.2041 -11.2041 -11.1912 -11.1912 -11.1871 -11.1871 -11.1871 -11.1871
   -11.1815 -11.1815 -11.1783 -11.1783 -11.1695 -11.1695 -11.1695 -11.1695
   -11.1521 -11.1521 -11.1519 -11.1519 -11.1506 -11.1506 -11.1503 -11.1503
   -11.1422 -11.1422 -11.1398 -11.1398 -11.1339 -11.1339 -11.1307 -11.1307
   -11.1284 -11.1284 -11.1278 -11.1278 -11.1184 -11.1184 -11.1183 -11.1183
   -11.1123 -11.1122 -11.1091 -11.1091 -11.1078 -11.1078 -11.1038 -11.1038
   -11.1013 -11.1013 -11.0998 -11.0998 -11.0981 -11.0981 -11.0932 -11.0932
   -11.0904 -11.0904 -11.0881 -11.0881 -11.0868 -11.0868 -11.0847 -11.0847
    -7.8470  -7.8470  -7.8358  -7.8358  -6.9628  -6.9628  -6.9545  -6.9545
    -6.4158  -6.4158  -6.4112  -6.4112  -5.9477  -5.9477  -5.9460  -5.9460
    -1.2506  -1.2506  -1.0156  -1.0156  -0.3443  -0.3443  -0.2872  -0.2872
     0.3685   0.3685   0.4889   0.4889   0.6340   0.6340   0.9072   0.9072
     0.9520   0.9520   1.1222   1.1222   2.3098   2.3098   2.3539   2.3539
     5.2777   5.2777   5.2954   5.2954   5.4076   5.4076   5.5953   5.5953
     5.9230   5.9230   6.1996   6.1996   6.2456   6.2456   6.2815   6.2815
     6.7878   6.7878   7.0050   7.0050   7.2819   7.2820   7.3769   7.3769
     7.5297   7.5297   7.5496   7.5496   7.7132   7.7132   7.8813   7.8813
     8.1975   8.1975   8.2130   8.2131   8.4729   8.4729   8.4782   8.4782
     8.7582   8.7582   8.8974   8.8974   8.9030   8.9030   9.0564   9.0564
     9.3991   9.3992   9.4989   9.4989   9.7101   9.7101   9.8611   9.8611
    10.1510  10.1510  10.1950  10.1950  10.2234  10.2234  10.2415  10.2415
    10.3530  10.3530  10.3831  10.3831  10.8698  10.8698  10.9711  10.9711

     occupation numbers 
     1.0000   1.0000   1.0000   1.0000   1.0000   1.0000   1.0000   1.0000
     1.0000   1.0000   1.0000   1.0000   1.0000   1.0000   1.0000   1.0000
     1.0000   1.0000   1.0000   1.0000   1.0000   1.0000   1.0000   1.0000
     1.0000   1.0000   1.0000   1.0000   1.0000   1.0000   1.0000   1.0000
     1.0000   1.0000   1.0000   1.0000   1.0000   1.0000   1.0000   1.0000
     1.0000   1.0000   1.0000   1.0000   1.0000   1.0000   1.0000   1.0000
     1.0000   1.0000   1.0000   1.0000   1.0000   1.0000   1.0000   1.0000
     1.0000   1.0000   1.0000   1.0000   1.0000   1.0000   1.0000   1.0000
     1.0000   1.0000   1.0000   1.0000   1.0000   1.0000   1.0000   1.0000
     1.0000   1.0000   1.0000   1.0000   1.0000   1.0000   1.0000   1.0000
     1.0000   1.0000   1.0000   1.0000   1.0000   1.0000   1.0000   1.0000
     1.0000   1.0000   1.0000   1.0000   1.0000   1.0000   1.0000   1.0000
     1.0000   1.0000   1.0000   1.0000   1.0000   1.0000   1.0000   1.0000
     1.0000   1.0000   1.0000   1.0000   1.0000   1.0000   1.0000   1.0000
     1.0000   1.0000   1.0000   1.0000   1.0000   1.0000   1.0000   1.0000
     1.0000   1.0000   1.0000   1.0000   1.0000   1.0000   1.0000   1.0000
     1.0000   1.0000   1.0000   1.0000   1.0000   1.0000   1.0000   1.0000
     1.0000   1.0000   1.0000   1.0000   1.0000   1.0000   1.0000   1.0000
     1.0000   1.0000   1.0000   1.0000   1.0000   1.0000   1.0000   1.0000
     1.0000   1.0000   1.0000   1.0000   1.0000   1.0000   1.0000   1.0000
     1.0000   1.0000   1.0000   1.0000   1.0000   1.0000   1.0000   1.0000
     1.0000   1.0000   1.0000   1.0000   1.0000   1.0000   1.0000   1.0000
     1.0000   1.0000   1.0000   1.0000   1.0000   1.0000   1.0000   1.0000
     1.0000   1.0000   1.0000   1.0000   1.0000   1.0000   1.0000   1.0000
     1.0000   1.0000   1.0000   1.0000   1.0000   1.0000   1.0000   1.0000
     1.0000   1.0000   1.0000   1.0000   1.0000   1.0000   1.0000   1.0000
     1.0000   1.0000   1.0000   1.0000   1.0000   1.0000   1.0000   1.0000
     1.0000   1.0000   1.0000   1.0000   1.0000   1.0000   1.0000   1.0000
     1.0000   1.0000   1.0000   1.0000   1.0000   1.0000   1.0000   1.0000

          k = 0.1667-0.5000-0.3194 ( 38364 PWs)   bands (ev):

   -34.8113 -34.8113 -34.8113 -34.8112 -34.8092 -34.8092 -34.8091 -34.8091
   -34.8060 -34.8060 -34.8060 -34.8060 -34.8050 -34.8050 -34.8050 -34.8049
   -34.8035 -34.8035 -34.8035 -34.8034 -34.8004 -34.8004 -34.8004 -34.8004
   -34.7983 -34.7983 -34.7983 -34.7983 -34.7966 -34.7966 -34.7966 -34.7966
   -34.7902 -34.7902 -34.7902 -34.7902 -34.7892 -34.7892 -34.7892 -34.7891
   -11.4002 -11.4002 -11.4002 -11.4002 -11.3990 -11.3990 -11.3990 -11.3990
   -11.3620 -11.3620 -11.3619 -11.3619 -11.2290 -11.2290 -11.2290 -11.2290
   -11.1980 -11.1980 -11.1980 -11.1980 -11.1842 -11.1842 -11.1842 -11.1842
   -11.1831 -11.1831 -11.1831 -11.1831 -11.1691 -11.1691 -11.1691 -11.1691
   -11.1511 -11.1511 -11.1511 -11.1511 -11.1509 -11.1509 -11.1509 -11.1509
   -11.1417 -11.1417 -11.1417 -11.1417 -11.1310 -11.1310 -11.1310 -11.1310
   -11.1291 -11.1291 -11.1291 -11.1291 -11.1144 -11.1144 -11.1144 -11.1144
   -11.1129 -11.1128 -11.1128 -11.1128 -11.1055 -11.1055 -11.1055 -11.1055
   -11.1017 -11.1017 -11.1017 -11.1017 -11.0956 -11.0956 -11.0956 -11.0956
   -11.0895 -11.0895 -11.0895 -11.0895 -11.0857 -11.0857 -11.0857 -11.0857
    -7.8414  -7.8414  -7.8414  -7.8414  -6.9587  -6.9587  -6.9587  -6.9587
    -6.4135  -6.4135  -6.4135  -6.4135  -5.9469  -5.9469  -5.9469  -5.9469
    -1.1417  -1.1417  -1.1417  -1.1417  -0.3156  -0.3156  -0.3156  -0.3156
     0.4189   0.4190   0.4190   0.4190   0.7810   0.7810   0.7810   0.7810
     1.0467   1.0467   1.0467   1.0468   2.3288   2.3288   2.3288   2.3288
     5.2682   5.2682   5.2682   5.2682   5.4990   5.4990   5.4990   5.4990
     6.0857   6.0857   6.0857   6.0857   6.2608   6.2608   6.2608   6.2608
     6.8919   6.8919   6.8920   6.8920   7.3341   7.3341   7.3341   7.3341
     7.5292   7.5292   7.5292   7.5292   7.7797   7.7797   7.7797   7.7797
     8.3372   8.3372   8.3372   8.3372   8.3830   8.3830   8.3830   8.3830
     8.8635   8.8635   8.8635   8.8635   8.9046   8.9046   8.9046   8.9046
     9.4325   9.4325   9.4325   9.4325   9.7819   9.7819   9.7819   9.7819
    10.1859  10.1859  10.1859  10.1860  10.2846  10.2846  10.2846  10.2846
    10.3496  10.3496  10.3496  10.3496  10.9391  10.9391  10.9392  10.9392

     occupation numbers 
     1.0000   1.0000   1.0000   1.0000   1.0000   1.0000   1.0000   1.0000
     1.0000   1.0000   1.0000   1.0000   1.0000   1.0000   1.0000   1.0000
     1.0000   1.0000   1.0000   1.0000   1.0000   1.0000   1.0000   1.0000
     1.0000   1.0000   1.0000   1.0000   1.0000   1.0000   1.0000   1.0000
     1.0000   1.0000   1.0000   1.0000   1.0000   1.0000   1.0000   1.0000
     1.0000   1.0000   1.0000   1.0000   1.0000   1.0000   1.0000   1.0000
     1.0000   1.0000   1.0000   1.0000   1.0000   1.0000   1.0000   1.0000
     1.0000   1.0000   1.0000   1.0000   1.0000   1.0000   1.0000   1.0000
     1.0000   1.0000   1.0000   1.0000   1.0000   1.0000   1.0000   1.0000
     1.0000   1.0000   1.0000   1.0000   1.0000   1.0000   1.0000   1.0000
     1.0000   1.0000   1.0000   1.0000   1.0000   1.0000   1.0000   1.0000
     1.0000   1.0000   1.0000   1.0000   1.0000   1.0000   1.0000   1.0000
     1.0000   1.0000   1.0000   1.0000   1.0000   1.0000   1.0000   1.0000
     1.0000   1.0000   1.0000   1.0000   1.0000   1.0000   1.0000   1.0000
     1.0000   1.0000   1.0000   1.0000   1.0000   1.0000   1.0000   1.0000
     1.0000   1.0000   1.0000   1.0000   1.0000   1.0000   1.0000   1.0000
     1.0000   1.0000   1.0000   1.0000   1.0000   1.0000   1.0000   1.0000
     1.0000   1.0000   1.0000   1.0000   1.0000   1.0000   1.0000   1.0000
     1.0000   1.0000   1.0000   1.0000   1.0000   1.0000   1.0000   1.0000
     1.0000   1.0000   1.0000   1.0000   1.0000   1.0000   1.0000   1.0000
     1.0000   1.0000   1.0000   1.0000   1.0000   1.0000   1.0000   1.0000
     1.0000   1.0000   1.0000   1.0000   1.0000   1.0000   1.0000   1.0000
     1.0000   1.0000   1.0000   1.0000   1.0000   1.0000   1.0000   1.0000
     1.0000   1.0000   1.0000   1.0000   1.0000   1.0000   1.0000   1.0000
     1.0000   1.0000   1.0000   1.0000   1.0000   1.0000   1.0000   1.0000
     1.0000   1.0000   1.0000   1.0000   1.0000   1.0000   1.0000   1.0000
     1.0000   1.0000   1.0000   1.0000   1.0000   1.0000   1.0000   1.0000
     1.0000   1.0000   1.0000   1.0000   1.0000   1.0000   1.0000   1.0000
     1.0000   1.0000   1.0000   1.0000   1.0000   1.0000   1.0000   1.0000

          k = 0.3333 0.3333 0.0000 ( 38364 PWs)   bands (ev):

   -34.8149 -34.8149 -34.8147 -34.8119 -34.8096 -34.8096 -34.8082 -34.8082
   -34.8081 -34.8078 -34.8078 -34.8067 -34.8063 -34.8063 -34.8052 -34.8049
   -34.8040 -34.8033 -34.8013 -34.8013 -34.8010 -34.8007 -34.7992 -34.7986
   -34.7986 -34.7973 -34.7973 -34.7954 -34.7938 -34.7934 -34.7934 -34.7926
   -34.7914 -34.7913 -34.7913 -34.7911 -34.7899 -34.7899 -34.7897 -34.7839
   -11.4176 -11.4073 -11.4020 -11.4020 -11.4016 -11.4010 -11.3900 -11.3900
   -11.3708 -11.3502 -11.3084 -11.3084 -11.2883 -11.2883 -11.2218 -11.2112
   -11.2023 -11.2023 -11.2008 -11.1903 -11.1895 -11.1805 -11.1805 -11.1800
   -11.1770 -11.1752 -11.1752 -11.1745 -11.1724 -11.1716 -11.1615 -11.1615
   -11.1593 -11.1575 -11.1575 -11.1564 -11.1506 -11.1488 -11.1488 -11.1463
   -11.1463 -11.1454 -11.1413 -11.1413 -11.1316 -11.1311 -11.1303 -11.1299
   -11.1299 -11.1257 -11.1257 -11.1253 -11.1251 -11.1227 -11.1217 -11.1118
   -11.1115 -11.1111 -11.1099 -11.1082 -11.1079 -11.1079 -11.1054 -11.1054
   -11.1041 -11.1013 -11.1006 -11.0995 -11.0964 -11.0964 -11.0961 -11.0961
   -11.0938 -11.0916 -11.0916 -11.0914 -11.0889 -11.0889 -11.0875 -11.0832
    -7.9471  -7.9244  -7.4330  -7.4330  -7.4125  -7.4125  -7.0372  -7.0199
    -6.2784  -6.2713  -6.1889  -6.1889  -6.1828  -6.1828  -5.8575  -5.8555
    -1.4551  -0.9341  -0.8871  -0.8871  -0.5530  -0.5530  -0.4645  -0.2909
     0.2970   0.3769   0.4400   0.5679   0.5679   0.6422   0.6422   0.9514
     1.0908   1.2152   1.5167   1.5167   1.8523   1.8523   2.4712   2.5587
     5.1684   5.2104   5.2104   5.2477   5.2609   5.5026   5.5026   5.5379
     6.0597   6.0945   6.2300   6.2926   6.2926   6.3916   6.5561   6.8197
     6.8197   6.9008   6.9008   7.0591   7.0591   7.0947   7.0947   7.2806
     7.4440   7.4610   7.4959   7.4959   7.5232   7.5815   7.6334   7.6649
     7.6649   7.8230   7.9746   8.1351   8.6349   8.7237   8.7237   8.8501
     8.8501   8.9939   9.0073   9.0945   9.1053   9.1053   9.2912   9.3041
     9.3613   9.3891   9.4962   9.7674   9.7674   9.7706   9.7706   9.8186
     9.8431   9.8520   9.8520   9.9120   9.9498  10.1361  10.4106  10.4106
    10.4854  10.5053  10.5305  10.8112  10.8112  10.9548  11.0402  11.0402

     occupation numbers 
     1.0000   1.0000   1.0000   1.0000   1.0000   1.0000   1.0000   1.0000
     1.0000   1.0000   1.0000   1.0000   1.0000   1.0000   1.0000   1.0000
     1.0000   1.0000   1.0000   1.0000   1.0000   1.0000   1.0000   1.0000
     1.0000   1.0000   1.0000   1.0000   1.0000   1.0000   1.0000   1.0000
     1.0000   1.0000   1.0000   1.0000   1.0000   1.0000   1.0000   1.0000
     1.0000   1.0000   1.0000   1.0000   1.0000   1.0000   1.0000   1.0000
     1.0000   1.0000   1.0000   1.0000   1.0000   1.0000   1.0000   1.0000
     1.0000   1.0000   1.0000   1.0000   1.0000   1.0000   1.0000   1.0000
     1.0000   1.0000   1.0000   1.0000   1.0000   1.0000   1.0000   1.0000
     1.0000   1.0000   1.0000   1.0000   1.0000   1.0000   1.0000   1.0000
     1.0000   1.0000   1.0000   1.0000   1.0000   1.0000   1.0000   1.0000
     1.0000   1.0000   1.0000   1.0000   1.0000   1.0000   1.0000   1.0000
     1.0000   1.0000   1.0000   1.0000   1.0000   1.0000   1.0000   1.0000
     1.0000   1.0000   1.0000   1.0000   1.0000   1.0000   1.0000   1.0000
     1.0000   1.0000   1.0000   1.0000   1.0000   1.0000   1.0000   1.0000
     1.0000   1.0000   1.0000   1.0000   1.0000   1.0000   1.0000   1.0000
     1.0000   1.0000   1.0000   1.0000   1.0000   1.0000   1.0000   1.0000
     1.0000   1.0000   1.0000   1.0000   1.0000   1.0000   1.0000   1.0000
     1.0000   1.0000   1.0000   1.0000   1.0000   1.0000   1.0000   1.0000
     1.0000   1.0000   1.0000   1.0000   1.0000   1.0000   1.0000   1.0000
     1.0000   1.0000   1.0000   1.0000   1.0000   1.0000   1.0000   1.0000
     1.0000   1.0000   1.0000   1.0000   1.0000   1.0000   1.0000   1.0000
     1.0000   1.0000   1.0000   1.0000   1.0000   1.0000   1.0000   1.0000
     1.0000   1.0000   1.0000   1.0000   1.0000   1.0000   1.0000   1.0000
     1.0000   1.0000   1.0000   1.0000   1.0000   1.0000   1.0000   1.0000
     1.0000   1.0000   1.0000   1.0000   1.0000   1.0000   1.0000   1.0000
     1.0000   1.0000   1.0000   1.0000   1.0000   1.0000   1.0000   1.0000
     1.0000   1.0000   1.0000   1.0000   1.0000   1.0000   1.0000   1.0000
     1.0000   1.0000   1.0000   1.0000   1.0000   1.0000   1.0000   1.0000

          k = 0.3333 0.3333 0.1065 ( 38378 PWs)   bands (ev):

   -34.8143 -34.8138 -34.8138 -34.8133 -34.8127 -34.8094 -34.8077 -34.8073
   -34.8073 -34.8070 -34.8070 -34.8069 -34.8069 -34.8066 -34.8065 -34.8049
   -34.8049 -34.8040 -34.8036 -34.8036 -34.8007 -34.8006 -34.8004 -34.8004
   -34.7969 -34.7969 -34.7965 -34.7964 -34.7961 -34.7961 -34.7954 -34.7941
   -34.7940 -34.7939 -34.7925 -34.7925 -34.7912 -34.7867 -34.7867 -34.7866
   -11.4166 -11.4069 -11.4027 -11.4014 -11.4013 -11.4013 -11.3909 -11.3909
   -11.3696 -11.3517 -11.3072 -11.3072 -11.2897 -11.2897 -11.2210 -11.2109
   -11.2017 -11.2009 -11.2009 -11.1893 -11.1887 -11.1823 -11.1823 -11.1817
   -11.1783 -11.1757 -11.1744 -11.1744 -11.1741 -11.1695 -11.1623 -11.1623
   -11.1590 -11.1578 -11.1578 -11.1566 -11.1502 -11.1499 -11.1499 -11.1456
   -11.1450 -11.1450 -11.1404 -11.1404 -11.1315 -11.1298 -11.1298 -11.1296
   -11.1292 -11.1277 -11.1254 -11.1254 -11.1218 -11.1217 -11.1207 -11.1120
   -11.1119 -11.1113 -11.1096 -11.1081 -11.1081 -11.1074 -11.1048 -11.1039
   -11.1039 -11.1018 -11.1015 -11.1007 -11.0972 -11.0972 -11.0960 -11.0960
   -11.0942 -11.0922 -11.0922 -11.0919 -11.0894 -11.0894 -11.0872 -11.0835
    -7.9456  -7.9259  -7.4317  -7.4317  -7.4139  -7.4139  -7.0361  -7.0211
    -6.2779  -6.2718  -6.1885  -6.1885  -6.1832  -6.1832  -5.8574  -5.8556
    -1.4289  -0.9841  -0.8682  -0.8682  -0.5804  -0.5804  -0.4536  -0.3032
     0.3034   0.4248   0.4393   0.5775   0.5775   0.6402   0.6402   0.9755
     1.0511   1.2015   1.5393   1.5393   1.8302   1.8302   2.4761   2.5519
     5.1919   5.2272   5.2272   5.2405   5.2476   5.4789   5.4789   5.5112
     6.0828   6.1657   6.2392   6.3211   6.3211   6.3786   6.5032   6.7807
     6.7807   6.9224   6.9224   7.0635   7.0635   7.0891   7.0891   7.2207
     7.3032   7.3384   7.3384   7.4705   7.5626   7.5874   7.7288   7.8358
     7.8737   7.8737   8.1093   8.1214   8.5907   8.7039   8.7039   8.8517
     8.8517   8.9943   9.0056   9.0523   9.0523   9.1102   9.2502   9.2889
     9.3048   9.3861   9.4594   9.7254   9.7254   9.7749   9.8497   9.8497
     9.8514   9.8576   9.8576   9.9438   9.9953  10.1548  10.3605  10.3605
    10.4093  10.4823  10.6787  10.8258  10.8258  10.9605  11.0242  11.0242

     occupation numbers 
     1.0000   1.0000   1.0000   1.0000   1.0000   1.0000   1.0000   1.0000
     1.0000   1.0000   1.0000   1.0000   1.0000   1.0000   1.0000   1.0000
     1.0000   1.0000   1.0000   1.0000   1.0000   1.0000   1.0000   1.0000
     1.0000   1.0000   1.0000   1.0000   1.0000   1.0000   1.0000   1.0000
     1.0000   1.0000   1.0000   1.0000   1.0000   1.0000   1.0000   1.0000
     1.0000   1.0000   1.0000   1.0000   1.0000   1.0000   1.0000   1.0000
     1.0000   1.0000   1.0000   1.0000   1.0000   1.0000   1.0000   1.0000
     1.0000   1.0000   1.0000   1.0000   1.0000   1.0000   1.0000   1.0000
     1.0000   1.0000   1.0000   1.0000   1.0000   1.0000   1.0000   1.0000
     1.0000   1.0000   1.0000   1.0000   1.0000   1.0000   1.0000   1.0000
     1.0000   1.0000   1.0000   1.0000   1.0000   1.0000   1.0000   1.0000
     1.0000   1.0000   1.0000   1.0000   1.0000   1.0000   1.0000   1.0000
     1.0000   1.0000   1.0000   1.0000   1.0000   1.0000   1.0000   1.0000
     1.0000   1.0000   1.0000   1.0000   1.0000   1.0000   1.0000   1.0000
     1.0000   1.0000   1.0000   1.0000   1.0000   1.0000   1.0000   1.0000
     1.0000   1.0000   1.0000   1.0000   1.0000   1.0000   1.0000   1.0000
     1.0000   1.0000   1.0000   1.0000   1.0000   1.0000   1.0000   1.0000
     1.0000   1.0000   1.0000   1.0000   1.0000   1.0000   1.0000   1.0000
     1.0000   1.0000   1.0000   1.0000   1.0000   1.0000   1.0000   1.0000
     1.0000   1.0000   1.0000   1.0000   1.0000   1.0000   1.0000   1.0000
     1.0000   1.0000   1.0000   1.0000   1.0000   1.0000   1.0000   1.0000
     1.0000   1.0000   1.0000   1.0000   1.0000   1.0000   1.0000   1.0000
     1.0000   1.0000   1.0000   1.0000   1.0000   1.0000   1.0000   1.0000
     1.0000   1.0000   1.0000   1.0000   1.0000   1.0000   1.0000   1.0000
     1.0000   1.0000   1.0000   1.0000   1.0000   1.0000   1.0000   1.0000
     1.0000   1.0000   1.0000   1.0000   1.0000   1.0000   1.0000   1.0000
     1.0000   1.0000   1.0000   1.0000   1.0000   1.0000   1.0000   1.0000
     1.0000   1.0000   1.0000   1.0000   1.0000   1.0000   1.0000   1.0000
     1.0000   1.0000   1.0000   1.0000   1.0000   1.0000   1.0000   1.0000

          k = 0.3333 0.3333 0.2129 ( 38419 PWs)   bands (ev):

   -34.8142 -34.8132 -34.8124 -34.8119 -34.8119 -34.8118 -34.8118 -34.8111
   -34.8111 -34.8108 -34.8102 -34.8071 -34.8071 -34.8060 -34.8054 -34.8044
   -34.8043 -34.8043 -34.8042 -34.8025 -34.8022 -34.8022 -34.8002 -34.7998
   -34.7995 -34.7995 -34.7994 -34.7989 -34.7989 -34.7987 -34.7963 -34.7962
   -34.7958 -34.7954 -34.7953 -34.7941 -34.7941 -34.7918 -34.7914 -34.7914
   -11.4138 -11.4058 -11.4057 -11.4026 -11.3992 -11.3992 -11.3932 -11.3932
   -11.3660 -11.3557 -11.3037 -11.3037 -11.2938 -11.2938 -11.2187 -11.2120
   -11.2009 -11.1973 -11.1973 -11.1892 -11.1868 -11.1868 -11.1865 -11.1863
   -11.1787 -11.1780 -11.1746 -11.1722 -11.1722 -11.1690 -11.1652 -11.1652
   -11.1584 -11.1571 -11.1567 -11.1567 -11.1522 -11.1522 -11.1492 -11.1464
   -11.1426 -11.1426 -11.1397 -11.1397 -11.1310 -11.1292 -11.1289 -11.1289
   -11.1276 -11.1255 -11.1255 -11.1245 -11.1225 -11.1175 -11.1160 -11.1144
   -11.1126 -11.1103 -11.1089 -11.1069 -11.1069 -11.1064 -11.1056 -11.1053
   -11.1039 -11.1022 -11.1011 -11.1011 -11.1000 -11.1000 -11.0958 -11.0958
   -11.0948 -11.0932 -11.0931 -11.0931 -11.0906 -11.0906 -11.0864 -11.0843
    -7.9415  -7.9301  -7.4279  -7.4279  -7.4177  -7.4177  -7.0329  -7.0243
    -6.2766  -6.2731  -6.1874  -6.1874  -6.1843  -6.1843  -5.8570  -5.8560
    -1.3532  -1.1029  -0.8149  -0.8149  -0.6502  -0.6502  -0.4231  -0.3363
     0.3224   0.3900   0.5924   0.5989   0.5989   0.6332   0.6332   0.9391
     1.0340   1.1618   1.6012   1.6012   1.7695   1.7695   2.4902   2.5341
     5.2251   5.2256   5.2566   5.2743   5.2743   5.4180   5.4180   5.4403
     6.1508   6.2643   6.3440   6.3545   6.3846   6.4044   6.4044   6.6724
     6.6724   6.9160   6.9693   6.9693   7.0574   7.0574   7.0910   7.0910
     7.1989   7.1989   7.3614   7.4994   7.5101   7.6250   7.7360   8.0291
     8.0815   8.1602   8.1602   8.3752   8.4703   8.6215   8.6215   8.8580
     8.8580   8.9472   8.9472   8.9875   8.9964   9.0020   9.1588   9.2801
     9.3067   9.3751   9.4212   9.6608   9.7336   9.7336   9.8280   9.8280
     9.8729   9.9263   9.9746   9.9746  10.1743  10.2037  10.2419  10.2419
    10.3354  10.4491  10.8380  10.8662  10.8662  10.9654  10.9811  10.9811

     occupation numbers 
     1.0000   1.0000   1.0000   1.0000   1.0000   1.0000   1.0000   1.0000
     1.0000   1.0000   1.0000   1.0000   1.0000   1.0000   1.0000   1.0000
     1.0000   1.0000   1.0000   1.0000   1.0000   1.0000   1.0000   1.0000
     1.0000   1.0000   1.0000   1.0000   1.0000   1.0000   1.0000   1.0000
     1.0000   1.0000   1.0000   1.0000   1.0000   1.0000   1.0000   1.0000
     1.0000   1.0000   1.0000   1.0000   1.0000   1.0000   1.0000   1.0000
     1.0000   1.0000   1.0000   1.0000   1.0000   1.0000   1.0000   1.0000
     1.0000   1.0000   1.0000   1.0000   1.0000   1.0000   1.0000   1.0000
     1.0000   1.0000   1.0000   1.0000   1.0000   1.0000   1.0000   1.0000
     1.0000   1.0000   1.0000   1.0000   1.0000   1.0000   1.0000   1.0000
     1.0000   1.0000   1.0000   1.0000   1.0000   1.0000   1.0000   1.0000
     1.0000   1.0000   1.0000   1.0000   1.0000   1.0000   1.0000   1.0000
     1.0000   1.0000   1.0000   1.0000   1.0000   1.0000   1.0000   1.0000
     1.0000   1.0000   1.0000   1.0000   1.0000   1.0000   1.0000   1.0000
     1.0000   1.0000   1.0000   1.0000   1.0000   1.0000   1.0000   1.0000
     1.0000   1.0000   1.0000   1.0000   1.0000   1.0000   1.0000   1.0000
     1.0000   1.0000   1.0000   1.0000   1.0000   1.0000   1.0000   1.0000
     1.0000   1.0000   1.0000   1.0000   1.0000   1.0000   1.0000   1.0000
     1.0000   1.0000   1.0000   1.0000   1.0000   1.0000   1.0000   1.0000
     1.0000   1.0000   1.0000   1.0000   1.0000   1.0000   1.0000   1.0000
     1.0000   1.0000   1.0000   1.0000   1.0000   1.0000   1.0000   1.0000
     1.0000   1.0000   1.0000   1.0000   1.0000   1.0000   1.0000   1.0000
     1.0000   1.0000   1.0000   1.0000   1.0000   1.0000   1.0000   1.0000
     1.0000   1.0000   1.0000   1.0000   1.0000   1.0000   1.0000   1.0000
     1.0000   1.0000   1.0000   1.0000   1.0000   1.0000   1.0000   1.0000
     1.0000   1.0000   1.0000   1.0000   1.0000   1.0000   1.0000   1.0000
     1.0000   1.0000   1.0000   1.0000   1.0000   1.0000   1.0000   1.0000
     1.0000   1.0000   1.0000   1.0000   1.0000   1.0000   1.0000   1.0000
     1.0000   1.0000   1.0000   1.0000   1.0000   1.0000   1.0000   1.0000

          k = 0.3333 0.3333-0.3194 ( 38412 PWs)   bands (ev):

   -34.8142 -34.8141 -34.8108 -34.8108 -34.8108 -34.8108 -34.8090 -34.8090
   -34.8088 -34.8087 -34.8084 -34.8084 -34.8083 -34.8083 -34.8041 -34.8041
   -34.8041 -34.8041 -34.8039 -34.8039 -34.8038 -34.8037 -34.8009 -34.8009
   -34.8003 -34.8002 -34.7998 -34.7998 -34.7997 -34.7997 -34.7959 -34.7959
   -34.7948 -34.7948 -34.7932 -34.7932 -34.7922 -34.7922 -34.7922 -34.7922
   -11.4099 -11.4099 -11.4042 -11.4042 -11.3963 -11.3963 -11.3963 -11.3963
   -11.3610 -11.3610 -11.2989 -11.2989 -11.2989 -11.2989 -11.2153 -11.2153
   -11.1962 -11.1962 -11.1923 -11.1923 -11.1923 -11.1923 -11.1827 -11.1827
   -11.1824 -11.1824 -11.1711 -11.1711 -11.1689 -11.1689 -11.1689 -11.1689
   -11.1577 -11.1577 -11.1546 -11.1546 -11.1546 -11.1546 -11.1477 -11.1477
   -11.1405 -11.1405 -11.1405 -11.1405 -11.1303 -11.1303 -11.1269 -11.1269
   -11.1269 -11.1269 -11.1246 -11.1246 -11.1190 -11.1189 -11.1141 -11.1141
   -11.1103 -11.1103 -11.1078 -11.1078 -11.1078 -11.1078 -11.1038 -11.1038
   -11.1038 -11.1038 -11.1036 -11.1036 -11.0980 -11.0980 -11.0980 -11.0980
   -11.0945 -11.0945 -11.0921 -11.0921 -11.0921 -11.0921 -11.0853 -11.0853
    -7.9358  -7.9358  -7.4228  -7.4228  -7.4228  -7.4228  -7.0286  -7.0286
    -6.2749  -6.2749  -6.1859  -6.1859  -6.1859  -6.1859  -5.8565  -5.8565
    -1.2379  -1.2379  -0.7366  -0.7366  -0.7365  -0.7365  -0.3804  -0.3804
     0.3525   0.3525   0.6195   0.6195   0.6195   0.6195   0.7751   0.7751
     1.1023   1.1023   1.6856   1.6856   1.6856   1.6856   2.5113   2.5113
     5.2165   5.2165   5.3429   5.3429   5.3429   5.3429   5.3470   5.3470
     6.2562   6.2562   6.3018   6.3018   6.5307   6.5307   6.5308   6.5308
     6.6170   6.6170   7.0198   7.0198   7.0198   7.0198   7.1266   7.1266
     7.1266   7.1266   7.4380   7.4380   7.5499   7.5499   7.8980   7.8980
     8.2958   8.2958   8.4286   8.4286   8.4286   8.4286   8.6755   8.6755
     8.8814   8.8814   8.8814   8.8814   8.9997   8.9997   9.2322   9.2322
     9.3186   9.3186   9.5237   9.5237   9.7798   9.7798   9.7798   9.7798
     9.9006   9.9007  10.1056  10.1056  10.1056  10.1056  10.2677  10.2678
    10.3456  10.3456  10.9229  10.9229  10.9229  10.9229  10.9357  10.9357

     occupation numbers 
     1.0000   1.0000   1.0000   1.0000   1.0000   1.0000   1.0000   1.0000
     1.0000   1.0000   1.0000   1.0000   1.0000   1.0000   1.0000   1.0000
     1.0000   1.0000   1.0000   1.0000   1.0000   1.0000   1.0000   1.0000
     1.0000   1.0000   1.0000   1.0000   1.0000   1.0000   1.0000   1.0000
     1.0000   1.0000   1.0000   1.0000   1.0000   1.0000   1.0000   1.0000
     1.0000   1.0000   1.0000   1.0000   1.0000   1.0000   1.0000   1.0000
     1.0000   1.0000   1.0000   1.0000   1.0000   1.0000   1.0000   1.0000
     1.0000   1.0000   1.0000   1.0000   1.0000   1.0000   1.0000   1.0000
     1.0000   1.0000   1.0000   1.0000   1.0000   1.0000   1.0000   1.0000
     1.0000   1.0000   1.0000   1.0000   1.0000   1.0000   1.0000   1.0000
     1.0000   1.0000   1.0000   1.0000   1.0000   1.0000   1.0000   1.0000
     1.0000   1.0000   1.0000   1.0000   1.0000   1.0000   1.0000   1.0000
     1.0000   1.0000   1.0000   1.0000   1.0000   1.0000   1.0000   1.0000
     1.0000   1.0000   1.0000   1.0000   1.0000   1.0000   1.0000   1.0000
     1.0000   1.0000   1.0000   1.0000   1.0000   1.0000   1.0000   1.0000
     1.0000   1.0000   1.0000   1.0000   1.0000   1.0000   1.0000   1.0000
     1.0000   1.0000   1.0000   1.0000   1.0000   1.0000   1.0000   1.0000
     1.0000   1.0000   1.0000   1.0000   1.0000   1.0000   1.0000   1.0000
     1.0000   1.0000   1.0000   1.0000   1.0000   1.0000   1.0000   1.0000
     1.0000   1.0000   1.0000   1.0000   1.0000   1.0000   1.0000   1.0000
     1.0000   1.0000   1.0000   1.0000   1.0000   1.0000   1.0000   1.0000
     1.0000   1.0000   1.0000   1.0000   1.0000   1.0000   1.0000   1.0000
     1.0000   1.0000   1.0000   1.0000   1.0000   1.0000   1.0000   1.0000
     1.0000   1.0000   1.0000   1.0000   1.0000   1.0000   1.0000   1.0000
     1.0000   1.0000   1.0000   1.0000   1.0000   1.0000   1.0000   1.0000
     1.0000   1.0000   1.0000   1.0000   1.0000   1.0000   1.0000   1.0000
     1.0000   1.0000   1.0000   1.0000   1.0000   1.0000   1.0000   1.0000
     1.0000   1.0000   1.0000   1.0000   1.0000   1.0000   1.0000   1.0000
     1.0000   1.0000   1.0000   1.0000   1.0000   1.0000   1.0000   1.0000

          k = 0.3333-0.5000 0.0000 ( 38342 PWs)   bands (ev):

   -34.8152 -34.8152 -34.8109 -34.8109 -34.8093 -34.8093 -34.8074 -34.8074
   -34.8066 -34.8066 -34.8066 -34.8066 -34.8062 -34.8062 -34.8031 -34.8031
   -34.8028 -34.8028 -34.8027 -34.8027 -34.8002 -34.8002 -34.7982 -34.7982
   -34.7976 -34.7976 -34.7970 -34.7970 -34.7946 -34.7946 -34.7911 -34.7911
   -34.7900 -34.7900 -34.7891 -34.7891 -34.7889 -34.7889 -34.7859 -34.7859
   -11.4102 -11.4102 -11.4055 -11.4055 -11.3966 -11.3966 -11.3962 -11.3962
   -11.3394 -11.3394 -11.3188 -11.3188 -11.2643 -11.2643 -11.2436 -11.2436
   -11.2071 -11.2071 -11.1960 -11.1960 -11.1817 -11.1817 -11.1776 -11.1775
   -11.1757 -11.1757 -11.1673 -11.1673 -11.1669 -11.1669 -11.1654 -11.1653
   -11.1585 -11.1585 -11.1557 -11.1557 -11.1476 -11.1476 -11.1465 -11.1465
   -11.1439 -11.1439 -11.1420 -11.1420 -11.1345 -11.1345 -11.1277 -11.1277
   -11.1273 -11.1273 -11.1258 -11.1258 -11.1210 -11.1210 -11.1197 -11.1197
   -11.1190 -11.1190 -11.1143 -11.1143 -11.1085 -11.1085 -11.1051 -11.1050
   -11.1023 -11.1023 -11.1020 -11.1020 -11.0988 -11.0988 -11.0961 -11.0961
   -11.0927 -11.0927 -11.0922 -11.0922 -11.0920 -11.0920 -11.0863 -11.0863
    -7.7214  -7.7213  -7.6992  -7.6992  -7.2564  -7.2564  -7.2371  -7.2371
    -6.2132  -6.2132  -6.2070  -6.2070  -5.9890  -5.9890  -5.9855  -5.9855
    -1.2126  -1.2126  -0.7609  -0.7609  -0.7025  -0.7025  -0.4303  -0.4303
     0.4404   0.4404   0.4687   0.4687   0.4876   0.4876   0.8649   0.8649
     1.2785   1.2785   1.5593   1.5593   2.0857   2.0857   2.2065   2.2065
     5.1095   5.1095   5.1483   5.1483   5.3234   5.3234   5.5106   5.5106
     6.0674   6.0674   6.5613   6.5613   6.5755   6.5756   6.7013   6.7013
     6.7412   6.7412   6.8191   6.8191   7.1423   7.1423   7.1870   7.1870
     7.2466   7.2466   7.6172   7.6172   7.6274   7.6274   7.6499   7.6499
     7.6839   7.6839   7.7135   7.7135   8.9086   8.9086   8.9524   8.9524
     9.0036   9.0036   9.1121   9.1121   9.1179   9.1179   9.2663   9.2663
     9.2723   9.2723   9.5137   9.5137   9.6210   9.6210   9.6948   9.6948
     9.8618   9.8618   9.8714   9.8714  10.3755  10.3755  10.4739  10.4739
    10.5334  10.5334  10.5509  10.5509  10.9374  10.9374  10.9792  10.9792

     occupation numbers 
     1.0000   1.0000   1.0000   1.0000   1.0000   1.0000   1.0000   1.0000
     1.0000   1.0000   1.0000   1.0000   1.0000   1.0000   1.0000   1.0000
     1.0000   1.0000   1.0000   1.0000   1.0000   1.0000   1.0000   1.0000
     1.0000   1.0000   1.0000   1.0000   1.0000   1.0000   1.0000   1.0000
     1.0000   1.0000   1.0000   1.0000   1.0000   1.0000   1.0000   1.0000
     1.0000   1.0000   1.0000   1.0000   1.0000   1.0000   1.0000   1.0000
     1.0000   1.0000   1.0000   1.0000   1.0000   1.0000   1.0000   1.0000
     1.0000   1.0000   1.0000   1.0000   1.0000   1.0000   1.0000   1.0000
     1.0000   1.0000   1.0000   1.0000   1.0000   1.0000   1.0000   1.0000
     1.0000   1.0000   1.0000   1.0000   1.0000   1.0000   1.0000   1.0000
     1.0000   1.0000   1.0000   1.0000   1.0000   1.0000   1.0000   1.0000
     1.0000   1.0000   1.0000   1.0000   1.0000   1.0000   1.0000   1.0000
     1.0000   1.0000   1.0000   1.0000   1.0000   1.0000   1.0000   1.0000
     1.0000   1.0000   1.0000   1.0000   1.0000   1.0000   1.0000   1.0000
     1.0000   1.0000   1.0000   1.0000   1.0000   1.0000   1.0000   1.0000
     1.0000   1.0000   1.0000   1.0000   1.0000   1.0000   1.0000   1.0000
     1.0000   1.0000   1.0000   1.0000   1.0000   1.0000   1.0000   1.0000
     1.0000   1.0000   1.0000   1.0000   1.0000   1.0000   1.0000   1.0000
     1.0000   1.0000   1.0000   1.0000   1.0000   1.0000   1.0000   1.0000
     1.0000   1.0000   1.0000   1.0000   1.0000   1.0000   1.0000   1.0000
     1.0000   1.0000   1.0000   1.0000   1.0000   1.0000   1.0000   1.0000
     1.0000   1.0000   1.0000   1.0000   1.0000   1.0000   1.0000   1.0000
     1.0000   1.0000   1.0000   1.0000   1.0000   1.0000   1.0000   1.0000
     1.0000   1.0000   1.0000   1.0000   1.0000   1.0000   1.0000   1.0000
     1.0000   1.0000   1.0000   1.0000   1.0000   1.0000   1.0000   1.0000
     1.0000   1.0000   1.0000   1.0000   1.0000   1.0000   1.0000   1.0000
     1.0000   1.0000   1.0000   1.0000   1.0000   1.0000   1.0000   1.0000
     1.0000   1.0000   1.0000   1.0000   1.0000   1.0000   1.0000   1.0000
     1.0000   1.0000   1.0000   1.0000   1.0000   1.0000   1.0000   1.0000

          k = 0.3333-0.5000 0.1065 ( 38374 PWs)   bands (ev):

   -34.8136 -34.8136 -34.8127 -34.8127 -34.8102 -34.8102 -34.8094 -34.8094
   -34.8079 -34.8079 -34.8069 -34.8069 -34.8050 -34.8050 -34.8049 -34.8049
   -34.8035 -34.8035 -34.8027 -34.8026 -34.8023 -34.8023 -34.8021 -34.8021
   -34.7985 -34.7985 -34.7965 -34.7965 -34.7957 -34.7957 -34.7940 -34.7940
   -34.7917 -34.7917 -34.7904 -34.7904 -34.7896 -34.7896 -34.7877 -34.7877
   -11.4093 -11.4093 -11.4049 -11.4049 -11.3973 -11.3973 -11.3972 -11.3972
   -11.3381 -11.3381 -11.3203 -11.3203 -11.2632 -11.2632 -11.2455 -11.2455
   -11.2055 -11.2055 -11.1948 -11.1948 -11.1811 -11.1811 -11.1809 -11.1809
   -11.1775 -11.1775 -11.1675 -11.1675 -11.1666 -11.1666 -11.1646 -11.1646
   -11.1579 -11.1579 -11.1551 -11.1551 -11.1473 -11.1473 -11.1465 -11.1465
   -11.1441 -11.1441 -11.1435 -11.1435 -11.1328 -11.1328 -11.1270 -11.1270
   -11.1266 -11.1266 -11.1258 -11.1258 -11.1198 -11.1198 -11.1194 -11.1194
   -11.1193 -11.1193 -11.1141 -11.1140 -11.1077 -11.1077 -11.1044 -11.1044
   -11.1032 -11.1032 -11.1018 -11.1018 -11.1000 -11.1000 -11.0971 -11.0970
   -11.0933 -11.0933 -11.0927 -11.0927 -11.0916 -11.0916 -11.0867 -11.0867
    -7.7199  -7.7199  -7.7007  -7.7007  -7.2551  -7.2551  -7.2384  -7.2384
    -6.2128  -6.2128  -6.2074  -6.2074  -5.9888  -5.9888  -5.9857  -5.9857
    -1.1891  -1.1891  -0.8022  -0.8022  -0.6867  -0.6867  -0.4517  -0.4517
     0.4706   0.4706   0.4820   0.4821   0.4875   0.4875   0.8455   0.8455
     1.2994   1.2994   1.5422   1.5422   2.0909   2.0909   2.1954   2.1954
     5.1338   5.1338   5.1557   5.1557   5.3071   5.3071   5.4804   5.4804
     6.1086   6.1086   6.5672   6.5672   6.6008   6.6009   6.6513   6.6513
     6.7070   6.7070   6.8630   6.8630   7.1563   7.1563   7.1771   7.1771
     7.2307   7.2307   7.4008   7.4008   7.4705   7.4705   7.6118   7.6118
     7.9261   7.9261   7.9776   7.9776   8.8498   8.8498   8.9413   8.9413
     9.0034   9.0034   9.1128   9.1128   9.1223   9.1223   9.1965   9.1965
     9.2879   9.2879   9.5594   9.5594   9.5938   9.5938   9.7023   9.7023
     9.8562   9.8562   9.9154   9.9154  10.3178  10.3178  10.4072  10.4072
    10.4663  10.4663  10.6345  10.6345  10.9688  10.9688  10.9853  10.9853

     occupation numbers 
     1.0000   1.0000   1.0000   1.0000   1.0000   1.0000   1.0000   1.0000
     1.0000   1.0000   1.0000   1.0000   1.0000   1.0000   1.0000   1.0000
     1.0000   1.0000   1.0000   1.0000   1.0000   1.0000   1.0000   1.0000
     1.0000   1.0000   1.0000   1.0000   1.0000   1.0000   1.0000   1.0000
     1.0000   1.0000   1.0000   1.0000   1.0000   1.0000   1.0000   1.0000
     1.0000   1.0000   1.0000   1.0000   1.0000   1.0000   1.0000   1.0000
     1.0000   1.0000   1.0000   1.0000   1.0000   1.0000   1.0000   1.0000
     1.0000   1.0000   1.0000   1.0000   1.0000   1.0000   1.0000   1.0000
     1.0000   1.0000   1.0000   1.0000   1.0000   1.0000   1.0000   1.0000
     1.0000   1.0000   1.0000   1.0000   1.0000   1.0000   1.0000   1.0000
     1.0000   1.0000   1.0000   1.0000   1.0000   1.0000   1.0000   1.0000
     1.0000   1.0000   1.0000   1.0000   1.0000   1.0000   1.0000   1.0000
     1.0000   1.0000   1.0000   1.0000   1.0000   1.0000   1.0000   1.0000
     1.0000   1.0000   1.0000   1.0000   1.0000   1.0000   1.0000   1.0000
     1.0000   1.0000   1.0000   1.0000   1.0000   1.0000   1.0000   1.0000
     1.0000   1.0000   1.0000   1.0000   1.0000   1.0000   1.0000   1.0000
     1.0000   1.0000   1.0000   1.0000   1.0000   1.0000   1.0000   1.0000
     1.0000   1.0000   1.0000   1.0000   1.0000   1.0000   1.0000   1.0000
     1.0000   1.0000   1.0000   1.0000   1.0000   1.0000   1.0000   1.0000
     1.0000   1.0000   1.0000   1.0000   1.0000   1.0000   1.0000   1.0000
     1.0000   1.0000   1.0000   1.0000   1.0000   1.0000   1.0000   1.0000
     1.0000   1.0000   1.0000   1.0000   1.0000   1.0000   1.0000   1.0000
     1.0000   1.0000   1.0000   1.0000   1.0000   1.0000   1.0000   1.0000
     1.0000   1.0000   1.0000   1.0000   1.0000   1.0000   1.0000   1.0000
     1.0000   1.0000   1.0000   1.0000   1.0000   1.0000   1.0000   1.0000
     1.0000   1.0000   1.0000   1.0000   1.0000   1.0000   1.0000   1.0000
     1.0000   1.0000   1.0000   1.0000   1.0000   1.0000   1.0000   1.0000
     1.0000   1.0000   1.0000   1.0000   1.0000   1.0000   1.0000   1.0000
     1.0000   1.0000   1.0000   1.0000   1.0000   1.0000   1.0000   1.0000

          k = 0.3333-0.5000 0.2129 ( 38406 PWs)   bands (ev):

   -34.8139 -34.8139 -34.8121 -34.8121 -34.8110 -34.8110 -34.8084 -34.8084
   -34.8084 -34.8084 -34.8079 -34.8079 -34.8067 -34.8067 -34.8055 -34.8055
   -34.8050 -34.8050 -34.8037 -34.8037 -34.8032 -34.8032 -34.8018 -34.8018
   -34.7996 -34.7996 -34.7986 -34.7986 -34.7972 -34.7972 -34.7957 -34.7957
   -34.7952 -34.7952 -34.7925 -34.7925 -34.7925 -34.7925 -34.7890 -34.7890
   -11.4069 -11.4069 -11.4033 -11.4033 -11.3999 -11.3999 -11.3989 -11.3989
   -11.3346 -11.3346 -11.3244 -11.3244 -11.2601 -11.2601 -11.2500 -11.2500
   -11.2011 -11.2011 -11.1915 -11.1915 -11.1879 -11.1879 -11.1818 -11.1818
   -11.1786 -11.1785 -11.1711 -11.1711 -11.1649 -11.1649 -11.1632 -11.1632
   -11.1564 -11.1564 -11.1542 -11.1542 -11.1468 -11.1468 -11.1466 -11.1466
   -11.1453 -11.1453 -11.1448 -11.1447 -11.1303 -11.1303 -11.1273 -11.1273
   -11.1245 -11.1245 -11.1244 -11.1244 -11.1206 -11.1206 -11.1199 -11.1199
   -11.1162 -11.1162 -11.1120 -11.1120 -11.1064 -11.1064 -11.1056 -11.1056
   -11.1033 -11.1033 -11.1025 -11.1025 -11.1006 -11.1006 -11.0994 -11.0994
   -11.0947 -11.0947 -11.0941 -11.0941 -11.0905 -11.0905 -11.0877 -11.0877
    -7.7159  -7.7158  -7.7048  -7.7048  -7.2516  -7.2516  -7.2420  -7.2420
    -6.2116  -6.2116  -6.2085  -6.2085  -5.9881  -5.9881  -5.9864  -5.9864
    -1.1215  -1.1215  -0.9026  -0.9026  -0.6420  -0.6420  -0.5072  -0.5072
     0.4756   0.4756   0.4858   0.4858   0.5820   0.5820   0.7875   0.7875
     1.3547   1.3547   1.4946   1.4946   2.1071   2.1071   2.1672   2.1672
     5.1789   5.1789   5.2017   5.2017   5.2664   5.2664   5.4012   5.4012
     6.2212   6.2212   6.5297   6.5297   6.5853   6.5853   6.6577   6.6577
     6.6791   6.6791   6.9458   6.9458   7.0080   7.0081   7.1652   7.1652
     7.1937   7.1937   7.3206   7.3206   7.4040   7.4040   7.5646   7.5646
     8.2127   8.2127   8.2877   8.2877   8.6944   8.6944   8.8567   8.8567
     9.0045   9.0045   9.0569   9.0569   9.1184   9.1184   9.1267   9.1267
     9.3449   9.3449   9.5214   9.5214   9.6890   9.6890   9.7330   9.7330
     9.8301   9.8301  10.0255  10.0255  10.0982  10.0982  10.3254  10.3254
    10.4896  10.4896  10.6513  10.6513  11.0004  11.0004  11.0068  11.0068

     occupation numbers 
     1.0000   1.0000   1.0000   1.0000   1.0000   1.0000   1.0000   1.0000
     1.0000   1.0000   1.0000   1.0000   1.0000   1.0000   1.0000   1.0000
     1.0000   1.0000   1.0000   1.0000   1.0000   1.0000   1.0000   1.0000
     1.0000   1.0000   1.0000   1.0000   1.0000   1.0000   1.0000   1.0000
     1.0000   1.0000   1.0000   1.0000   1.0000   1.0000   1.0000   1.0000
     1.0000   1.0000   1.0000   1.0000   1.0000   1.0000   1.0000   1.0000
     1.0000   1.0000   1.0000   1.0000   1.0000   1.0000   1.0000   1.0000
     1.0000   1.0000   1.0000   1.0000   1.0000   1.0000   1.0000   1.0000
     1.0000   1.0000   1.0000   1.0000   1.0000   1.0000   1.0000   1.0000
     1.0000   1.0000   1.0000   1.0000   1.0000   1.0000   1.0000   1.0000
     1.0000   1.0000   1.0000   1.0000   1.0000   1.0000   1.0000   1.0000
     1.0000   1.0000   1.0000   1.0000   1.0000   1.0000   1.0000   1.0000
     1.0000   1.0000   1.0000   1.0000   1.0000   1.0000   1.0000   1.0000
     1.0000   1.0000   1.0000   1.0000   1.0000   1.0000   1.0000   1.0000
     1.0000   1.0000   1.0000   1.0000   1.0000   1.0000   1.0000   1.0000
     1.0000   1.0000   1.0000   1.0000   1.0000   1.0000   1.0000   1.0000
     1.0000   1.0000   1.0000   1.0000   1.0000   1.0000   1.0000   1.0000
     1.0000   1.0000   1.0000   1.0000   1.0000   1.0000   1.0000   1.0000
     1.0000   1.0000   1.0000   1.0000   1.0000   1.0000   1.0000   1.0000
     1.0000   1.0000   1.0000   1.0000   1.0000   1.0000   1.0000   1.0000
     1.0000   1.0000   1.0000   1.0000   1.0000   1.0000   1.0000   1.0000
     1.0000   1.0000   1.0000   1.0000   1.0000   1.0000   1.0000   1.0000
     1.0000   1.0000   1.0000   1.0000   1.0000   1.0000   1.0000   1.0000
     1.0000   1.0000   1.0000   1.0000   1.0000   1.0000   1.0000   1.0000
     1.0000   1.0000   1.0000   1.0000   1.0000   1.0000   1.0000   1.0000
     1.0000   1.0000   1.0000   1.0000   1.0000   1.0000   1.0000   1.0000
     1.0000   1.0000   1.0000   1.0000   1.0000   1.0000   1.0000   1.0000
     1.0000   1.0000   1.0000   1.0000   1.0000   1.0000   1.0000   1.0000
     1.0000   1.0000   1.0000   1.0000   1.0000   1.0000   1.0000   1.0000

          k = 0.3333-0.5000-0.3194 ( 38396 PWs)   bands (ev):

   -34.8113 -34.8113 -34.8112 -34.8112 -34.8097 -34.8097 -34.8097 -34.8097
   -34.8068 -34.8068 -34.8068 -34.8068 -34.8060 -34.8060 -34.8060 -34.8060
   -34.8024 -34.8024 -34.8024 -34.8023 -34.8009 -34.8009 -34.8009 -34.8009
   -34.7984 -34.7984 -34.7984 -34.7984 -34.7953 -34.7953 -34.7953 -34.7952
   -34.7950 -34.7950 -34.7950 -34.7950 -34.7949 -34.7948 -34.7948 -34.7948
   -11.4035 -11.4035 -11.4034 -11.4034 -11.4011 -11.4011 -11.4011 -11.4011
   -11.3297 -11.3297 -11.3297 -11.3297 -11.2553 -11.2553 -11.2553 -11.2553
   -11.1950 -11.1949 -11.1949 -11.1949 -11.1869 -11.1869 -11.1869 -11.1869
   -11.1751 -11.1751 -11.1751 -11.1751 -11.1633 -11.1633 -11.1633 -11.1633
   -11.1548 -11.1548 -11.1548 -11.1548 -11.1466 -11.1466 -11.1466 -11.1466
   -11.1456 -11.1456 -11.1456 -11.1456 -11.1285 -11.1285 -11.1285 -11.1285
   -11.1223 -11.1223 -11.1223 -11.1223 -11.1221 -11.1221 -11.1221 -11.1221
   -11.1112 -11.1112 -11.1112 -11.1112 -11.1077 -11.1077 -11.1077 -11.1077
   -11.1026 -11.1026 -11.1026 -11.1026 -11.1006 -11.1006 -11.1006 -11.1006
   -11.0954 -11.0954 -11.0954 -11.0953 -11.0891 -11.0891 -11.0891 -11.0891
    -7.7103  -7.7103  -7.7103  -7.7103  -7.2468  -7.2468  -7.2468  -7.2468
    -6.2101  -6.2101  -6.2101  -6.2101  -5.9872  -5.9872  -5.9872  -5.9872
    -1.0197  -1.0197  -1.0197  -1.0197  -0.5773  -0.5773  -0.5772  -0.5772
     0.4814   0.4814   0.4815   0.4815   0.6947   0.6947   0.6947   0.6947
     1.4265   1.4265   1.4265   1.4265   2.1342   2.1342   2.1342   2.1342
     5.2183   5.2183   5.2183   5.2183   5.2989   5.2989   5.2989   5.2989
     6.3746   6.3746   6.3746   6.3746   6.6161   6.6161   6.6161   6.6161
     6.8152   6.8152   6.8152   6.8152   7.0521   7.0521   7.0521   7.0521
     7.2460   7.2460   7.2460   7.2460   7.4899   7.4899   7.4899   7.4899
     8.4741   8.4741   8.4741   8.4741   8.6026   8.6026   8.6026   8.6026
     9.0125   9.0125   9.0125   9.0125   9.1248   9.1248   9.1248   9.1248
     9.4284   9.4284   9.4284   9.4284   9.7829   9.7829   9.7830   9.7830
     9.8787   9.8787   9.8787   9.8787  10.1701  10.1701  10.1701  10.1701
    10.5876  10.5876  10.5876  10.5876  11.0136  11.0136  11.0136  11.0137

     occupation numbers 
     1.0000   1.0000   1.0000   1.0000   1.0000   1.0000   1.0000   1.0000
     1.0000   1.0000   1.0000   1.0000   1.0000   1.0000   1.0000   1.0000
     1.0000   1.0000   1.0000   1.0000   1.0000   1.0000   1.0000   1.0000
     1.0000   1.0000   1.0000   1.0000   1.0000   1.0000   1.0000   1.0000
     1.0000   1.0000   1.0000   1.0000   1.0000   1.0000   1.0000   1.0000
     1.0000   1.0000   1.0000   1.0000   1.0000   1.0000   1.0000   1.0000
     1.0000   1.0000   1.0000   1.0000   1.0000   1.0000   1.0000   1.0000
     1.0000   1.0000   1.0000   1.0000   1.0000   1.0000   1.0000   1.0000
     1.0000   1.0000   1.0000   1.0000   1.0000   1.0000   1.0000   1.0000
     1.0000   1.0000   1.0000   1.0000   1.0000   1.0000   1.0000   1.0000
     1.0000   1.0000   1.0000   1.0000   1.0000   1.0000   1.0000   1.0000
     1.0000   1.0000   1.0000   1.0000   1.0000   1.0000   1.0000   1.0000
     1.0000   1.0000   1.0000   1.0000   1.0000   1.0000   1.0000   1.0000
     1.0000   1.0000   1.0000   1.0000   1.0000   1.0000   1.0000   1.0000
     1.0000   1.0000   1.0000   1.0000   1.0000   1.0000   1.0000   1.0000
     1.0000   1.0000   1.0000   1.0000   1.0000   1.0000   1.0000   1.0000
     1.0000   1.0000   1.0000   1.0000   1.0000   1.0000   1.0000   1.0000
     1.0000   1.0000   1.0000   1.0000   1.0000   1.0000   1.0000   1.0000
     1.0000   1.0000   1.0000   1.0000   1.0000   1.0000   1.0000   1.0000
     1.0000   1.0000   1.0000   1.0000   1.0000   1.0000   1.0000   1.0000
     1.0000   1.0000   1.0000   1.0000   1.0000   1.0000   1.0000   1.0000
     1.0000   1.0000   1.0000   1.0000   1.0000   1.0000   1.0000   1.0000
     1.0000   1.0000   1.0000   1.0000   1.0000   1.0000   1.0000   1.0000
     1.0000   1.0000   1.0000   1.0000   1.0000   1.0000   1.0000   1.0000
     1.0000   1.0000   1.0000   1.0000   1.0000   1.0000   1.0000   1.0000
     1.0000   1.0000   1.0000   1.0000   1.0000   1.0000   1.0000   1.0000
     1.0000   1.0000   1.0000   1.0000   1.0000   1.0000   1.0000   1.0000
     1.0000   1.0000   1.0000   1.0000   1.0000   1.0000   1.0000   1.0000
     1.0000   1.0000   1.0000   1.0000   1.0000   1.0000   1.0000   1.0000

          k =-0.5000-0.5000 0.0000 ( 38348 PWs)   bands (ev):

   -34.8088 -34.8087 -34.8087 -34.8087 -34.8086 -34.8086 -34.8086 -34.8086
   -34.8053 -34.8053 -34.8053 -34.8053 -34.8046 -34.8046 -34.8046 -34.8046
   -34.8037 -34.8037 -34.8037 -34.8037 -34.8024 -34.8024 -34.8024 -34.8024
   -34.8004 -34.8004 -34.8004 -34.8004 -34.7926 -34.7926 -34.7926 -34.7926
   -34.7905 -34.7905 -34.7905 -34.7905 -34.7884 -34.7884 -34.7884 -34.7884
   -11.4084 -11.4084 -11.4084 -11.4084 -11.3972 -11.3972 -11.3972 -11.3972
   -11.3014 -11.3014 -11.3014 -11.3014 -11.2806 -11.2806 -11.2806 -11.2806
   -11.2017 -11.2017 -11.2017 -11.2017 -11.1747 -11.1747 -11.1747 -11.1747
   -11.1658 -11.1658 -11.1658 -11.1658 -11.1621 -11.1621 -11.1621 -11.1621
   -11.1614 -11.1614 -11.1614 -11.1614 -11.1539 -11.1539 -11.1539 -11.1539
   -11.1377 -11.1377 -11.1377 -11.1377 -11.1342 -11.1342 -11.1342 -11.1342
   -11.1219 -11.1219 -11.1219 -11.1219 -11.1199 -11.1199 -11.1199 -11.1199
   -11.1164 -11.1164 -11.1164 -11.1164 -11.1145 -11.1145 -11.1145 -11.1145
   -11.1002 -11.1002 -11.1002 -11.1002 -11.0981 -11.0981 -11.0981 -11.0981
   -11.0973 -11.0973 -11.0973 -11.0973 -11.0896 -11.0896 -11.0896 -11.0896
    -7.5163  -7.5163  -7.5163  -7.5163  -7.4951  -7.4951  -7.4951  -7.4951
    -6.0722  -6.0722  -6.0722  -6.0722  -6.0678  -6.0678  -6.0678  -6.0678
    -0.9938  -0.9938  -0.9938  -0.9938  -0.6092  -0.6092  -0.6092  -0.6092
     0.4388   0.4388   0.4388   0.4388   0.6645   0.6646   0.6646   0.6646
     1.7338   1.7338   1.7338   1.7338   1.9183   1.9183   1.9183   1.9183
     5.0419   5.0419   5.0419   5.0419   5.3907   5.3907   5.3907   5.3907
     6.5810   6.5810   6.5810   6.5810   6.6095   6.6095   6.6095   6.6095
     6.9101   6.9101   6.9101   6.9101   7.0281   7.0281   7.0281   7.0281
     7.1958   7.1958   7.1958   7.1958   7.6081   7.6081   7.6081   7.6081
     7.6693   7.6693   7.6693   7.6693   9.1265   9.1265   9.1265   9.1265
     9.1552   9.1552   9.1552   9.1552   9.1640   9.1640   9.1640   9.1640
     9.3395   9.3395   9.3395   9.3395   9.5760   9.5760   9.5760   9.5760
     9.7190   9.7190   9.7190   9.7190  10.5580  10.5580  10.5580  10.5580
    10.7606  10.7606  10.7606  10.7606  10.9969  10.9969  10.9969  10.9969

     occupation numbers 
     1.0000   1.0000   1.0000   1.0000   1.0000   1.0000   1.0000   1.0000
     1.0000   1.0000   1.0000   1.0000   1.0000   1.0000   1.0000   1.0000
     1.0000   1.0000   1.0000   1.0000   1.0000   1.0000   1.0000   1.0000
     1.0000   1.0000   1.0000   1.0000   1.0000   1.0000   1.0000   1.0000
     1.0000   1.0000   1.0000   1.0000   1.0000   1.0000   1.0000   1.0000
     1.0000   1.0000   1.0000   1.0000   1.0000   1.0000   1.0000   1.0000
     1.0000   1.0000   1.0000   1.0000   1.0000   1.0000   1.0000   1.0000
     1.0000   1.0000   1.0000   1.0000   1.0000   1.0000   1.0000   1.0000
     1.0000   1.0000   1.0000   1.0000   1.0000   1.0000   1.0000   1.0000
     1.0000   1.0000   1.0000   1.0000   1.0000   1.0000   1.0000   1.0000
     1.0000   1.0000   1.0000   1.0000   1.0000   1.0000   1.0000   1.0000
     1.0000   1.0000   1.0000   1.0000   1.0000   1.0000   1.0000   1.0000
     1.0000   1.0000   1.0000   1.0000   1.0000   1.0000   1.0000   1.0000
     1.0000   1.0000   1.0000   1.0000   1.0000   1.0000   1.0000   1.0000
     1.0000   1.0000   1.0000   1.0000   1.0000   1.0000   1.0000   1.0000
     1.0000   1.0000   1.0000   1.0000   1.0000   1.0000   1.0000   1.0000
     1.0000   1.0000   1.0000   1.0000   1.0000   1.0000   1.0000   1.0000
     1.0000   1.0000   1.0000   1.0000   1.0000   1.0000   1.0000   1.0000
     1.0000   1.0000   1.0000   1.0000   1.0000   1.0000   1.0000   1.0000
     1.0000   1.0000   1.0000   1.0000   1.0000   1.0000   1.0000   1.0000
     1.0000   1.0000   1.0000   1.0000   1.0000   1.0000   1.0000   1.0000
     1.0000   1.0000   1.0000   1.0000   1.0000   1.0000   1.0000   1.0000
     1.0000   1.0000   1.0000   1.0000   1.0000   1.0000   1.0000   1.0000
     1.0000   1.0000   1.0000   1.0000   1.0000   1.0000   1.0000   1.0000
     1.0000   1.0000   1.0000   1.0000   1.0000   1.0000   1.0000   1.0000
     1.0000   1.0000   1.0000   1.0000   1.0000   1.0000   1.0000   1.0000
     1.0000   1.0000   1.0000   1.0000   1.0000   1.0000   1.0000   1.0000
     1.0000   1.0000   1.0000   1.0000   1.0000   1.0000   1.0000   1.0000
     1.0000   1.0000   1.0000   1.0000   1.0000   1.0000   1.0000   1.0000

          k =-0.5000-0.5000 0.1065 ( 38456 PWs)   bands (ev):

   -34.8127 -34.8127 -34.8127 -34.8127 -34.8107 -34.8107 -34.8107 -34.8107
   -34.8096 -34.8096 -34.8096 -34.8096 -34.8092 -34.8091 -34.8091 -34.8091
   -34.8071 -34.8071 -34.8071 -34.8071 -34.8068 -34.8068 -34.8068 -34.8068
   -34.8042 -34.8042 -34.8042 -34.8042 -34.7966 -34.7966 -34.7966 -34.7966
   -34.7966 -34.7966 -34.7966 -34.7966 -34.7894 -34.7894 -34.7894 -34.7894
   -11.4077 -11.4077 -11.4077 -11.4077 -11.3980 -11.3980 -11.3980 -11.3980
   -11.3002 -11.3002 -11.3002 -11.3002 -11.2822 -11.2822 -11.2822 -11.2822
   -11.2003 -11.2003 -11.2003 -11.2003 -11.1779 -11.1778 -11.1778 -11.1778
   -11.1653 -11.1653 -11.1653 -11.1653 -11.1614 -11.1613 -11.1613 -11.1613
   -11.1598 -11.1598 -11.1598 -11.1598 -11.1553 -11.1553 -11.1553 -11.1553
   -11.1372 -11.1372 -11.1372 -11.1372 -11.1344 -11.1344 -11.1344 -11.1344
   -11.1202 -11.1202 -11.1202 -11.1202 -11.1201 -11.1201 -11.1201 -11.1201
   -11.1178 -11.1178 -11.1178 -11.1178 -11.1124 -11.1124 -11.1124 -11.1124
   -11.1014 -11.1014 -11.1014 -11.1014 -11.0992 -11.0992 -11.0992 -11.0992
   -11.0966 -11.0966 -11.0966 -11.0966 -11.0902 -11.0902 -11.0902 -11.0902
    -7.5149  -7.5149  -7.5149  -7.5149  -7.4965  -7.4965  -7.4965  -7.4965
    -6.0720  -6.0719  -6.0719  -6.0719  -6.0681  -6.0681  -6.0681  -6.0681
    -0.9732  -0.9731  -0.9731  -0.9731  -0.6429  -0.6429  -0.6429  -0.6429
     0.4635   0.4635   0.4635   0.4635   0.6559   0.6559   0.6559   0.6559
     1.7442   1.7442   1.7442   1.7442   1.9043   1.9043   1.9043   1.9043
     5.0636   5.0636   5.0636   5.0636   5.3651   5.3651   5.3651   5.3651
     6.6120   6.6120   6.6120   6.6120   6.6225   6.6225   6.6225   6.6225
     6.8682   6.8682   6.8682   6.8682   7.0589   7.0589   7.0589   7.0589
     7.1899   7.1899   7.1899   7.1899   7.3338   7.3338   7.3338   7.3338
     7.9693   7.9693   7.9693   7.9693   9.0619   9.0619   9.0619   9.0619
     9.1549   9.1549   9.1549   9.1549   9.1622   9.1622   9.1622   9.1622
     9.3648   9.3648   9.3648   9.3648   9.6311   9.6311   9.6311   9.6311
     9.6927   9.6927   9.6927   9.6927  10.4675  10.4675  10.4675  10.4675
    10.7757  10.7757  10.7757  10.7757  10.9809  10.9809  10.9809  10.9809

     occupation numbers 
     1.0000   1.0000   1.0000   1.0000   1.0000   1.0000   1.0000   1.0000
     1.0000   1.0000   1.0000   1.0000   1.0000   1.0000   1.0000   1.0000
     1.0000   1.0000   1.0000   1.0000   1.0000   1.0000   1.0000   1.0000
     1.0000   1.0000   1.0000   1.0000   1.0000   1.0000   1.0000   1.0000
     1.0000   1.0000   1.0000   1.0000   1.0000   1.0000   1.0000   1.0000
     1.0000   1.0000   1.0000   1.0000   1.0000   1.0000   1.0000   1.0000
     1.0000   1.0000   1.0000   1.0000   1.0000   1.0000   1.0000   1.0000
     1.0000   1.0000   1.0000   1.0000   1.0000   1.0000   1.0000   1.0000
     1.0000   1.0000   1.0000   1.0000   1.0000   1.0000   1.0000   1.0000
     1.0000   1.0000   1.0000   1.0000   1.0000   1.0000   1.0000   1.0000
     1.0000   1.0000   1.0000   1.0000   1.0000   1.0000   1.0000   1.0000
     1.0000   1.0000   1.0000   1.0000   1.0000   1.0000   1.0000   1.0000
     1.0000   1.0000   1.0000   1.0000   1.0000   1.0000   1.0000   1.0000
     1.0000   1.0000   1.0000   1.0000   1.0000   1.0000   1.0000   1.0000
     1.0000   1.0000   1.0000   1.0000   1.0000   1.0000   1.0000   1.0000
     1.0000   1.0000   1.0000   1.0000   1.0000   1.0000   1.0000   1.0000
     1.0000   1.0000   1.0000   1.0000   1.0000   1.0000   1.0000   1.0000
     1.0000   1.0000   1.0000   1.0000   1.0000   1.0000   1.0000   1.0000
     1.0000   1.0000   1.0000   1.0000   1.0000   1.0000   1.0000   1.0000
     1.0000   1.0000   1.0000   1.0000   1.0000   1.0000   1.0000   1.0000
     1.0000   1.0000   1.0000   1.0000   1.0000   1.0000   1.0000   1.0000
     1.0000   1.0000   1.0000   1.0000   1.0000   1.0000   1.0000   1.0000
     1.0000   1.0000   1.0000   1.0000   1.0000   1.0000   1.0000   1.0000
     1.0000   1.0000   1.0000   1.0000   1.0000   1.0000   1.0000   1.0000
     1.0000   1.0000   1.0000   1.0000   1.0000   1.0000   1.0000   1.0000
     1.0000   1.0000   1.0000   1.0000   1.0000   1.0000   1.0000   1.0000
     1.0000   1.0000   1.0000   1.0000   1.0000   1.0000   1.0000   1.0000
     1.0000   1.0000   1.0000   1.0000   1.0000   1.0000   1.0000   1.0000
     1.0000   1.0000   1.0000   1.0000   1.0000   1.0000   1.0000   1.0000

          k =-0.5000-0.5000 0.2129 ( 38352 PWs)   bands (ev):

   -34.8093 -34.8093 -34.8093 -34.8093 -34.8065 -34.8065 -34.8065 -34.8065
   -34.8054 -34.8054 -34.8054 -34.8054 -34.8053 -34.8053 -34.8053 -34.8053
   -34.8036 -34.8036 -34.8036 -34.8036 -34.8004 -34.8004 -34.8004 -34.8004
   -34.7948 -34.7948 -34.7948 -34.7948 -34.7942 -34.7942 -34.7942 -34.7942
   -34.7937 -34.7937 -34.7937 -34.7937 -34.7911 -34.7911 -34.7911 -34.7911
   -11.4057 -11.4057 -11.4057 -11.4057 -11.4001 -11.4001 -11.4001 -11.4001
   -11.2968 -11.2968 -11.2968 -11.2968 -11.2865 -11.2865 -11.2865 -11.2865
   -11.1963 -11.1963 -11.1963 -11.1963 -11.1840 -11.1840 -11.1840 -11.1840
   -11.1638 -11.1638 -11.1638 -11.1638 -11.1595 -11.1594 -11.1594 -11.1594
   -11.1582 -11.1582 -11.1582 -11.1582 -11.1579 -11.1579 -11.1579 -11.1579
   -11.1363 -11.1362 -11.1362 -11.1362 -11.1348 -11.1348 -11.1348 -11.1348
   -11.1203 -11.1203 -11.1203 -11.1203 -11.1193 -11.1193 -11.1193 -11.1193
   -11.1156 -11.1156 -11.1156 -11.1156 -11.1090 -11.1090 -11.1090 -11.1090
   -11.1049 -11.1049 -11.1049 -11.1049 -11.1016 -11.1016 -11.1016 -11.1016
   -11.0952 -11.0952 -11.0952 -11.0952 -11.0915 -11.0915 -11.0915 -11.0915
    -7.5110  -7.5110  -7.5110  -7.5110  -7.5004  -7.5004  -7.5004  -7.5004
    -6.0711  -6.0711  -6.0711  -6.0711  -6.0689  -6.0689  -6.0689  -6.0689
    -0.9141  -0.9140  -0.9140  -0.9140  -0.7264  -0.7264  -0.7264  -0.7264
     0.5213   0.5213   0.5213   0.5213   0.6289   0.6289   0.6289   0.6289
     1.7742   1.7743   1.7743   1.7743   1.8672   1.8672   1.8672   1.8672
     5.1243   5.1243   5.1243   5.1243   5.2979   5.2979   5.2979   5.2979
     6.6617   6.6617   6.6617   6.6617   6.7058   6.7058   6.7058   6.7058
     6.7946   6.7946   6.7946   6.7946   7.0717   7.0717   7.0717   7.0718
     7.1075   7.1075   7.1075   7.1075   7.1740   7.1740   7.1740   7.1740
     8.3032   8.3032   8.3032   8.3032   8.8830   8.8830   8.8830   8.8830
     9.1561   9.1561   9.1561   9.1561   9.1600   9.1600   9.1600   9.1600
     9.4338   9.4338   9.4338   9.4338   9.6225   9.6225   9.6225   9.6225
     9.7849   9.7849   9.7849   9.7849  10.2543  10.2543  10.2543  10.2543
    10.8178  10.8178  10.8178  10.8178  10.9367  10.9367  10.9367  10.9367

     occupation numbers 
     1.0000   1.0000   1.0000   1.0000   1.0000   1.0000   1.0000   1.0000
     1.0000   1.0000   1.0000   1.0000   1.0000   1.0000   1.0000   1.0000
     1.0000   1.0000   1.0000   1.0000   1.0000   1.0000   1.0000   1.0000
     1.0000   1.0000   1.0000   1.0000   1.0000   1.0000   1.0000   1.0000
     1.0000   1.0000   1.0000   1.0000   1.0000   1.0000   1.0000   1.0000
     1.0000   1.0000   1.0000   1.0000   1.0000   1.0000   1.0000   1.0000
     1.0000   1.0000   1.0000   1.0000   1.0000   1.0000   1.0000   1.0000
     1.0000   1.0000   1.0000   1.0000   1.0000   1.0000   1.0000   1.0000
     1.0000   1.0000   1.0000   1.0000   1.0000   1.0000   1.0000   1.0000
     1.0000   1.0000   1.0000   1.0000   1.0000   1.0000   1.0000   1.0000
     1.0000   1.0000   1.0000   1.0000   1.0000   1.0000   1.0000   1.0000
     1.0000   1.0000   1.0000   1.0000   1.0000   1.0000   1.0000   1.0000
     1.0000   1.0000   1.0000   1.0000   1.0000   1.0000   1.0000   1.0000
     1.0000   1.0000   1.0000   1.0000   1.0000   1.0000   1.0000   1.0000
     1.0000   1.0000   1.0000   1.0000   1.0000   1.0000   1.0000   1.0000
     1.0000   1.0000   1.0000   1.0000   1.0000   1.0000   1.0000   1.0000
     1.0000   1.0000   1.0000   1.0000   1.0000   1.0000   1.0000   1.0000
     1.0000   1.0000   1.0000   1.0000   1.0000   1.0000   1.0000   1.0000
     1.0000   1.0000   1.0000   1.0000   1.0000   1.0000   1.0000   1.0000
     1.0000   1.0000   1.0000   1.0000   1.0000   1.0000   1.0000   1.0000
     1.0000   1.0000   1.0000   1.0000   1.0000   1.0000   1.0000   1.0000
     1.0000   1.0000   1.0000   1.0000   1.0000   1.0000   1.0000   1.0000
     1.0000   1.0000   1.0000   1.0000   1.0000   1.0000   1.0000   1.0000
     1.0000   1.0000   1.0000   1.0000   1.0000   1.0000   1.0000   1.0000
     1.0000   1.0000   1.0000   1.0000   1.0000   1.0000   1.0000   1.0000
     1.0000   1.0000   1.0000   1.0000   1.0000   1.0000   1.0000   1.0000
     1.0000   1.0000   1.0000   1.0000   1.0000   1.0000   1.0000   1.0000
     1.0000   1.0000   1.0000   1.0000   1.0000   1.0000   1.0000   1.0000
     1.0000   1.0000   1.0000   1.0000   1.0000   1.0000   1.0000   1.0000

          k =-0.5000-0.5000-0.3194 ( 38448 PWs)   bands (ev):

   -34.8074 -34.8074 -34.8074 -34.8074 -34.8073 -34.8073 -34.8073 -34.8073
   -34.8073 -34.8073 -34.8073 -34.8073 -34.8072 -34.8072 -34.8072 -34.8072
   -34.8053 -34.8053 -34.8053 -34.8053 -34.8052 -34.8052 -34.8052 -34.8052
   -34.8029 -34.8029 -34.8029 -34.8029 -34.8028 -34.8028 -34.8028 -34.8028
   -34.7974 -34.7974 -34.7974 -34.7974 -34.7974 -34.7974 -34.7974 -34.7974
   -11.4029 -11.4029 -11.4029 -11.4029 -11.4029 -11.4029 -11.4029 -11.4029
   -11.2919 -11.2919 -11.2919 -11.2919 -11.2919 -11.2919 -11.2919 -11.2919
   -11.1907 -11.1907 -11.1907 -11.1907 -11.1907 -11.1907 -11.1907 -11.1907
   -11.1614 -11.1613 -11.1613 -11.1613 -11.1613 -11.1613 -11.1613 -11.1613
   -11.1579 -11.1579 -11.1579 -11.1579 -11.1579 -11.1579 -11.1579 -11.1579
   -11.1354 -11.1354 -11.1354 -11.1354 -11.1354 -11.1354 -11.1354 -11.1354
   -11.1201 -11.1201 -11.1201 -11.1201 -11.1201 -11.1201 -11.1201 -11.1201
   -11.1100 -11.1100 -11.1100 -11.1100 -11.1100 -11.1100 -11.1100 -11.1100
   -11.1051 -11.1051 -11.1051 -11.1051 -11.1051 -11.1051 -11.1051 -11.1051
   -11.0933 -11.0933 -11.0933 -11.0933 -11.0933 -11.0933 -11.0933 -11.0933
    -7.5057  -7.5057  -7.5057  -7.5057  -7.5057  -7.5057  -7.5057  -7.5057
    -6.0701  -6.0701  -6.0701  -6.0701  -6.0701  -6.0701  -6.0701  -6.0701
    -0.8260  -0.8260  -0.8260  -0.8260  -0.8260  -0.8260  -0.8260  -0.8259
     0.5824   0.5824   0.5824   0.5824   0.5824   0.5824   0.5824   0.5824
     1.8189   1.8189   1.8189   1.8189   1.8189   1.8189   1.8189   1.8189
     5.2092   5.2092   5.2092   5.2092   5.2092   5.2092   5.2092   5.2092
     6.7213   6.7213   6.7213   6.7214   6.7214   6.7214   6.7214   6.7214
     6.8598   6.8598   6.8598   6.8598   6.8598   6.8598   6.8598   6.8598
     7.1459   7.1459   7.1459   7.1459   7.1459   7.1459   7.1459   7.1459
     8.6175   8.6175   8.6175   8.6175   8.6175   8.6175   8.6175   8.6175
     9.1577   9.1577   9.1577   9.1577   9.1577   9.1577   9.1577   9.1577
     9.5277   9.5277   9.5277   9.5277   9.5277   9.5277   9.5277   9.5277
    10.0067  10.0067  10.0067  10.0067  10.0068  10.0068  10.0068  10.0068
    10.8765  10.8765  10.8765  10.8765  10.8765  10.8765  10.8765  10.8765

     occupation numbers 
     1.0000   1.0000   1.0000   1.0000   1.0000   1.0000   1.0000   1.0000
     1.0000   1.0000   1.0000   1.0000   1.0000   1.0000   1.0000   1.0000
     1.0000   1.0000   1.0000   1.0000   1.0000   1.0000   1.0000   1.0000
     1.0000   1.0000   1.0000   1.0000   1.0000   1.0000   1.0000   1.0000
     1.0000   1.0000   1.0000   1.0000   1.0000   1.0000   1.0000   1.0000
     1.0000   1.0000   1.0000   1.0000   1.0000   1.0000   1.0000   1.0000
     1.0000   1.0000   1.0000   1.0000   1.0000   1.0000   1.0000   1.0000
     1.0000   1.0000   1.0000   1.0000   1.0000   1.0000   1.0000   1.0000
     1.0000   1.0000   1.0000   1.0000   1.0000   1.0000   1.0000   1.0000
     1.0000   1.0000   1.0000   1.0000   1.0000   1.0000   1.0000   1.0000
     1.0000   1.0000   1.0000   1.0000   1.0000   1.0000   1.0000   1.0000
     1.0000   1.0000   1.0000   1.0000   1.0000   1.0000   1.0000   1.0000
     1.0000   1.0000   1.0000   1.0000   1.0000   1.0000   1.0000   1.0000
     1.0000   1.0000   1.0000   1.0000   1.0000   1.0000   1.0000   1.0000
     1.0000   1.0000   1.0000   1.0000   1.0000   1.0000   1.0000   1.0000
     1.0000   1.0000   1.0000   1.0000   1.0000   1.0000   1.0000   1.0000
     1.0000   1.0000   1.0000   1.0000   1.0000   1.0000   1.0000   1.0000
     1.0000   1.0000   1.0000   1.0000   1.0000   1.0000   1.0000   1.0000
     1.0000   1.0000   1.0000   1.0000   1.0000   1.0000   1.0000   1.0000
     1.0000   1.0000   1.0000   1.0000   1.0000   1.0000   1.0000   1.0000
     1.0000   1.0000   1.0000   1.0000   1.0000   1.0000   1.0000   1.0000
     1.0000   1.0000   1.0000   1.0000   1.0000   1.0000   1.0000   1.0000
     1.0000   1.0000   1.0000   1.0000   1.0000   1.0000   1.0000   1.0000
     1.0000   1.0000   1.0000   1.0000   1.0000   1.0000   1.0000   1.0000
     1.0000   1.0000   1.0000   1.0000   1.0000   1.0000   1.0000   1.0000
     1.0000   1.0000   1.0000   1.0000   1.0000   1.0000   1.0000   1.0000
     1.0000   1.0000   1.0000   1.0000   1.0000   1.0000   1.0000   1.0000
     1.0000   1.0000   1.0000   1.0000   1.0000   1.0000   1.0000   1.0000
     1.0000   1.0000   1.0000   1.0000   1.0000   1.0000   1.0000   1.0000

     highest occupied level (ev):    11.1617

!    total energy              =   -5076.04870329 Ry
     estimated scf accuracy    <          1.1E-09 Ry

     The total energy is the sum of the following terms:
     one-electron contribution =   -1635.05952432 Ry
     hartree contribution      =    1095.59011413 Ry
     xc contribution           =   -1194.00666544 Ry
     ewald contribution        =   -3342.57262766 Ry

     convergence has been achieved in  14 iterations

     Forces acting on atoms (cartesian axes, Ry/au):

     atom    1 type  1   force =     0.00000000    0.00000000   -0.00439768
     atom    2 type  1   force =     0.00000000    0.00000000    0.00439768
     atom    3 type  1   force =     0.00000297    0.00000297   -0.00438359
     atom    4 type  1   force =     0.00000297    0.00000297    0.00438359
     atom    5 type  1   force =     0.00000000    0.00000000   -0.00439738
     atom    6 type  1   force =     0.00000000    0.00000000    0.00439738
     atom    7 type  1   force =     0.00000000    0.00000000   -0.00439738
     atom    8 type  1   force =     0.00000000    0.00000000    0.00439738
     atom    9 type  1   force =     0.00000297   -0.00000297   -0.00438359
     atom   10 type  1   force =     0.00000297   -0.00000297    0.00438359
     atom   11 type  1   force =    -0.00000297    0.00000297   -0.00438359
     atom   12 type  1   force =    -0.00000297    0.00000297    0.00438359
     atom   13 type  1   force =     0.00000000    0.00000000   -0.00439785
     atom   14 type  1   force =     0.00000000    0.00000000    0.00439785
     atom   15 type  1   force =    -0.00000297   -0.00000297   -0.00438359
     atom   16 type  1   force =    -0.00000297   -0.00000297    0.00438359
     atom   17 type  3   force =     0.00000000    0.00000000    0.00000000
     atom   18 type  3   force =     0.00000421    0.00000421    0.00000000
     atom   19 type  3   force =     0.00000000    0.00000000    0.00000000
     atom   20 type  3   force =     0.00000000    0.00000000    0.00000000
     atom   21 type  3   force =     0.00000421   -0.00000421    0.00000000
     atom   22 type  3   force =    -0.00000421    0.00000421    0.00000000
     atom   23 type  3   force =     0.00000000    0.00000000    0.00000000
     atom   24 type  3   force =    -0.00000421   -0.00000421    0.00000000
     atom   25 type  2   force =     0.00000000   -0.00000013    0.00000115
     atom   26 type  2   force =     0.00000000    0.00000013   -0.00000115
     atom   27 type  2   force =     0.00000000    0.00000013    0.00000115
     atom   28 type  2   force =     0.00000000   -0.00000013   -0.00000115
     atom   29 type  2   force =     0.00000013    0.00000000    0.00000115
     atom   30 type  2   force =    -0.00000013    0.00000000   -0.00000115
     atom   31 type  2   force =    -0.00000013    0.00000000    0.00000115
     atom   32 type  2   force =     0.00000013    0.00000000   -0.00000115
     atom   33 type  2   force =    -0.00000015    0.00000000   -0.00000057
     atom   34 type  2   force =    -0.00000015    0.00000000    0.00000057
     atom   35 type  2   force =     0.00000000   -0.00000015    0.00000057
     atom   36 type  2   force =     0.00000000   -0.00000015   -0.00000057
     atom   37 type  2   force =     0.00000000    0.00000015    0.00000057
     atom   38 type  2   force =     0.00000000    0.00000015   -0.00000057
     atom   39 type  2   force =     0.00000015    0.00000000   -0.00000057
     atom   40 type  2   force =     0.00000015    0.00000000    0.00000057
     The non-local contrib.  to forces
     atom    1 type  1   force =     0.00000000    0.00000000   -0.42180657
     atom    2 type  1   force =     0.00000000    0.00000000    0.42180657
     atom    3 type  1   force =     0.00000317    0.00000317   -0.42179151
     atom    4 type  1   force =     0.00000317    0.00000317    0.42179151
     atom    5 type  1   force =     0.00000000    0.00000000   -0.42180551
     atom    6 type  1   force =     0.00000000    0.00000000    0.42180551
     atom    7 type  1   force =     0.00000000    0.00000000   -0.42180551
     atom    8 type  1   force =     0.00000000    0.00000000    0.42180551
     atom    9 type  1   force =     0.00000317   -0.00000317   -0.42179151
     atom   10 type  1   force =     0.00000317   -0.00000317    0.42179151
     atom   11 type  1   force =    -0.00000317    0.00000317   -0.42179151
     atom   12 type  1   force =    -0.00000317    0.00000317    0.42179151
     atom   13 type  1   force =     0.00000000    0.00000000   -0.42180534
     atom   14 type  1   force =     0.00000000    0.00000000    0.42180534
     atom   15 type  1   force =    -0.00000317   -0.00000317   -0.42179151
     atom   16 type  1   force =    -0.00000317   -0.00000317    0.42179151
     atom   17 type  3   force =     0.00000000    0.00000000    0.00000000
     atom   18 type  3   force =    -0.00000064   -0.00000064    0.00000000
     atom   19 type  3   force =     0.00000000    0.00000000    0.00000000
     atom   20 type  3   force =     0.00000000    0.00000000    0.00000000
     atom   21 type  3   force =    -0.00000064    0.00000064    0.00000000
     atom   22 type  3   force =     0.00000064   -0.00000064    0.00000000
     atom   23 type  3   force =     0.00000000    0.00000000    0.00000000
     atom   24 type  3   force =     0.00000064    0.00000064    0.00000000
     atom   25 type  2   force =     0.00000000   -0.00000109    0.00000406
     atom   26 type  2   force =     0.00000000    0.00000109   -0.00000406
     atom   27 type  2   force =     0.00000000    0.00000109    0.00000406
     atom   28 type  2   force =     0.00000000   -0.00000109   -0.00000406
     atom   29 type  2   force =     0.00000109    0.00000000    0.00000406
     atom   30 type  2   force =    -0.00000109    0.00000000   -0.00000406
     atom   31 type  2   force =    -0.00000109    0.00000000    0.00000406
     atom   32 type  2   force =     0.00000109    0.00000000   -0.00000406
     atom   33 type  2   force =    -0.00000115    0.00000000   -0.00000124
     atom   34 type  2   force =    -0.00000115    0.00000000    0.00000124
     atom   35 type  2   force =     0.00000000   -0.00000115    0.00000124
     atom   36 type  2   force =     0.00000000   -0.00000115   -0.00000124
     atom   37 type  2   force =     0.00000000    0.00000115    0.00000124
     atom   38 type  2   force =     0.00000000    0.00000115   -0.00000124
     atom   39 type  2   force =     0.00000115    0.00000000   -0.00000124
     atom   40 type  2   force =     0.00000115    0.00000000    0.00000124
     The ionic contribution  to forces
     atom    1 type  1   force =     0.00000000   -0.00000000    8.66266230
     atom    2 type  1   force =    -0.00000000   -0.00000000   -8.66266230
     atom    3 type  1   force =    -0.00000934   -0.00000934    8.66269526
     atom    4 type  1   force =    -0.00000934   -0.00000934   -8.66269526
     atom    5 type  1   force =     0.00000000   -0.00000000    8.66265523
     atom    6 type  1   force =    -0.00000000    0.00000000   -8.66265523
     atom    7 type  1   force =    -0.00000000   -0.00000000    8.66265523
     atom    8 type  1   force =    -0.00000000   -0.00000000   -8.66265523
     atom    9 type  1   force =    -0.00000934    0.00000934    8.66269526
     atom   10 type  1   force =    -0.00000934    0.00000934   -8.66269526
     atom   11 type  1   force =     0.00000934   -0.00000934    8.66269526
     atom   12 type  1   force =     0.00000934   -0.00000934   -8.66269526
     atom   13 type  1   force =     0.00000000    0.00000000    8.66264707
     atom   14 type  1   force =    -0.00000000   -0.00000000   -8.66264707
     atom   15 type  1   force =     0.00000934    0.00000934    8.66269526
     atom   16 type  1   force =     0.00000934    0.00000934   -8.66269526
     atom   17 type  3   force =    -0.00000000   -0.00000000   -0.00000000
     atom   18 type  3   force =    -0.00001812   -0.00001812    0.00000000
     atom   19 type  3   force =    -0.00000000    0.00000000   -0.00000000
     atom   20 type  3   force =     0.00000000   -0.00000000   -0.00000000
     atom   21 type  3   force =    -0.00001812    0.00001812    0.00000000
     atom   22 type  3   force =     0.00001812   -0.00001812    0.00000000
     atom   23 type  3   force =     0.00000000    0.00000000   -0.00000000
     atom   24 type  3   force =     0.00001812    0.00001812    0.00000000
     atom   25 type  2   force =    -0.00000000   -0.00000447   -0.00000733
     atom   26 type  2   force =    -0.00000000    0.00000447    0.00000733
     atom   27 type  2   force =     0.00000000    0.00000447   -0.00000733
     atom   28 type  2   force =    -0.00000000   -0.00000447    0.00000733
     atom   29 type  2   force =     0.00000447   -0.00000000   -0.00000733
     atom   30 type  2   force =    -0.00000447    0.00000000    0.00000733
     atom   31 type  2   force =    -0.00000447    0.00000000   -0.00000733
     atom   32 type  2   force =     0.00000447   -0.00000000    0.00000733
     atom   33 type  2   force =    -0.00000413    0.00000000    0.00000574
     atom   34 type  2   force =    -0.00000413    0.00000000   -0.00000574
     atom   35 type  2   force =     0.00000000   -0.00000413   -0.00000574
     atom   36 type  2   force =    -0.00000000   -0.00000413    0.00000574
     atom   37 type  2   force =     0.00000000    0.00000413   -0.00000574
     atom   38 type  2   force =     0.00000000    0.00000413    0.00000574
     atom   39 type  2   force =     0.00000413   -0.00000000    0.00000574
     atom   40 type  2   force =     0.00000413   -0.00000000   -0.00000574
     The local contribution  to forces
     atom    1 type  1   force =     0.00000000    0.00000000   -8.26627052
     atom    2 type  1   force =    -0.00000000   -0.00000000    8.26627052
     atom    3 type  1   force =    -0.00000162   -0.00000162   -8.26637110
     atom    4 type  1   force =    -0.00000162   -0.00000162    8.26637110
     atom    5 type  1   force =    -0.00000000    0.00000000   -8.26628380
     atom    6 type  1   force =     0.00000000    0.00000000    8.26628380
     atom    7 type  1   force =     0.00000000    0.00000000   -8.26628380
     atom    8 type  1   force =     0.00000000    0.00000000    8.26628380
     atom    9 type  1   force =    -0.00000162    0.00000162   -8.26637110
     atom   10 type  1   force =    -0.00000162    0.00000162    8.26637110
     atom   11 type  1   force =     0.00000162   -0.00000162   -8.26637110
     atom   12 type  1   force =     0.00000162   -0.00000162    8.26637110
     atom   13 type  1   force =    -0.00000000   -0.00000000   -8.26629345
     atom   14 type  1   force =     0.00000000    0.00000000    8.26629345
     atom   15 type  1   force =     0.00000162    0.00000162   -8.26637110
     atom   16 type  1   force =     0.00000162    0.00000162    8.26637110
     atom   17 type  3   force =    -0.00000000    0.00000000    0.00000000
     atom   18 type  3   force =    -0.00001618   -0.00001618    0.00000000
     atom   19 type  3   force =    -0.00000000    0.00000000    0.00000000
     atom   20 type  3   force =     0.00000000    0.00000000    0.00000000
     atom   21 type  3   force =    -0.00001618    0.00001618    0.00000000
     atom   22 type  3   force =     0.00001618   -0.00001618    0.00000000
     atom   23 type  3   force =     0.00000000    0.00000000    0.00000000
     atom   24 type  3   force =     0.00001618    0.00001618    0.00000000
     atom   25 type  2   force =    -0.00000000    0.00000017    0.00001462
     atom   26 type  2   force =     0.00000000   -0.00000017   -0.00001462
     atom   27 type  2   force =     0.00000000   -0.00000017    0.00001462
     atom   28 type  2   force =    -0.00000000    0.00000017   -0.00001462
     atom   29 type  2   force =    -0.00000017    0.00000000    0.00001462
     atom   30 type  2   force =     0.00000017   -0.00000000   -0.00001462
     atom   31 type  2   force =     0.00000017   -0.00000000    0.00001462
     atom   32 type  2   force =    -0.00000017    0.00000000   -0.00001462
     atom   33 type  2   force =    -0.00000065   -0.00000000   -0.00001235
     atom   34 type  2   force =    -0.00000065    0.00000000    0.00001235
     atom   35 type  2   force =    -0.00000000   -0.00000065    0.00001235
     atom   36 type  2   force =     0.00000000   -0.00000065   -0.00001235
     atom   37 type  2   force =     0.00000000    0.00000065    0.00001235
     atom   38 type  2   force =     0.00000000    0.00000065   -0.00001235
     atom   39 type  2   force =     0.00000065    0.00000000   -0.00001235
     atom   40 type  2   force =     0.00000065    0.00000000    0.00001235
     The core correction contribution to forces
     atom    1 type  1   force =    -0.00000000    0.00000000    0.02107942
     atom    2 type  1   force =     0.00000000    0.00000000   -0.02107942
     atom    3 type  1   force =    -0.00000028   -0.00000028    0.02107762
     atom    4 type  1   force =    -0.00000028   -0.00000028   -0.02107762
     atom    5 type  1   force =     0.00000000    0.00000000    0.02107868
     atom    6 type  1   force =     0.00000000    0.00000000   -0.02107868
     atom    7 type  1   force =     0.00000000    0.00000000    0.02107868
     atom    8 type  1   force =     0.00000000    0.00000000   -0.02107868
     atom    9 type  1   force =    -0.00000028    0.00000028    0.02107762
     atom   10 type  1   force =    -0.00000028    0.00000028   -0.02107762
     atom   11 type  1   force =     0.00000028   -0.00000028    0.02107762
     atom   12 type  1   force =     0.00000028   -0.00000028   -0.02107762
     atom   13 type  1   force =    -0.00000000   -0.00000000    0.02107807
     atom   14 type  1   force =     0.00000000    0.00000000   -0.02107807
     atom   15 type  1   force =     0.00000028    0.00000028    0.02107762
     atom   16 type  1   force =     0.00000028    0.00000028   -0.02107762
     atom   17 type  3   force =     0.00000000    0.00000000    0.00000000
     atom   18 type  3   force =    -0.00000058   -0.00000058   -0.00000000
     atom   19 type  3   force =     0.00000000   -0.00000000    0.00000000
     atom   20 type  3   force =    -0.00000000    0.00000000   -0.00000000
     atom   21 type  3   force =    -0.00000058    0.00000058   -0.00000000
     atom   22 type  3   force =     0.00000058   -0.00000058   -0.00000000
     atom   23 type  3   force =     0.00000000   -0.00000000    0.00000000
     atom   24 type  3   force =     0.00000058    0.00000058   -0.00000000
     atom   25 type  2   force =     0.00000000    0.00000001   -0.00000014
     atom   26 type  2   force =     0.00000000   -0.00000001    0.00000014
     atom   27 type  2   force =     0.00000000   -0.00000001   -0.00000014
     atom   28 type  2   force =    -0.00000000    0.00000001    0.00000014
     atom   29 type  2   force =    -0.00000001    0.00000000   -0.00000014
     atom   30 type  2   force =     0.00000001    0.00000000    0.00000014
     atom   31 type  2   force =     0.00000001    0.00000000   -0.00000014
     atom   32 type  2   force =    -0.00000001   -0.00000000    0.00000014
     atom   33 type  2   force =     0.00000001   -0.00000000    0.00000003
     atom   34 type  2   force =     0.00000001   -0.00000000   -0.00000003
     atom   35 type  2   force =     0.00000000    0.00000001   -0.00000003
     atom   36 type  2   force =    -0.00000000    0.00000001    0.00000003
     atom   37 type  2   force =     0.00000000   -0.00000001   -0.00000003
     atom   38 type  2   force =    -0.00000000   -0.00000001    0.00000003
     atom   39 type  2   force =    -0.00000001   -0.00000000    0.00000003
     atom   40 type  2   force =    -0.00000001    0.00000000   -0.00000003
     The Hubbard contrib.    to forces
     atom    1 type  1   force =     0.00000000    0.00000000    0.00000000
     atom    2 type  1   force =     0.00000000    0.00000000    0.00000000
     atom    3 type  1   force =     0.00000000    0.00000000    0.00000000
     atom    4 type  1   force =     0.00000000    0.00000000    0.00000000
     atom    5 type  1   force =     0.00000000    0.00000000    0.00000000
     atom    6 type  1   force =     0.00000000    0.00000000    0.00000000
     atom    7 type  1   force =     0.00000000    0.00000000    0.00000000
     atom    8 type  1   force =     0.00000000    0.00000000    0.00000000
     atom    9 type  1   force =     0.00000000    0.00000000    0.00000000
     atom   10 type  1   force =     0.00000000    0.00000000    0.00000000
     atom   11 type  1   force =     0.00000000    0.00000000    0.00000000
     atom   12 type  1   force =     0.00000000    0.00000000    0.00000000
     atom   13 type  1   force =     0.00000000    0.00000000    0.00000000
     atom   14 type  1   force =     0.00000000    0.00000000    0.00000000
     atom   15 type  1   force =     0.00000000    0.00000000    0.00000000
     atom   16 type  1   force =     0.00000000    0.00000000    0.00000000
     atom   17 type  3   force =     0.00000000    0.00000000    0.00000000
     atom   18 type  3   force =     0.00000000    0.00000000    0.00000000
     atom   19 type  3   force =     0.00000000    0.00000000    0.00000000
     atom   20 type  3   force =     0.00000000    0.00000000    0.00000000
     atom   21 type  3   force =     0.00000000    0.00000000    0.00000000
     atom   22 type  3   force =     0.00000000    0.00000000    0.00000000
     atom   23 type  3   force =     0.00000000    0.00000000    0.00000000
     atom   24 type  3   force =     0.00000000    0.00000000    0.00000000
     atom   25 type  2   force =     0.00000000    0.00000000    0.00000000
     atom   26 type  2   force =     0.00000000    0.00000000    0.00000000
     atom   27 type  2   force =     0.00000000    0.00000000    0.00000000
     atom   28 type  2   force =     0.00000000    0.00000000    0.00000000
     atom   29 type  2   force =     0.00000000    0.00000000    0.00000000
     atom   30 type  2   force =     0.00000000    0.00000000    0.00000000
     atom   31 type  2   force =     0.00000000    0.00000000    0.00000000
     atom   32 type  2   force =     0.00000000    0.00000000    0.00000000
     atom   33 type  2   force =     0.00000000    0.00000000    0.00000000
     atom   34 type  2   force =     0.00000000    0.00000000    0.00000000
     atom   35 type  2   force =     0.00000000    0.00000000    0.00000000
     atom   36 type  2   force =     0.00000000    0.00000000    0.00000000
     atom   37 type  2   force =     0.00000000    0.00000000    0.00000000
     atom   38 type  2   force =     0.00000000    0.00000000    0.00000000
     atom   39 type  2   force =     0.00000000    0.00000000    0.00000000
     atom   40 type  2   force =     0.00000000    0.00000000    0.00000000
     The SCF correction term to forces
     atom    1 type  1   force =     0.00000000    0.00000000   -0.00006231
     atom    2 type  1   force =     0.00000000    0.00000000    0.00006231
     atom    3 type  1   force =     0.00001103    0.00001103    0.00000614
     atom    4 type  1   force =     0.00001103    0.00001103   -0.00000614
     atom    5 type  1   force =     0.00000000    0.00000000   -0.00004198
     atom    6 type  1   force =     0.00000000   -0.00000000    0.00004198
     atom    7 type  1   force =     0.00000000    0.00000000   -0.00004198
     atom    8 type  1   force =    -0.00000000   -0.00000000    0.00004198
     atom    9 type  1   force =     0.00001103   -0.00001103    0.00000614
     atom   10 type  1   force =     0.00001103   -0.00001103   -0.00000614
     atom   11 type  1   force =    -0.00001103    0.00001103    0.00000614
     atom   12 type  1   force =    -0.00001103    0.00001103   -0.00000614
     atom   13 type  1   force =     0.00000000    0.00000000   -0.00002420
     atom   14 type  1   force =    -0.00000000   -0.00000000    0.00002420
     atom   15 type  1   force =    -0.00001103   -0.00001103    0.00000614
     atom   16 type  1   force =    -0.00001103   -0.00001103   -0.00000614
     atom   17 type  3   force =     0.00000000   -0.00000000    0.00000000
     atom   18 type  3   force =     0.00003973    0.00003973   -0.00000000
     atom   19 type  3   force =     0.00000000   -0.00000000    0.00000000
     atom   20 type  3   force =     0.00000000   -0.00000000   -0.00000000
     atom   21 type  3   force =     0.00003973   -0.00003973   -0.00000000
     atom   22 type  3   force =    -0.00003973    0.00003973   -0.00000000
     atom   23 type  3   force =     0.00000000   -0.00000000   -0.00000000
     atom   24 type  3   force =    -0.00003973   -0.00003973   -0.00000000
     atom   25 type  2   force =    -0.00000000    0.00000526   -0.00001006
     atom   26 type  2   force =     0.00000000   -0.00000526    0.00001006
     atom   27 type  2   force =    -0.00000000   -0.00000526   -0.00001006
     atom   28 type  2   force =     0.00000000    0.00000526    0.00001006
     atom   29 type  2   force =    -0.00000526    0.00000000   -0.00001006
     atom   30 type  2   force =     0.00000526   -0.00000000    0.00001006
     atom   31 type  2   force =     0.00000526    0.00000000   -0.00001006
     atom   32 type  2   force =    -0.00000526   -0.00000000    0.00001006
     atom   33 type  2   force =     0.00000577   -0.00000000    0.00000725
     atom   34 type  2   force =     0.00000577    0.00000000   -0.00000725
     atom   35 type  2   force =     0.00000000    0.00000577   -0.00000725
     atom   36 type  2   force =    -0.00000000    0.00000577    0.00000725
     atom   37 type  2   force =     0.00000000   -0.00000577   -0.00000725
     atom   38 type  2   force =    -0.00000000   -0.00000577    0.00000725
     atom   39 type  2   force =    -0.00000577   -0.00000000    0.00000725
     atom   40 type  2   force =    -0.00000577    0.00000000   -0.00000725

     Total force =     0.017562     Total SCF correction =     0.000180


     Computing stress (Cartesian axis) and pressure

          total   stress  (Ry/bohr**3)                   (kbar)     P=     -297.61
  -0.00202751   0.00000000   0.00000000         -298.26        0.00        0.00
   0.00000000  -0.00202751   0.00000000            0.00     -298.26        0.00
   0.00000000   0.00000000  -0.00201432            0.00        0.00     -296.32

     kinetic stress (kbar)  57108.73      0.00      0.00
                                0.00  57108.73      0.00
                                0.00      0.00  57072.27

     local   stress (kbar)   1419.28     -0.00     -0.00
                               -0.00   1419.28     -0.00
                               -0.00     -0.00   6909.66

     nonloc. stress (kbar) -30142.80      0.00      0.00
                                0.00 -30142.80      0.00
                                0.00      0.00 -30123.60

     hartree stress (kbar)  11742.67      0.00      0.00
                                0.00  11742.67      0.00
                                0.00      0.00   9492.71

     exc-cor stress (kbar)  11284.35      0.00      0.00
                                0.00  11284.35      0.00
                                0.00      0.00  11284.35

     corecor stress (kbar) -19246.89      0.00     -0.00
                                0.00 -19246.89     -0.00
                               -0.00     -0.00 -19245.04

     ewald   stress (kbar) -32463.60     -0.00     -0.00
                               -0.00 -32463.60     -0.00
                               -0.00     -0.00 -35686.67

     hubbard stress (kbar)      0.00      0.00      0.00
                                0.00      0.00      0.00
                                0.00      0.00      0.00

     DFT-D   stress (kbar)      0.00      0.00      0.00
                                0.00      0.00      0.00
                                0.00      0.00      0.00

     XDM     stress (kbar)      0.00      0.00      0.00
                                0.00      0.00      0.00
                                0.00      0.00      0.00

     dft-nl  stress (kbar)      0.00      0.00      0.00
                                0.00      0.00      0.00
                                0.00      0.00      0.00

     TS-vdW  stress (kbar)      0.00      0.00      0.00
                                0.00      0.00      0.00
                                0.00      0.00      0.00

     MDB     stress (kbar)      0.00      0.00      0.00
                                0.00      0.00      0.00
                                0.00      0.00      0.00

     3D-RISM stress (kbar)      0.00      0.00      0.00
                                0.00      0.00      0.00
                                0.00      0.00      0.00


     Writing all to output data dir ./out/v.save/ :
     XML data file, charge density, pseudopotentials, collected wavefunctions
 
     init_run     :     17.06s CPU     17.31s WALL (       1 calls)
     electrons    :    835.39s CPU    842.22s WALL (       1 calls)
     forces       :     10.13s CPU     10.16s WALL (       1 calls)
     stress       :    430.09s CPU    430.42s WALL (       1 calls)

     Called by init_run:
     wfcinit      :     16.78s CPU     17.00s WALL (       1 calls)
     wfcinit:atom :      0.16s CPU      0.16s WALL (      40 calls)
     wfcinit:wfcr :     15.70s CPU     15.84s WALL (      40 calls)
     potinit      :      0.01s CPU      0.02s WALL (       1 calls)
     hinit0       :      0.03s CPU      0.03s WALL (       1 calls)

     Called by electrons:
     c_bands      :    781.16s CPU    786.98s WALL (      14 calls)
     sum_band     :     53.81s CPU     54.58s WALL (      14 calls)
     v_of_rho     :      0.13s CPU      0.14s WALL (      15 calls)
     v_h          :      0.05s CPU      0.05s WALL (      15 calls)
     v_xc         :      0.09s CPU      0.10s WALL (      17 calls)
     mix_rho      :      0.13s CPU      0.14s WALL (      14 calls)

     Called by c_bands:
     init_us_2    :     11.25s CPU     11.29s WALL (    1240 calls)
     cegterg      :    747.51s CPU    752.56s WALL (     560 calls)

     Called by sum_band:
     sum_band:wei :      0.00s CPU      0.00s WALL (      14 calls)
     sum_band:loo :     53.70s CPU     54.46s WALL (      14 calls)
     sum_band:buf :      1.28s CPU      1.41s WALL (     560 calls)
     sum_band:ini :      5.09s CPU      5.10s WALL (     560 calls)

     Called by *egterg:
     cdiaghg      :    217.13s CPU    218.13s WALL (    3045 calls)
     cegterg:over :     60.79s CPU     60.99s WALL (    2485 calls)
     cegterg:upda :     40.10s CPU     40.38s WALL (    2485 calls)
     cegterg:last :     53.34s CPU     53.44s WALL (    1157 calls)
     cdiaghg:chol :     10.74s CPU     10.82s WALL (    3045 calls)
     cdiaghg:inve :      4.34s CPU      4.36s WALL (    3045 calls)
     cdiaghg:para :     42.02s CPU     42.38s WALL (    6090 calls)
     h_psi        :    366.24s CPU    369.80s WALL (    3085 calls)
     g_psi        :      2.30s CPU      2.31s WALL (    2485 calls)

     Called by h_psi:
     h_psi:calbec :     67.80s CPU     67.90s WALL (    3085 calls)
     vloc_psi     :    231.91s CPU    235.15s WALL (    3085 calls)
     add_vuspsi   :     63.48s CPU     63.60s WALL (    3085 calls)

     General routines
     calbec       :    124.47s CPU    124.59s WALL (    3285 calls)
     fft          :      0.27s CPU      0.28s WALL (      80 calls)
     ffts         :      0.02s CPU      0.02s WALL (      29 calls)
     fftw         :    234.05s CPU    237.15s WALL (  824742 calls)
     interpolate  :      0.05s CPU      0.05s WALL (      15 calls)
 
     Parallel routines
 
     PWSCF        :  21m39.36s CPU  21m51.57s WALL

 
   This run was terminated on:   4:11:55  22Aug2026            

=------------------------------------------------------------------------------=
   JOB DONE.
=------------------------------------------------------------------------------=
