ANIMSTEPS  120
CRYSTAL
PRIMVEC
    7.733817356    0.000000000    0.000000000
    0.000000000    7.733817356    0.000000000
    0.000000000    0.000000000   12.107828833
PRIMCOORD    1
     40   1
   Bi     0.00000   0.00000   4.29699   0.01832  -0.00171  -0.00000
   Bi     0.00000   0.00000   7.81084  -0.01832   0.00171  -0.00000
   Bi     1.93345   1.93345  10.35090  -0.01930   0.00077   0.00014
   Bi     1.93345   1.93345   1.75692   0.01930  -0.00077   0.00014
   Bi     0.00000   3.86691   4.29699   0.01805  -0.00151   0.00000
   Bi     0.00000   3.86691   7.81084  -0.01805   0.00151  -0.00000
   Bi     3.86691   0.00000   4.29699   0.01625  -0.00168   0.00000
   Bi     3.86691   0.00000   7.81084  -0.01625   0.00168  -0.00000
   Bi     1.93345   5.80036  10.35090  -0.01949   0.00284   0.00017
   Bi     1.93345   5.80036   1.75692   0.01949  -0.00284   0.00017
   Bi     5.80036   1.93345  10.35090  -0.01949   0.00284  -0.00017
   Bi     5.80036   1.93345   1.75692   0.01949  -0.00284  -0.00017
   Bi     3.86691   3.86691   4.29699   0.02059  -0.00192   0.00000
   Bi     3.86691   3.86691   7.81084  -0.02059   0.00192   0.00000
   Bi     5.80036   5.80036  10.35090  -0.01930   0.00077  -0.00014
   Bi     5.80036   5.80036   1.75692   0.01930  -0.00077  -0.00014
   Se     0.00000   0.00000   0.00000  -0.00000  -0.00000   0.00000
   Se     1.93345   1.93345   6.05391   0.00000   0.00000   0.00000
   Se     0.00000   3.86691   0.00000  -0.00000  -0.00000   0.00000
   Se     3.86691   0.00000   0.00000  -0.00000  -0.00000   0.00000
   Se     1.93345   5.80036   6.05391   0.00000  -0.00000   0.00000
   Se     5.80036   1.93345   6.05391  -0.00000  -0.00000  -0.00000
   Se     3.86691   3.86691   0.00000   0.00000  -0.00000   0.00000
   Se     5.80036   5.80036   6.05391  -0.00000  -0.00000  -0.00000
   O      0.00000   1.93345   3.02696   0.01619  -0.00147  -0.00009
   O      0.00000   5.80036   9.08087  -0.01619   0.00147   0.00009
   O      0.00000   5.80036   3.02696   0.01619  -0.00147   0.00009
   O      0.00000   1.93345   9.08087  -0.01619   0.00147  -0.00009
   O      5.80036   0.00000   3.02696   0.01579  -0.00151  -0.00095
   O      1.93345   0.00000   9.08087  -0.01579   0.00151   0.00095
   O      1.93345   0.00000   3.02696   0.01579  -0.00151   0.00095
   O      5.80036   0.00000   9.08087  -0.01579   0.00151  -0.00095
   O      1.93345   3.86691   9.08087  -0.01652   0.00151  -0.00108
   O      1.93345   3.86691   3.02696   0.01652  -0.00151  -0.00108
   O      3.86691   1.93345   3.02696   0.01622  -0.00154   0.00010
   O      3.86691   1.93345   9.08087  -0.01622   0.00154   0.00010
   O      3.86691   5.80036   3.02696   0.01622  -0.00154  -0.00010
   O      3.86691   5.80036   9.08087  -0.01622   0.00154  -0.00010
   O      5.80036   3.86691   9.08087  -0.01652   0.00151   0.00108
   O      5.80036   3.86691   3.02696   0.01652  -0.00151   0.00108
PRIMCOORD    2
     40   1
   Bi     0.00000   0.00000   4.29699   0.00171   0.01832   0.00000
   Bi     0.00000   0.00000   7.81084  -0.00171  -0.01832   0.00000
   Bi     1.93345   1.93345  10.35090  -0.00284  -0.01949   0.00017
   Bi     1.93345   1.93345   1.75692   0.00284   0.01949   0.00017
   Bi     0.00000   3.86691   4.29699   0.00168   0.01625   0.00000
   Bi     0.00000   3.86691   7.81084  -0.00168  -0.01625  -0.00000
   Bi     3.86691   0.00000   4.29699   0.00151   0.01805  -0.00000
   Bi     3.86691   0.00000   7.81084  -0.00151  -0.01805  -0.00000
   Bi     1.93345   5.80036  10.35090  -0.00077  -0.01930  -0.00014
   Bi     1.93345   5.80036   1.75692   0.00077   0.01930  -0.00014
   Bi     5.80036   1.93345  10.35090  -0.00077  -0.01930   0.00014
   Bi     5.80036   1.93345   1.75692   0.00077   0.01930   0.00014
   Bi     3.86691   3.86691   4.29699   0.00192   0.02059   0.00000
   Bi     3.86691   3.86691   7.81084  -0.00192  -0.02059   0.00000
   Bi     5.80036   5.80036  10.35090  -0.00284  -0.01949  -0.00017
   Bi     5.80036   5.80036   1.75692   0.00284   0.01949  -0.00017
   Se     0.00000   0.00000   0.00000   0.00000  -0.00000   0.00000
   Se     1.93345   1.93345   6.05391   0.00000  -0.00000   0.00000
   Se     0.00000   3.86691   0.00000   0.00000  -0.00000   0.00000
   Se     3.86691   0.00000   0.00000   0.00000  -0.00000  -0.00000
   Se     1.93345   5.80036   6.05391   0.00000  -0.00000  -0.00000
   Se     5.80036   1.93345   6.05391   0.00000  -0.00000   0.00000
   Se     3.86691   3.86691   0.00000   0.00000  -0.00000  -0.00000
   Se     5.80036   5.80036   6.05391   0.00000  -0.00000  -0.00000
   O      0.00000   1.93345   3.02696   0.00151   0.01579   0.00095
   O      0.00000   5.80036   9.08087  -0.00151  -0.01579  -0.00095
   O      0.00000   5.80036   3.02696   0.00151   0.01579  -0.00095
   O      0.00000   1.93345   9.08087  -0.00151  -0.01579   0.00095
   O      5.80036   0.00000   3.02696   0.00147   0.01619  -0.00009
   O      1.93345   0.00000   9.08087  -0.00147  -0.01619   0.00009
   O      1.93345   0.00000   3.02696   0.00147   0.01619   0.00009
   O      5.80036   0.00000   9.08087  -0.00147  -0.01619  -0.00009
   O      1.93345   3.86691   9.08087  -0.00154  -0.01622  -0.00010
   O      1.93345   3.86691   3.02696   0.00154   0.01622  -0.00010
   O      3.86691   1.93345   3.02696   0.00151   0.01652  -0.00108
   O      3.86691   1.93345   9.08087  -0.00151  -0.01652  -0.00108
   O      3.86691   5.80036   3.02696   0.00151   0.01652   0.00108
   O      3.86691   5.80036   9.08087  -0.00151  -0.01652   0.00108
   O      5.80036   3.86691   9.08087  -0.00154  -0.01622   0.00010
   O      5.80036   3.86691   3.02696   0.00154   0.01622   0.00010
PRIMCOORD    3
     40   1
   Bi     0.00000   0.00000   4.29699  -0.00039   0.00000   0.01581
   Bi     0.00000   0.00000   7.81084  -0.00039   0.00000   0.01581
   Bi     1.93345   1.93345  10.35090  -0.00039   0.00000   0.01581
   Bi     1.93345   1.93345   1.75692  -0.00039   0.00000   0.01581
   Bi     0.00000   3.86691   4.29699  -0.00039   0.00000   0.01581
   Bi     0.00000   3.86691   7.81084  -0.00039   0.00000   0.01581
   Bi     3.86691   0.00000   4.29699  -0.00039   0.00000   0.01581
   Bi     3.86691   0.00000   7.81084  -0.00039   0.00000   0.01581
   Bi     1.93345   5.80036  10.35090  -0.00039   0.00000   0.01581
   Bi     1.93345   5.80036   1.75692  -0.00039   0.00000   0.01581
   Bi     5.80036   1.93345  10.35090  -0.00039   0.00000   0.01581
   Bi     5.80036   1.93345   1.75692  -0.00039   0.00000   0.01581
   Bi     3.86691   3.86691   4.29699  -0.00039   0.00000   0.01581
   Bi     3.86691   3.86691   7.81084  -0.00039   0.00000   0.01581
   Bi     5.80036   5.80036  10.35090  -0.00039   0.00000   0.01581
   Bi     5.80036   5.80036   1.75692  -0.00039   0.00000   0.01581
   Se     0.00000   0.00000   0.00000  -0.00039   0.00000   0.01581
   Se     1.93345   1.93345   6.05391  -0.00039   0.00000   0.01581
   Se     0.00000   3.86691   0.00000  -0.00039   0.00000   0.01581
   Se     3.86691   0.00000   0.00000  -0.00039   0.00000   0.01581
   Se     1.93345   5.80036   6.05391  -0.00039   0.00000   0.01581
   Se     5.80036   1.93345   6.05391  -0.00039   0.00000   0.01581
   Se     3.86691   3.86691   0.00000  -0.00039   0.00000   0.01581
   Se     5.80036   5.80036   6.05391  -0.00039   0.00000   0.01581
   O      0.00000   1.93345   3.02696  -0.00039   0.00000   0.01581
   O      0.00000   5.80036   9.08087  -0.00039   0.00000   0.01581
   O      0.00000   5.80036   3.02696  -0.00039   0.00000   0.01581
   O      0.00000   1.93345   9.08087  -0.00039   0.00000   0.01581
   O      5.80036   0.00000   3.02696  -0.00039   0.00000   0.01581
   O      1.93345   0.00000   9.08087  -0.00039   0.00000   0.01581
   O      1.93345   0.00000   3.02696  -0.00039   0.00000   0.01581
   O      5.80036   0.00000   9.08087  -0.00039   0.00000   0.01581
   O      1.93345   3.86691   9.08087  -0.00039   0.00000   0.01581
   O      1.93345   3.86691   3.02696  -0.00039   0.00000   0.01581
   O      3.86691   1.93345   3.02696  -0.00039   0.00000   0.01581
   O      3.86691   1.93345   9.08087  -0.00039   0.00000   0.01581
   O      3.86691   5.80036   3.02696  -0.00039   0.00000   0.01581
   O      3.86691   5.80036   9.08087  -0.00039   0.00000   0.01581
   O      5.80036   3.86691   9.08087  -0.00039   0.00000   0.01581
   O      5.80036   3.86691   3.02696  -0.00039   0.00000   0.01581
PRIMCOORD    4
     40   1
   Bi     0.00000   0.00000   4.29699   0.01572   0.00161   0.00039
   Bi     0.00000   0.00000   7.81084   0.01572   0.00161   0.00039
   Bi     1.93345   1.93345  10.35090   0.01572   0.00161   0.00039
   Bi     1.93345   1.93345   1.75692   0.01572   0.00161   0.00039
   Bi     0.00000   3.86691   4.29699   0.01572   0.00161   0.00039
   Bi     0.00000   3.86691   7.81084   0.01572   0.00161   0.00039
   Bi     3.86691   0.00000   4.29699   0.01572   0.00161   0.00039
   Bi     3.86691   0.00000   7.81084   0.01572   0.00161   0.00039
   Bi     1.93345   5.80036  10.35090   0.01572   0.00161   0.00039
   Bi     1.93345   5.80036   1.75692   0.01572   0.00161   0.00039
   Bi     5.80036   1.93345  10.35090   0.01572   0.00161   0.00039
   Bi     5.80036   1.93345   1.75692   0.01572   0.00161   0.00039
   Bi     3.86691   3.86691   4.29699   0.01572   0.00161   0.00039
   Bi     3.86691   3.86691   7.81084   0.01572   0.00161   0.00039
   Bi     5.80036   5.80036  10.35090   0.01572   0.00161   0.00039
   Bi     5.80036   5.80036   1.75692   0.01572   0.00161   0.00039
   Se     0.00000   0.00000   0.00000   0.01572   0.00161   0.00039
   Se     1.93345   1.93345   6.05391   0.01572   0.00161   0.00039
   Se     0.00000   3.86691   0.00000   0.01572   0.00161   0.00039
   Se     3.86691   0.00000   0.00000   0.01572   0.00161   0.00039
   Se     1.93345   5.80036   6.05391   0.01572   0.00161   0.00039
   Se     5.80036   1.93345   6.05391   0.01572   0.00161   0.00039
   Se     3.86691   3.86691   0.00000   0.01572   0.00161   0.00039
   Se     5.80036   5.80036   6.05391   0.01572   0.00161   0.00039
   O      0.00000   1.93345   3.02696   0.01572   0.00161   0.00039
   O      0.00000   5.80036   9.08087   0.01572   0.00161   0.00039
   O      0.00000   5.80036   3.02696   0.01572   0.00161   0.00039
   O      0.00000   1.93345   9.08087   0.01572   0.00161   0.00039
   O      5.80036   0.00000   3.02696   0.01572   0.00161   0.00039
   O      1.93345   0.00000   9.08087   0.01572   0.00161   0.00039
   O      1.93345   0.00000   3.02696   0.01572   0.00161   0.00039
   O      5.80036   0.00000   9.08087   0.01572   0.00161   0.00039
   O      1.93345   3.86691   9.08087   0.01572   0.00161   0.00039
   O      1.93345   3.86691   3.02696   0.01572   0.00161   0.00039
   O      3.86691   1.93345   3.02696   0.01572   0.00161   0.00039
   O      3.86691   1.93345   9.08087   0.01572   0.00161   0.00039
   O      3.86691   5.80036   3.02696   0.01572   0.00161   0.00039
   O      3.86691   5.80036   9.08087   0.01572   0.00161   0.00039
   O      5.80036   3.86691   9.08087   0.01572   0.00161   0.00039
   O      5.80036   3.86691   3.02696   0.01572   0.00161   0.00039
PRIMCOORD    5
     40   1
   Bi     0.00000   0.00000   4.29699   0.00161  -0.01573   0.00004
   Bi     0.00000   0.00000   7.81084   0.00161  -0.01573   0.00004
   Bi     1.93345   1.93345  10.35090   0.00161  -0.01573   0.00004
   Bi     1.93345   1.93345   1.75692   0.00161  -0.01573   0.00004
   Bi     0.00000   3.86691   4.29699   0.00161  -0.01573   0.00004
   Bi     0.00000   3.86691   7.81084   0.00161  -0.01573   0.00004
   Bi     3.86691   0.00000   4.29699   0.00161  -0.01573   0.00004
   Bi     3.86691   0.00000   7.81084   0.00161  -0.01573   0.00004
   Bi     1.93345   5.80036  10.35090   0.00161  -0.01573   0.00004
   Bi     1.93345   5.80036   1.75692   0.00161  -0.01573   0.00004
   Bi     5.80036   1.93345  10.35090   0.00161  -0.01573   0.00004
   Bi     5.80036   1.93345   1.75692   0.00161  -0.01573   0.00004
   Bi     3.86691   3.86691   4.29699   0.00161  -0.01573   0.00004
   Bi     3.86691   3.86691   7.81084   0.00161  -0.01573   0.00004
   Bi     5.80036   5.80036  10.35090   0.00161  -0.01573   0.00004
   Bi     5.80036   5.80036   1.75692   0.00161  -0.01573   0.00004
   Se     0.00000   0.00000   0.00000   0.00161  -0.01573   0.00004
   Se     1.93345   1.93345   6.05391   0.00161  -0.01573   0.00004
   Se     0.00000   3.86691   0.00000   0.00161  -0.01573   0.00004
   Se     3.86691   0.00000   0.00000   0.00161  -0.01573   0.00004
   Se     1.93345   5.80036   6.05391   0.00161  -0.01573   0.00004
   Se     5.80036   1.93345   6.05391   0.00161  -0.01573   0.00004
   Se     3.86691   3.86691   0.00000   0.00161  -0.01573   0.00004
   Se     5.80036   5.80036   6.05391   0.00161  -0.01573   0.00004
   O      0.00000   1.93345   3.02696   0.00161  -0.01573   0.00004
   O      0.00000   5.80036   9.08087   0.00161  -0.01573   0.00004
   O      0.00000   5.80036   3.02696   0.00161  -0.01573   0.00004
   O      0.00000   1.93345   9.08087   0.00161  -0.01573   0.00004
   O      5.80036   0.00000   3.02696   0.00161  -0.01573   0.00004
   O      1.93345   0.00000   9.08087   0.00161  -0.01573   0.00004
   O      1.93345   0.00000   3.02696   0.00161  -0.01573   0.00004
   O      5.80036   0.00000   9.08087   0.00161  -0.01573   0.00004
   O      1.93345   3.86691   9.08087   0.00161  -0.01573   0.00004
   O      1.93345   3.86691   3.02696   0.00161  -0.01573   0.00004
   O      3.86691   1.93345   3.02696   0.00161  -0.01573   0.00004
   O      3.86691   1.93345   9.08087   0.00161  -0.01573   0.00004
   O      3.86691   5.80036   3.02696   0.00161  -0.01573   0.00004
   O      3.86691   5.80036   9.08087   0.00161  -0.01573   0.00004
   O      5.80036   3.86691   9.08087   0.00161  -0.01573   0.00004
   O      5.80036   3.86691   3.02696   0.00161  -0.01573   0.00004
PRIMCOORD    6
     40   1
   Bi     0.00000   0.00000   4.29699  -0.00340  -0.00062   0.00000
   Bi     0.00000   0.00000   7.81084  -0.00340  -0.00062   0.00000
   Bi     1.93345   1.93345  10.35090  -0.00976  -0.00268   0.00071
   Bi     1.93345   1.93345   1.75692  -0.00976  -0.00268  -0.00071
   Bi     0.00000   3.86691   4.29699  -0.00108  -0.00023   0.00000
   Bi     0.00000   3.86691   7.81084  -0.00108  -0.00023   0.00000
   Bi     3.86691   0.00000   4.29699  -0.00126  -0.00020   0.00000
   Bi     3.86691   0.00000   7.81084  -0.00126  -0.00020   0.00000
   Bi     1.93345   5.80036  10.35090  -0.00942  -0.00079   0.00049
   Bi     1.93345   5.80036   1.75692  -0.00942  -0.00079  -0.00049
   Bi     5.80036   1.93345  10.35090  -0.00942  -0.00079  -0.00049
   Bi     5.80036   1.93345   1.75692  -0.00942  -0.00079   0.00049
   Bi     3.86691   3.86691   4.29699  -0.00141  -0.00026   0.00000
   Bi     3.86691   3.86691   7.81084  -0.00141  -0.00026   0.00000
   Bi     5.80036   5.80036  10.35090  -0.00976  -0.00268  -0.00071
   Bi     5.80036   5.80036   1.75692  -0.00976  -0.00268   0.00071
   Se     0.00000   0.00000   0.00000   0.04277   0.00775   0.00000
   Se     1.93345   1.93345   6.05391   0.01170   0.00205   0.00000
   Se     0.00000   3.86691   0.00000   0.04931   0.00781   0.00000
   Se     3.86691   0.00000   0.00000   0.04311   0.00893   0.00000
   Se     1.93345   5.80036   6.05391   0.01173   0.00219   0.00000
   Se     5.80036   1.93345   6.05391   0.01173   0.00219   0.00000
   Se     3.86691   3.86691   0.00000   0.04194   0.00760   0.00000
   Se     5.80036   5.80036   6.05391   0.01170   0.00205   0.00000
   O      0.00000   1.93345   3.02696   0.00569   0.00055   0.00008
   O      0.00000   5.80036   9.08087   0.00569   0.00055   0.00008
   O      0.00000   5.80036   3.02696   0.00569   0.00055  -0.00008
   O      0.00000   1.93345   9.08087   0.00569   0.00055  -0.00008
   O      5.80036   0.00000   3.02696   0.00303   0.00103  -0.00046
   O      1.93345   0.00000   9.08087   0.00303   0.00103  -0.00046
   O      1.93345   0.00000   3.02696   0.00303   0.00103   0.00046
   O      5.80036   0.00000   9.08087   0.00303   0.00103   0.00046
   O      1.93345   3.86691   9.08087   0.00473   0.00134   0.00007
   O      1.93345   3.86691   3.02696   0.00473   0.00134  -0.00007
   O      3.86691   1.93345   3.02696   0.00741   0.00086  -0.00001
   O      3.86691   1.93345   9.08087   0.00741   0.00086   0.00001
   O      3.86691   5.80036   3.02696   0.00741   0.00086   0.00001
   O      3.86691   5.80036   9.08087   0.00741   0.00086  -0.00001
   O      5.80036   3.86691   9.08087   0.00473   0.00134  -0.00007
   O      5.80036   3.86691   3.02696   0.00473   0.00134   0.00007
PRIMCOORD    7
     40   1
   Bi     0.00000   0.00000   4.29699  -0.00062   0.00340  -0.00000
   Bi     0.00000   0.00000   7.81084  -0.00062   0.00340  -0.00000
   Bi     1.93345   1.93345  10.35090  -0.00079   0.00942  -0.00049
   Bi     1.93345   1.93345   1.75692  -0.00079   0.00942   0.00049
   Bi     0.00000   3.86691   4.29699  -0.00020   0.00126  -0.00000
   Bi     0.00000   3.86691   7.81084  -0.00020   0.00126  -0.00000
   Bi     3.86691   0.00000   4.29699  -0.00023   0.00108  -0.00000
   Bi     3.86691   0.00000   7.81084  -0.00023   0.00108  -0.00000
   Bi     1.93345   5.80036  10.35090  -0.00268   0.00976   0.00071
   Bi     1.93345   5.80036   1.75692  -0.00268   0.00976  -0.00071
   Bi     5.80036   1.93345  10.35090  -0.00268   0.00976  -0.00071
   Bi     5.80036   1.93345   1.75692  -0.00268   0.00976   0.00071
   Bi     3.86691   3.86691   4.29699  -0.00026   0.00141  -0.00000
   Bi     3.86691   3.86691   7.81084  -0.00026   0.00141  -0.00000
   Bi     5.80036   5.80036  10.35090  -0.00079   0.00942   0.00049
   Bi     5.80036   5.80036   1.75692  -0.00079   0.00942  -0.00049
   Se     0.00000   0.00000   0.00000   0.00775  -0.04277  -0.00000
   Se     1.93345   1.93345   6.05391   0.00219  -0.01173  -0.00000
   Se     0.00000   3.86691   0.00000   0.00893  -0.04311  -0.00000
   Se     3.86691   0.00000   0.00000   0.00781  -0.04931  -0.00000
   Se     1.93345   5.80036   6.05391   0.00205  -0.01170  -0.00000
   Se     5.80036   1.93345   6.05391   0.00205  -0.01170  -0.00000
   Se     3.86691   3.86691   0.00000   0.00760  -0.04194  -0.00000
   Se     5.80036   5.80036   6.05391   0.00219  -0.01173  -0.00000
   O      0.00000   1.93345   3.02696   0.00103  -0.00303  -0.00046
   O      0.00000   5.80036   9.08087   0.00103  -0.00303  -0.00046
   O      0.00000   5.80036   3.02696   0.00103  -0.00303   0.00046
   O      0.00000   1.93345   9.08087   0.00103  -0.00303   0.00046
   O      5.80036   0.00000   3.02696   0.00055  -0.00569  -0.00008
   O      1.93345   0.00000   9.08087   0.00055  -0.00569  -0.00008
   O      1.93345   0.00000   3.02696   0.00055  -0.00569   0.00008
   O      5.80036   0.00000   9.08087   0.00055  -0.00569   0.00008
   O      1.93345   3.86691   9.08087   0.00086  -0.00741   0.00001
   O      1.93345   3.86691   3.02696   0.00086  -0.00741  -0.00001
   O      3.86691   1.93345   3.02696   0.00134  -0.00473   0.00007
   O      3.86691   1.93345   9.08087   0.00134  -0.00473  -0.00007
   O      3.86691   5.80036   3.02696   0.00134  -0.00473  -0.00007
   O      3.86691   5.80036   9.08087   0.00134  -0.00473   0.00007
   O      5.80036   3.86691   9.08087   0.00086  -0.00741  -0.00001
   O      5.80036   3.86691   3.02696   0.00086  -0.00741   0.00001
PRIMCOORD    8
     40   1
   Bi     0.00000   0.00000   4.29699   0.00838  -0.00100   0.00000
   Bi     0.00000   0.00000   7.81084   0.00838  -0.00100   0.00000
   Bi     1.93345   1.93345  10.35090  -0.00294   0.00044  -0.00002
   Bi     1.93345   1.93345   1.75692  -0.00294   0.00044   0.00002
   Bi     0.00000   3.86691   4.29699   0.01120  -0.00102  -0.00000
   Bi     0.00000   3.86691   7.81084   0.01120  -0.00102   0.00000
   Bi     3.86691   0.00000   4.29699   0.00854  -0.00134  -0.00000
   Bi     3.86691   0.00000   7.81084   0.00854  -0.00134   0.00000
   Bi     1.93345   5.80036  10.35090  -0.00292   0.00026  -0.00002
   Bi     1.93345   5.80036   1.75692  -0.00292   0.00026   0.00002
   Bi     5.80036   1.93345  10.35090  -0.00292   0.00026   0.00002
   Bi     5.80036   1.93345   1.75692  -0.00292   0.00026  -0.00002
   Bi     3.86691   3.86691   4.29699   0.01174  -0.00140   0.00000
   Bi     3.86691   3.86691   7.81084   0.01174  -0.00140  -0.00000
   Bi     5.80036   5.80036  10.35090  -0.00294   0.00044   0.00002
   Bi     5.80036   5.80036   1.75692  -0.00294   0.00044  -0.00002
   Se     0.00000   0.00000   0.00000   0.00583  -0.00070  -0.00000
   Se     1.93345   1.93345   6.05391  -0.04519   0.00530  -0.00000
   Se     0.00000   3.86691   0.00000   0.01342  -0.00158  -0.00000
   Se     3.86691   0.00000   0.00000   0.01320  -0.00160  -0.00000
   Se     1.93345   5.80036   6.05391  -0.04521   0.00550  -0.00000
   Se     5.80036   1.93345   6.05391  -0.04521   0.00550  -0.00000
   Se     3.86691   3.86691   0.00000   0.01083  -0.00129  -0.00000
   Se     5.80036   5.80036   6.05391  -0.04519   0.00530  -0.00000
   O      0.00000   1.93345   3.02696  -0.00109   0.00087  -0.00001
   O      0.00000   5.80036   9.08087  -0.00109   0.00087  -0.00001
   O      0.00000   5.80036   3.02696  -0.00109   0.00087   0.00001
   O      0.00000   1.93345   9.08087  -0.00109   0.00087   0.00001
   O      5.80036   0.00000   3.02696  -0.00725   0.00013  -0.00012
   O      1.93345   0.00000   9.08087  -0.00725   0.00013  -0.00012
   O      1.93345   0.00000   3.02696  -0.00725   0.00013   0.00012
   O      5.80036   0.00000   9.08087  -0.00725   0.00013   0.00012
   O      1.93345   3.86691   9.08087  -0.00421   0.00019   0.00084
   O      1.93345   3.86691   3.02696  -0.00421   0.00019  -0.00084
   O      3.86691   1.93345   3.02696  -0.00162   0.00050   0.00010
   O      3.86691   1.93345   9.08087  -0.00162   0.00050  -0.00010
   O      3.86691   5.80036   3.02696  -0.00162   0.00050  -0.00010
   O      3.86691   5.80036   9.08087  -0.00162   0.00050   0.00010
   O      5.80036   3.86691   9.08087  -0.00421   0.00019  -0.00084
   O      5.80036   3.86691   3.02696  -0.00421   0.00019   0.00084
PRIMCOORD    9
     40   1
   Bi     0.00000   0.00000   4.29699  -0.00100  -0.00838  -0.00000
   Bi     0.00000   0.00000   7.81084  -0.00100  -0.00838  -0.00000
   Bi     1.93345   1.93345  10.35090   0.00026   0.00292   0.00002
   Bi     1.93345   1.93345   1.75692   0.00026   0.00292  -0.00002
   Bi     0.00000   3.86691   4.29699  -0.00134  -0.00854   0.00000
   Bi     0.00000   3.86691   7.81084  -0.00134  -0.00854   0.00000
   Bi     3.86691   0.00000   4.29699  -0.00102  -0.01120  -0.00000
   Bi     3.86691   0.00000   7.81084  -0.00102  -0.01120   0.00000
   Bi     1.93345   5.80036  10.35090   0.00044   0.00294  -0.00002
   Bi     1.93345   5.80036   1.75692   0.00044   0.00294   0.00002
   Bi     5.80036   1.93345  10.35090   0.00044   0.00294   0.00002
   Bi     5.80036   1.93345   1.75692   0.00044   0.00294  -0.00002
   Bi     3.86691   3.86691   4.29699  -0.00140  -0.01174   0.00000
   Bi     3.86691   3.86691   7.81084  -0.00140  -0.01174   0.00000
   Bi     5.80036   5.80036  10.35090   0.00026   0.00292  -0.00002
   Bi     5.80036   5.80036   1.75692   0.00026   0.00292   0.00002
   Se     0.00000   0.00000   0.00000  -0.00070  -0.00583  -0.00000
   Se     1.93345   1.93345   6.05391   0.00550   0.04521  -0.00000
   Se     0.00000   3.86691   0.00000  -0.00160  -0.01320  -0.00000
   Se     3.86691   0.00000   0.00000  -0.00158  -0.01342  -0.00000
   Se     1.93345   5.80036   6.05391   0.00530   0.04519  -0.00000
   Se     5.80036   1.93345   6.05391   0.00530   0.04519  -0.00000
   Se     3.86691   3.86691   0.00000  -0.00129  -0.01083  -0.00000
   Se     5.80036   5.80036   6.05391   0.00550   0.04521  -0.00000
   O      0.00000   1.93345   3.02696   0.00013   0.00725  -0.00012
   O      0.00000   5.80036   9.08087   0.00013   0.00725  -0.00012
   O      0.00000   5.80036   3.02696   0.00013   0.00725   0.00012
   O      0.00000   1.93345   9.08087   0.00013   0.00725   0.00012
   O      5.80036   0.00000   3.02696   0.00087   0.00109   0.00001
   O      1.93345   0.00000   9.08087   0.00087   0.00109   0.00001
   O      1.93345   0.00000   3.02696   0.00087   0.00109  -0.00001
   O      5.80036   0.00000   9.08087   0.00087   0.00109  -0.00001
   O      1.93345   3.86691   9.08087   0.00050   0.00162  -0.00010
   O      1.93345   3.86691   3.02696   0.00050   0.00162   0.00010
   O      3.86691   1.93345   3.02696   0.00019   0.00421   0.00084
   O      3.86691   1.93345   9.08087   0.00019   0.00421  -0.00084
   O      3.86691   5.80036   3.02696   0.00019   0.00421  -0.00084
   O      3.86691   5.80036   9.08087   0.00019   0.00421   0.00084
   O      5.80036   3.86691   9.08087   0.00050   0.00162   0.00010
   O      5.80036   3.86691   3.02696   0.00050   0.00162  -0.00010
PRIMCOORD   10
     40   1
   Bi     0.00000   0.00000   4.29699  -0.03421   0.00243  -0.00000
   Bi     0.00000   0.00000   7.81084   0.03421  -0.00243  -0.00000
   Bi     1.93345   1.93345  10.35090   0.00112   0.00006  -0.00086
   Bi     1.93345   1.93345   1.75692  -0.00112  -0.00006  -0.00086
   Bi     0.00000   3.86691   4.29699   0.03431   0.00252   0.00000
   Bi     0.00000   3.86691   7.81084  -0.03431  -0.00252   0.00000
   Bi     3.86691   0.00000   4.29699  -0.03548  -0.00244   0.00000
   Bi     3.86691   0.00000   7.81084   0.03548   0.00244  -0.00000
   Bi     1.93345   5.80036  10.35090   0.00114  -0.00022  -0.00099
   Bi     1.93345   5.80036   1.75692  -0.00114   0.00022  -0.00099
   Bi     5.80036   1.93345  10.35090   0.00114  -0.00022   0.00099
   Bi     5.80036   1.93345   1.75692  -0.00114   0.00022   0.00099
   Bi     3.86691   3.86691   4.29699   0.03271  -0.00233   0.00000
   Bi     3.86691   3.86691   7.81084  -0.03271   0.00233   0.00000
   Bi     5.80036   5.80036  10.35090   0.00112   0.00006   0.00086
   Bi     5.80036   5.80036   1.75692  -0.00112  -0.00006   0.00086
   Se     0.00000   0.00000   0.00000  -0.00000   0.00000  -0.00000
   Se     1.93345   1.93345   6.05391  -0.00000   0.00000   0.00184
   Se     0.00000   3.86691   0.00000  -0.00000  -0.00000  -0.00000
   Se     3.86691   0.00000   0.00000   0.00000  -0.00000  -0.00000
   Se     1.93345   5.80036   6.05391  -0.00000   0.00000   0.00212
   Se     5.80036   1.93345   6.05391  -0.00000   0.00000  -0.00212
   Se     3.86691   3.86691   0.00000   0.00000   0.00000   0.00000
   Se     5.80036   5.80036   6.05391  -0.00000   0.00000  -0.00184
   O      0.00000   1.93345   3.02696   0.00051   0.00060   0.00002
   O      0.00000   5.80036   9.08087  -0.00051  -0.00060  -0.00002
   O      0.00000   5.80036   3.02696   0.00051   0.00060  -0.00002
   O      0.00000   1.93345   9.08087  -0.00051  -0.00060   0.00002
   O      5.80036   0.00000   3.02696  -0.00844  -0.00004   0.00028
   O      1.93345   0.00000   9.08087   0.00844   0.00004  -0.00028
   O      1.93345   0.00000   3.02696  -0.00844  -0.00004  -0.00028
   O      5.80036   0.00000   9.08087   0.00844   0.00004   0.00028
   O      1.93345   3.86691   9.08087  -0.00821  -0.00007  -0.00115
   O      1.93345   3.86691   3.02696   0.00821   0.00007  -0.00115
   O      3.86691   1.93345   3.02696  -0.00104  -0.00058   0.00008
   O      3.86691   1.93345   9.08087   0.00104   0.00058   0.00008
   O      3.86691   5.80036   3.02696  -0.00104  -0.00058  -0.00008
   O      3.86691   5.80036   9.08087   0.00104   0.00058  -0.00008
   O      5.80036   3.86691   9.08087  -0.00821  -0.00007   0.00115
   O      5.80036   3.86691   3.02696   0.00821   0.00007   0.00115
PRIMCOORD   11
     40   1
   Bi     0.00000   0.00000   4.29699   0.00243   0.03421   0.00000
   Bi     0.00000   0.00000   7.81084  -0.00243  -0.03421   0.00000
   Bi     1.93345   1.93345  10.35090  -0.00022  -0.00114   0.00099
   Bi     1.93345   1.93345   1.75692   0.00022   0.00114   0.00099
   Bi     0.00000   3.86691   4.29699  -0.00244   0.03548  -0.00000
   Bi     0.00000   3.86691   7.81084   0.00244  -0.03548   0.00000
   Bi     3.86691   0.00000   4.29699   0.00252  -0.03431   0.00000
   Bi     3.86691   0.00000   7.81084  -0.00252   0.03431  -0.00000
   Bi     1.93345   5.80036  10.35090   0.00006  -0.00112  -0.00086
   Bi     1.93345   5.80036   1.75692  -0.00006   0.00112  -0.00086
   Bi     5.80036   1.93345  10.35090   0.00006  -0.00112   0.00086
   Bi     5.80036   1.93345   1.75692  -0.00006   0.00112   0.00086
   Bi     3.86691   3.86691   4.29699  -0.00233  -0.03271  -0.00000
   Bi     3.86691   3.86691   7.81084   0.00233   0.03271  -0.00000
   Bi     5.80036   5.80036  10.35090  -0.00022  -0.00114  -0.00099
   Bi     5.80036   5.80036   1.75692   0.00022   0.00114  -0.00099
   Se     0.00000   0.00000   0.00000  -0.00000  -0.00000   0.00000
   Se     1.93345   1.93345   6.05391   0.00000   0.00000  -0.00212
   Se     0.00000   3.86691   0.00000  -0.00000  -0.00000   0.00000
   Se     3.86691   0.00000   0.00000  -0.00000   0.00000   0.00000
   Se     1.93345   5.80036   6.05391   0.00000   0.00000   0.00184
   Se     5.80036   1.93345   6.05391   0.00000   0.00000  -0.00184
   Se     3.86691   3.86691   0.00000  -0.00000  -0.00000  -0.00000
   Se     5.80036   5.80036   6.05391   0.00000   0.00000   0.00212
   O      0.00000   1.93345   3.02696  -0.00004   0.00844   0.00028
   O      0.00000   5.80036   9.08087   0.00004  -0.00844  -0.00028
   O      0.00000   5.80036   3.02696  -0.00004   0.00844  -0.00028
   O      0.00000   1.93345   9.08087   0.00004  -0.00844   0.00028
   O      5.80036   0.00000   3.02696   0.00060  -0.00051  -0.00002
   O      1.93345   0.00000   9.08087  -0.00060   0.00051   0.00002
   O      1.93345   0.00000   3.02696   0.00060  -0.00051   0.00002
   O      5.80036   0.00000   9.08087  -0.00060   0.00051  -0.00002
   O      1.93345   3.86691   9.08087   0.00058  -0.00104   0.00008
   O      1.93345   3.86691   3.02696  -0.00058   0.00104   0.00008
   O      3.86691   1.93345   3.02696   0.00007  -0.00821   0.00115
   O      3.86691   1.93345   9.08087  -0.00007   0.00821   0.00115
   O      3.86691   5.80036   3.02696   0.00007  -0.00821  -0.00115
   O      3.86691   5.80036   9.08087  -0.00007   0.00821  -0.00115
   O      5.80036   3.86691   9.08087   0.00058  -0.00104  -0.00008
   O      5.80036   3.86691   3.02696  -0.00058   0.00104  -0.00008
PRIMCOORD   12
     40   1
   Bi     0.00000   0.00000   4.29699   0.00000   0.00000  -0.02165
   Bi     0.00000   0.00000   7.81084  -0.00000  -0.00000  -0.02165
   Bi     1.93345   1.93345  10.35090  -0.01079  -0.01079   0.00310
   Bi     1.93345   1.93345   1.75692   0.01079   0.01079   0.00310
   Bi     0.00000   3.86691   4.29699  -0.00000   0.00000   0.00314
   Bi     0.00000   3.86691   7.81084   0.00000  -0.00000   0.00314
   Bi     3.86691   0.00000   4.29699   0.00000  -0.00000   0.00314
   Bi     3.86691   0.00000   7.81084  -0.00000   0.00000   0.00314
   Bi     1.93345   5.80036  10.35090  -0.01079   0.01079   0.00310
   Bi     1.93345   5.80036   1.75692   0.01079  -0.01079   0.00310
   Bi     5.80036   1.93345  10.35090   0.01079  -0.01079   0.00310
   Bi     5.80036   1.93345   1.75692  -0.01079   0.01079   0.00310
   Bi     3.86691   3.86691   4.29699  -0.00000  -0.00000   0.02732
   Bi     3.86691   3.86691   7.81084   0.00000   0.00000   0.02732
   Bi     5.80036   5.80036  10.35090   0.01079   0.01079   0.00310
   Bi     5.80036   5.80036   1.75692  -0.01079  -0.01079   0.00310
   Se     0.00000   0.00000   0.00000  -0.00000  -0.00000  -0.05093
   Se     1.93345   1.93345   6.05391  -0.00000  -0.00000  -0.01445
   Se     0.00000   3.86691   0.00000  -0.00000   0.00000  -0.01520
   Se     3.86691   0.00000   0.00000  -0.00000   0.00000  -0.01520
   Se     1.93345   5.80036   6.05391  -0.00000  -0.00000  -0.01445
   Se     5.80036   1.93345   6.05391   0.00000  -0.00000  -0.01445
   Se     3.86691   3.86691   0.00000  -0.00000  -0.00000   0.02257
   Se     5.80036   5.80036   6.05391   0.00000  -0.00000  -0.01445
   O      0.00000   1.93345   3.02696  -0.00000   0.00379  -0.01057
   O      0.00000   5.80036   9.08087   0.00000   0.00379  -0.01057
   O      0.00000   5.80036   3.02696  -0.00000  -0.00379  -0.01057
   O      0.00000   1.93345   9.08087   0.00000  -0.00379  -0.01057
   O      5.80036   0.00000   3.02696  -0.00379  -0.00000  -0.01057
   O      1.93345   0.00000   9.08087  -0.00379  -0.00000  -0.01057
   O      1.93345   0.00000   3.02696   0.00379  -0.00000  -0.01057
   O      5.80036   0.00000   9.08087   0.00379  -0.00000  -0.01057
   O      1.93345   3.86691   9.08087  -0.00371  -0.00000   0.00304
   O      1.93345   3.86691   3.02696   0.00371  -0.00000   0.00304
   O      3.86691   1.93345   3.02696   0.00000   0.00371   0.00304
   O      3.86691   1.93345   9.08087  -0.00000  -0.00371   0.00304
   O      3.86691   5.80036   3.02696   0.00000  -0.00371   0.00304
   O      3.86691   5.80036   9.08087  -0.00000   0.00371   0.00304
   O      5.80036   3.86691   9.08087   0.00371  -0.00000   0.00304
   O      5.80036   3.86691   3.02696  -0.00371  -0.00000   0.00304
PRIMCOORD   13
     40   1
   Bi     0.00000   0.00000   4.29699   0.00000  -0.00000   0.00000
   Bi     0.00000   0.00000   7.81084  -0.00000   0.00000   0.00000
   Bi     1.93345   1.93345  10.35090   0.01114  -0.01114  -0.00000
   Bi     1.93345   1.93345   1.75692  -0.01114   0.01114  -0.00000
   Bi     0.00000   3.86691   4.29699   0.00000  -0.00000   0.02566
   Bi     0.00000   3.86691   7.81084  -0.00000   0.00000   0.02566
   Bi     3.86691   0.00000   4.29699  -0.00000   0.00000  -0.02566
   Bi     3.86691   0.00000   7.81084   0.00000   0.00000  -0.02566
   Bi     1.93345   5.80036  10.35090   0.01114   0.01114  -0.00000
   Bi     1.93345   5.80036   1.75692  -0.01114  -0.01114  -0.00000
   Bi     5.80036   1.93345  10.35090  -0.01114  -0.01114   0.00000
   Bi     5.80036   1.93345   1.75692   0.01114   0.01114   0.00000
   Bi     3.86691   3.86691   4.29699  -0.00000   0.00000  -0.00000
   Bi     3.86691   3.86691   7.81084   0.00000   0.00000  -0.00000
   Bi     5.80036   5.80036  10.35090  -0.01114   0.01114   0.00000
   Bi     5.80036   5.80036   1.75692   0.01114  -0.01114   0.00000
   Se     0.00000   0.00000   0.00000   0.00000   0.00000   0.00000
   Se     1.93345   1.93345   6.05391  -0.00000  -0.00000   0.00000
   Se     0.00000   3.86691   0.00000  -0.00000   0.00000   0.04599
   Se     3.86691   0.00000   0.00000  -0.00000   0.00000  -0.04599
   Se     1.93345   5.80036   6.05391   0.00000   0.00000   0.00000
   Se     5.80036   1.93345   6.05391  -0.00000   0.00000   0.00000
   Se     3.86691   3.86691   0.00000  -0.00000   0.00000  -0.00000
   Se     5.80036   5.80036   6.05391  -0.00000  -0.00000   0.00000
   O      0.00000   1.93345   3.02696   0.00000   0.00350   0.00804
   O      0.00000   5.80036   9.08087  -0.00000   0.00350   0.00804
   O      0.00000   5.80036   3.02696   0.00000  -0.00350   0.00804
   O      0.00000   1.93345   9.08087  -0.00000  -0.00350   0.00804
   O      5.80036   0.00000   3.02696   0.00350  -0.00000  -0.00804
   O      1.93345   0.00000   9.08087   0.00350  -0.00000  -0.00804
   O      1.93345   0.00000   3.02696  -0.00350   0.00000  -0.00804
   O      5.80036   0.00000   9.08087  -0.00350   0.00000  -0.00804
   O      1.93345   3.86691   9.08087   0.00324   0.00000   0.00751
   O      1.93345   3.86691   3.02696  -0.00324  -0.00000   0.00751
   O      3.86691   1.93345   3.02696  -0.00000   0.00324  -0.00751
   O      3.86691   1.93345   9.08087   0.00000  -0.00324  -0.00751
   O      3.86691   5.80036   3.02696  -0.00000  -0.00324  -0.00751
   O      3.86691   5.80036   9.08087   0.00000   0.00324  -0.00751
   O      5.80036   3.86691   9.08087  -0.00324   0.00000   0.00751
   O      5.80036   3.86691   3.02696   0.00324   0.00000   0.00751
PRIMCOORD   14
     40   1
   Bi     0.00000   0.00000   4.29699   0.00000   0.00000  -0.01434
   Bi     0.00000   0.00000   7.81084  -0.00000  -0.00000  -0.01434
   Bi     1.93345   1.93345  10.35090  -0.00335  -0.00335  -0.00634
   Bi     1.93345   1.93345   1.75692   0.00335   0.00335  -0.00634
   Bi     0.00000   3.86691   4.29699   0.00000  -0.00000  -0.00678
   Bi     0.00000   3.86691   7.81084  -0.00000   0.00000  -0.00678
   Bi     3.86691   0.00000   4.29699  -0.00000   0.00000  -0.00678
   Bi     3.86691   0.00000   7.81084   0.00000  -0.00000  -0.00678
   Bi     1.93345   5.80036  10.35090  -0.00335   0.00335  -0.00634
   Bi     1.93345   5.80036   1.75692   0.00335  -0.00335  -0.00634
   Bi     5.80036   1.93345  10.35090   0.00335  -0.00335  -0.00634
   Bi     5.80036   1.93345   1.75692  -0.00335   0.00335  -0.00634
   Bi     3.86691   3.86691   4.29699  -0.00000  -0.00000   0.00194
   Bi     3.86691   3.86691   7.81084   0.00000  -0.00000   0.00194
   Bi     5.80036   5.80036  10.35090   0.00335   0.00335  -0.00634
   Bi     5.80036   5.80036   1.75692  -0.00335  -0.00335  -0.00634
   Se     0.00000   0.00000   0.00000   0.00000   0.00000   0.02029
   Se     1.93345   1.93345   6.05391  -0.00000   0.00000   0.02943
   Se     0.00000   3.86691   0.00000   0.00000  -0.00000   0.03311
   Se     3.86691   0.00000   0.00000  -0.00000   0.00000   0.03311
   Se     1.93345   5.80036   6.05391  -0.00000   0.00000   0.02943
   Se     5.80036   1.93345   6.05391  -0.00000   0.00000   0.02943
   Se     3.86691   3.86691   0.00000   0.00000   0.00000   0.04282
   Se     5.80036   5.80036   6.05391  -0.00000   0.00000   0.02943
   O      0.00000   1.93345   3.02696   0.00000   0.00106   0.00565
   O      0.00000   5.80036   9.08087  -0.00000   0.00106   0.00565
   O      0.00000   5.80036   3.02696   0.00000  -0.00106   0.00565
   O      0.00000   1.93345   9.08087  -0.00000  -0.00106   0.00565
   O      5.80036   0.00000   3.02696  -0.00106   0.00000   0.00565
   O      1.93345   0.00000   9.08087  -0.00106   0.00000   0.00565
   O      1.93345   0.00000   3.02696   0.00106   0.00000   0.00565
   O      5.80036   0.00000   9.08087   0.00106  -0.00000   0.00565
   O      1.93345   3.86691   9.08087  -0.00082   0.00000   0.00952
   O      1.93345   3.86691   3.02696   0.00082   0.00000   0.00952
   O      3.86691   1.93345   3.02696  -0.00000   0.00082   0.00952
   O      3.86691   1.93345   9.08087   0.00000  -0.00082   0.00952
   O      3.86691   5.80036   3.02696  -0.00000  -0.00082   0.00952
   O      3.86691   5.80036   9.08087   0.00000   0.00082   0.00952
   O      5.80036   3.86691   9.08087   0.00082   0.00000   0.00952
   O      5.80036   3.86691   3.02696  -0.00082  -0.00000   0.00952
PRIMCOORD   15
     40   1
   Bi     0.00000   0.00000   4.29699  -0.01893   0.00078  -0.00000
   Bi     0.00000   0.00000   7.81084   0.01893  -0.00078  -0.00000
   Bi     1.93345   1.93345  10.35090   0.00030   0.00054   0.02469
   Bi     1.93345   1.93345   1.75692  -0.00030  -0.00054   0.02469
   Bi     0.00000   3.86691   4.29699  -0.01558  -0.00070  -0.00000
   Bi     0.00000   3.86691   7.81084   0.01558   0.00070   0.00000
   Bi     3.86691   0.00000   4.29699   0.01695   0.00064  -0.00000
   Bi     3.86691   0.00000   7.81084  -0.01695  -0.00064  -0.00000
   Bi     1.93345   5.80036  10.35090   0.00035  -0.00057   0.02681
   Bi     1.93345   5.80036   1.75692  -0.00035   0.00057   0.02681
   Bi     5.80036   1.93345  10.35090   0.00035  -0.00057  -0.02681
   Bi     5.80036   1.93345   1.75692  -0.00035   0.00057  -0.02681
   Bi     3.86691   3.86691   4.29699   0.01770  -0.00073  -0.00000
   Bi     3.86691   3.86691   7.81084  -0.01770   0.00073  -0.00000
   Bi     5.80036   5.80036  10.35090   0.00030   0.00054  -0.02469
   Bi     5.80036   5.80036   1.75692  -0.00030  -0.00054  -0.02469
   Se     0.00000   0.00000   0.00000  -0.00000  -0.00000   0.00000
   Se     1.93345   1.93345   6.05391   0.00000  -0.00000   0.00471
   Se     0.00000   3.86691   0.00000  -0.00000  -0.00000   0.00000
   Se     3.86691   0.00000   0.00000   0.00000   0.00000   0.00000
   Se     1.93345   5.80036   6.05391   0.00000  -0.00000   0.00512
   Se     5.80036   1.93345   6.05391   0.00000  -0.00000  -0.00512
   Se     3.86691   3.86691   0.00000  -0.00000  -0.00000   0.00000
   Se     5.80036   5.80036   6.05391   0.00000  -0.00000  -0.00471
   O      0.00000   1.93345   3.02696  -0.00668  -0.00000  -0.00063
   O      0.00000   5.80036   9.08087   0.00668   0.00000   0.00063
   O      0.00000   5.80036   3.02696  -0.00668  -0.00000   0.00063
   O      0.00000   1.93345   9.08087   0.00668   0.00000  -0.00063
   O      5.80036   0.00000   3.02696   0.00005   0.00028  -0.01537
   O      1.93345   0.00000   9.08087  -0.00005  -0.00028   0.01537
   O      1.93345   0.00000   3.02696   0.00005   0.00028   0.01537
   O      5.80036   0.00000   9.08087  -0.00005  -0.00028  -0.01537
   O      1.93345   3.86691   9.08087  -0.00029   0.00027   0.01486
   O      1.93345   3.86691   3.02696   0.00029  -0.00027   0.01486
   O      3.86691   1.93345   3.02696   0.00646  -0.00001  -0.00061
   O      3.86691   1.93345   9.08087  -0.00646   0.00001  -0.00061
   O      3.86691   5.80036   3.02696   0.00646  -0.00001   0.00061
   O      3.86691   5.80036   9.08087  -0.00646   0.00001   0.00061
   O      5.80036   3.86691   9.08087  -0.00029   0.00027  -0.01486
   O      5.80036   3.86691   3.02696   0.00029  -0.00027  -0.01486
PRIMCOORD   16
     40   1
   Bi     0.00000   0.00000   4.29699   0.00078   0.01893   0.00000
   Bi     0.00000   0.00000   7.81084  -0.00078  -0.01893   0.00000
   Bi     1.93345   1.93345  10.35090  -0.00057  -0.00035  -0.02681
   Bi     1.93345   1.93345   1.75692   0.00057   0.00035  -0.02681
   Bi     0.00000   3.86691   4.29699   0.00064  -0.01695   0.00000
   Bi     0.00000   3.86691   7.81084  -0.00064   0.01695   0.00000
   Bi     3.86691   0.00000   4.29699  -0.00070   0.01558   0.00000
   Bi     3.86691   0.00000   7.81084   0.00070  -0.01558   0.00000
   Bi     1.93345   5.80036  10.35090   0.00054  -0.00030   0.02469
   Bi     1.93345   5.80036   1.75692  -0.00054   0.00030   0.02469
   Bi     5.80036   1.93345  10.35090   0.00054  -0.00030  -0.02469
   Bi     5.80036   1.93345   1.75692  -0.00054   0.00030  -0.02469
   Bi     3.86691   3.86691   4.29699  -0.00073  -0.01770  -0.00000
   Bi     3.86691   3.86691   7.81084   0.00073   0.01770  -0.00000
   Bi     5.80036   5.80036  10.35090  -0.00057  -0.00035   0.02681
   Bi     5.80036   5.80036   1.75692   0.00057   0.00035   0.02681
   Se     0.00000   0.00000   0.00000   0.00000   0.00000  -0.00000
   Se     1.93345   1.93345   6.05391   0.00000  -0.00000  -0.00512
   Se     0.00000   3.86691   0.00000  -0.00000  -0.00000  -0.00000
   Se     3.86691   0.00000   0.00000  -0.00000   0.00000  -0.00000
   Se     1.93345   5.80036   6.05391   0.00000  -0.00000   0.00471
   Se     5.80036   1.93345   6.05391   0.00000  -0.00000  -0.00471
   Se     3.86691   3.86691   0.00000   0.00000   0.00000  -0.00000
   Se     5.80036   5.80036   6.05391   0.00000  -0.00000   0.00512
   O      0.00000   1.93345   3.02696   0.00028  -0.00005  -0.01537
   O      0.00000   5.80036   9.08087  -0.00028   0.00005   0.01537
   O      0.00000   5.80036   3.02696   0.00028  -0.00005   0.01537
   O      0.00000   1.93345   9.08087  -0.00028   0.00005  -0.01537
   O      5.80036   0.00000   3.02696  -0.00000   0.00668   0.00063
   O      1.93345   0.00000   9.08087   0.00000  -0.00668  -0.00063
   O      1.93345   0.00000   3.02696  -0.00000   0.00668  -0.00063
   O      5.80036   0.00000   9.08087   0.00000  -0.00668   0.00063
   O      1.93345   3.86691   9.08087   0.00001   0.00646  -0.00061
   O      1.93345   3.86691   3.02696  -0.00001  -0.00646  -0.00061
   O      3.86691   1.93345   3.02696  -0.00027  -0.00029  -0.01486
   O      3.86691   1.93345   9.08087   0.00027   0.00029  -0.01486
   O      3.86691   5.80036   3.02696  -0.00027  -0.00029   0.01486
   O      3.86691   5.80036   9.08087   0.00027   0.00029   0.01486
   O      5.80036   3.86691   9.08087   0.00001   0.00646   0.00061
   O      5.80036   3.86691   3.02696  -0.00001  -0.00646   0.00061
PRIMCOORD   17
     40   1
   Bi     0.00000   0.00000   4.29699  -0.00000   0.00000   0.00000
   Bi     0.00000   0.00000   7.81084   0.00000  -0.00000   0.00000
   Bi     1.93345   1.93345  10.35090   0.02447  -0.02447   0.00000
   Bi     1.93345   1.93345   1.75692  -0.02447   0.02447   0.00000
   Bi     0.00000   3.86691   4.29699  -0.00000  -0.00000   0.00000
   Bi     0.00000   3.86691   7.81084   0.00000   0.00000   0.00000
   Bi     3.86691   0.00000   4.29699   0.00000   0.00000  -0.00000
   Bi     3.86691   0.00000   7.81084  -0.00000  -0.00000  -0.00000
   Bi     1.93345   5.80036  10.35090  -0.02447  -0.02447   0.00000
   Bi     1.93345   5.80036   1.75692   0.02447   0.02447   0.00000
   Bi     5.80036   1.93345  10.35090   0.02447   0.02447  -0.00000
   Bi     5.80036   1.93345   1.75692  -0.02447  -0.02447  -0.00000
   Bi     3.86691   3.86691   4.29699   0.00000  -0.00000  -0.00000
   Bi     3.86691   3.86691   7.81084  -0.00000   0.00000  -0.00000
   Bi     5.80036   5.80036  10.35090  -0.02447   0.02447  -0.00000
   Bi     5.80036   5.80036   1.75692   0.02447  -0.02447  -0.00000
   Se     0.00000   0.00000   0.00000   0.00000   0.00000   0.00000
   Se     1.93345   1.93345   6.05391   0.00000   0.00000   0.00000
   Se     0.00000   3.86691   0.00000   0.00000   0.00000   0.00000
   Se     3.86691   0.00000   0.00000   0.00000   0.00000   0.00000
   Se     1.93345   5.80036   6.05391   0.00000   0.00000   0.00000
   Se     5.80036   1.93345   6.05391   0.00000   0.00000  -0.00000
   Se     3.86691   3.86691   0.00000  -0.00000  -0.00000   0.00000
   Se     5.80036   5.80036   6.05391   0.00000   0.00000   0.00000
   O      0.00000   1.93345   3.02696  -0.00511  -0.00000  -0.00000
   O      0.00000   5.80036   9.08087  -0.00511  -0.00000   0.00000
   O      0.00000   5.80036   3.02696   0.00511  -0.00000   0.00000
   O      0.00000   1.93345   9.08087   0.00511  -0.00000  -0.00000
   O      5.80036   0.00000   3.02696   0.00000  -0.00511  -0.00000
   O      1.93345   0.00000   9.08087   0.00000  -0.00511   0.00000
   O      1.93345   0.00000   3.02696  -0.00000   0.00511   0.00000
   O      5.80036   0.00000   9.08087   0.00000   0.00511  -0.00000
   O      1.93345   3.86691   9.08087   0.00000  -0.00512   0.00000
   O      1.93345   3.86691   3.02696   0.00000   0.00512   0.00000
   O      3.86691   1.93345   3.02696  -0.00512   0.00000  -0.00000
   O      3.86691   1.93345   9.08087   0.00512  -0.00000  -0.00000
   O      3.86691   5.80036   3.02696   0.00512   0.00000   0.00000
   O      3.86691   5.80036   9.08087  -0.00512  -0.00000   0.00000
   O      5.80036   3.86691   9.08087   0.00000   0.00512  -0.00000
   O      5.80036   3.86691   3.02696   0.00000  -0.00512  -0.00000
PRIMCOORD   18
     40   1
   Bi     0.00000   0.00000   4.29699  -0.00000   0.00000  -0.00000
   Bi     0.00000   0.00000   7.81084  -0.00000   0.00000  -0.00000
   Bi     1.93345   1.93345  10.35090  -0.02450  -0.02450  -0.00148
   Bi     1.93345   1.93345   1.75692   0.02450   0.02450  -0.00148
   Bi     0.00000   3.86691   4.29699   0.00000   0.00000  -0.00000
   Bi     0.00000   3.86691   7.81084  -0.00000   0.00000   0.00000
   Bi     3.86691   0.00000   4.29699  -0.00000  -0.00000   0.00000
   Bi     3.86691   0.00000   7.81084  -0.00000  -0.00000  -0.00000
   Bi     1.93345   5.80036  10.35090   0.02450  -0.02450   0.00148
   Bi     1.93345   5.80036   1.75692  -0.02450   0.02450   0.00148
   Bi     5.80036   1.93345  10.35090  -0.02450   0.02450   0.00148
   Bi     5.80036   1.93345   1.75692   0.02450  -0.02450   0.00148
   Bi     3.86691   3.86691   4.29699   0.00000  -0.00000  -0.00000
   Bi     3.86691   3.86691   7.81084  -0.00000  -0.00000   0.00000
   Bi     5.80036   5.80036  10.35090   0.02450   0.02450  -0.00148
   Bi     5.80036   5.80036   1.75692  -0.02450  -0.02450  -0.00148
   Se     0.00000   0.00000   0.00000   0.00000   0.00000   0.00000
   Se     1.93345   1.93345   6.05391  -0.00000  -0.00000   0.00007
   Se     0.00000   3.86691   0.00000   0.00000   0.00000  -0.00000
   Se     3.86691   0.00000   0.00000   0.00000   0.00000   0.00000
   Se     1.93345   5.80036   6.05391  -0.00000  -0.00000  -0.00007
   Se     5.80036   1.93345   6.05391  -0.00000  -0.00000  -0.00007
   Se     3.86691   3.86691   0.00000  -0.00000  -0.00000   0.00000
   Se     5.80036   5.80036   6.05391  -0.00000  -0.00000   0.00007
   O      0.00000   1.93345   3.02696   0.00497   0.00000  -0.00000
   O      0.00000   5.80036   9.08087   0.00497   0.00000   0.00000
   O      0.00000   5.80036   3.02696  -0.00497   0.00000   0.00000
   O      0.00000   1.93345   9.08087  -0.00497  -0.00000  -0.00000
   O      5.80036   0.00000   3.02696  -0.00000  -0.00497  -0.00000
   O      1.93345   0.00000   9.08087  -0.00000  -0.00497  -0.00000
   O      1.93345   0.00000   3.02696  -0.00000   0.00497   0.00000
   O      5.80036   0.00000   9.08087  -0.00000   0.00497   0.00000
   O      1.93345   3.86691   9.08087  -0.00000  -0.00476   0.00000
   O      1.93345   3.86691   3.02696   0.00000   0.00476   0.00000
   O      3.86691   1.93345   3.02696   0.00476  -0.00000  -0.00000
   O      3.86691   1.93345   9.08087  -0.00476  -0.00000  -0.00000
   O      3.86691   5.80036   3.02696  -0.00476  -0.00000   0.00000
   O      3.86691   5.80036   9.08087   0.00476  -0.00000   0.00000
   O      5.80036   3.86691   9.08087  -0.00000   0.00476   0.00000
   O      5.80036   3.86691   3.02696   0.00000  -0.00476   0.00000
PRIMCOORD   19
     40   1
   Bi     0.00000   0.00000   4.29699   0.01592   0.03214   0.00000
   Bi     0.00000   0.00000   7.81084   0.01592   0.03214   0.00000
   Bi     1.93345   1.93345  10.35090  -0.00228  -0.00262   0.00175
   Bi     1.93345   1.93345   1.75692  -0.00228  -0.00262  -0.00175
   Bi     0.00000   3.86691   4.29699  -0.01297   0.03310   0.00000
   Bi     0.00000   3.86691   7.81084  -0.01297   0.03310   0.00000
   Bi     3.86691   0.00000   4.29699   0.01639  -0.02620  -0.00000
   Bi     3.86691   0.00000   7.81084   0.01639  -0.02620  -0.00000
   Bi     1.93345   5.80036  10.35090   0.00032  -0.00134  -0.00059
   Bi     1.93345   5.80036   1.75692   0.00032  -0.00134   0.00059
   Bi     5.80036   1.93345  10.35090   0.00032  -0.00134   0.00059
   Bi     5.80036   1.93345   1.75692   0.00032  -0.00134  -0.00059
   Bi     3.86691   3.86691   4.29699  -0.01486  -0.03001   0.00000
   Bi     3.86691   3.86691   7.81084  -0.01486  -0.03001   0.00000
   Bi     5.80036   5.80036  10.35090  -0.00228  -0.00262  -0.00175
   Bi     5.80036   5.80036   1.75692  -0.00228  -0.00262   0.00175
   Se     0.00000   0.00000   0.00000   0.00265   0.00536   0.00000
   Se     1.93345   1.93345   6.05391  -0.00015  -0.00178   0.00000
   Se     0.00000   3.86691   0.00000  -0.00091  -0.00282  -0.00000
   Se     3.86691   0.00000   0.00000  -0.00140  -0.00184   0.00000
   Se     1.93345   5.80036   6.05391  -0.00208  -0.00273  -0.00000
   Se     5.80036   1.93345   6.05391  -0.00208  -0.00273  -0.00000
   Se     3.86691   3.86691   0.00000   0.00095   0.00191  -0.00000
   Se     5.80036   5.80036   6.05391  -0.00015  -0.00178  -0.00000
   O      0.00000   1.93345   3.02696   0.00017   0.00798  -0.00106
   O      0.00000   5.80036   9.08087   0.00017   0.00798  -0.00106
   O      0.00000   5.80036   3.02696   0.00017   0.00798   0.00106
   O      0.00000   1.93345   9.08087   0.00017   0.00798   0.00106
   O      5.80036   0.00000   3.02696   0.00395   0.00034   0.00052
   O      1.93345   0.00000   9.08087   0.00395   0.00034   0.00052
   O      1.93345   0.00000   3.02696   0.00395   0.00034  -0.00052
   O      5.80036   0.00000   9.08087   0.00395   0.00034  -0.00052
   O      1.93345   3.86691   9.08087  -0.00361  -0.00043   0.00029
   O      1.93345   3.86691   3.02696  -0.00361  -0.00043  -0.00029
   O      3.86691   1.93345   3.02696  -0.00021  -0.00730  -0.00059
   O      3.86691   1.93345   9.08087  -0.00021  -0.00730   0.00059
   O      3.86691   5.80036   3.02696  -0.00021  -0.00730   0.00059
   O      3.86691   5.80036   9.08087  -0.00021  -0.00730  -0.00059
   O      5.80036   3.86691   9.08087  -0.00361  -0.00043  -0.00029
   O      5.80036   3.86691   3.02696  -0.00361  -0.00043   0.00029
PRIMCOORD   20
     40   1
   Bi     0.00000   0.00000   4.29699  -0.03214   0.01592  -0.00000
   Bi     0.00000   0.00000   7.81084  -0.03214   0.01592   0.00000
   Bi     1.93345   1.93345  10.35090   0.00134   0.00032  -0.00059
   Bi     1.93345   1.93345   1.75692   0.00134   0.00032   0.00059
   Bi     0.00000   3.86691   4.29699   0.02620   0.01639  -0.00000
   Bi     0.00000   3.86691   7.81084   0.02620   0.01639  -0.00000
   Bi     3.86691   0.00000   4.29699  -0.03310  -0.01297   0.00000
   Bi     3.86691   0.00000   7.81084  -0.03310  -0.01297   0.00000
   Bi     1.93345   5.80036  10.35090   0.00262  -0.00228  -0.00175
   Bi     1.93345   5.80036   1.75692   0.00262  -0.00228   0.00175
   Bi     5.80036   1.93345  10.35090   0.00262  -0.00228   0.00175
   Bi     5.80036   1.93345   1.75692   0.00262  -0.00228  -0.00175
   Bi     3.86691   3.86691   4.29699   0.03001  -0.01486   0.00000
   Bi     3.86691   3.86691   7.81084   0.03001  -0.01486   0.00000
   Bi     5.80036   5.80036  10.35090   0.00134   0.00032   0.00059
   Bi     5.80036   5.80036   1.75692   0.00134   0.00032  -0.00059
   Se     0.00000   0.00000   0.00000  -0.00536   0.00265  -0.00000
   Se     1.93345   1.93345   6.05391   0.00273  -0.00208  -0.00000
   Se     0.00000   3.86691   0.00000   0.00184  -0.00140   0.00000
   Se     3.86691   0.00000   0.00000   0.00282  -0.00091  -0.00000
   Se     1.93345   5.80036   6.05391   0.00178  -0.00015   0.00000
   Se     5.80036   1.93345   6.05391   0.00178  -0.00015  -0.00000
   Se     3.86691   3.86691   0.00000  -0.00191   0.00095   0.00000
   Se     5.80036   5.80036   6.05391   0.00273  -0.00208  -0.00000
   O      0.00000   1.93345   3.02696  -0.00034   0.00395  -0.00052
   O      0.00000   5.80036   9.08087  -0.00034   0.00395  -0.00052
   O      0.00000   5.80036   3.02696  -0.00034   0.00395   0.00052
   O      0.00000   1.93345   9.08087  -0.00034   0.00395   0.00052
   O      5.80036   0.00000   3.02696  -0.00798   0.00017  -0.00106
   O      1.93345   0.00000   9.08087  -0.00798   0.00017  -0.00106
   O      1.93345   0.00000   3.02696  -0.00798   0.00017   0.00106
   O      5.80036   0.00000   9.08087  -0.00798   0.00017   0.00106
   O      1.93345   3.86691   9.08087   0.00730  -0.00021  -0.00059
   O      1.93345   3.86691   3.02696   0.00730  -0.00021   0.00059
   O      3.86691   1.93345   3.02696   0.00043  -0.00361  -0.00029
   O      3.86691   1.93345   9.08087   0.00043  -0.00361   0.00029
   O      3.86691   5.80036   3.02696   0.00043  -0.00361   0.00029
   O      3.86691   5.80036   9.08087   0.00043  -0.00361  -0.00029
   O      5.80036   3.86691   9.08087   0.00730  -0.00021   0.00059
   O      5.80036   3.86691   3.02696   0.00730  -0.00021  -0.00059
PRIMCOORD   21
     40   1
   Bi     0.00000   0.00000   4.29699  -0.00357  -0.00235  -0.00000
   Bi     0.00000   0.00000   7.81084  -0.00357  -0.00235  -0.00000
   Bi     1.93345   1.93345  10.35090  -0.01639  -0.01793   0.00578
   Bi     1.93345   1.93345   1.75692  -0.01639  -0.01793  -0.00578
   Bi     0.00000   3.86691   4.29699   0.02598   0.01016   0.00000
   Bi     0.00000   3.86691   7.81084   0.02598   0.01016   0.00000
   Bi     3.86691   0.00000   4.29699   0.01542   0.01711   0.00000
   Bi     3.86691   0.00000   7.81084   0.01542   0.01711  -0.00000
   Bi     1.93345   5.80036  10.35090   0.00021   0.00727   0.00119
   Bi     1.93345   5.80036   1.75692   0.00021   0.00727  -0.00119
   Bi     5.80036   1.93345  10.35090   0.00021   0.00727  -0.00119
   Bi     5.80036   1.93345   1.75692   0.00021   0.00727   0.00119
   Bi     3.86691   3.86691   4.29699  -0.00343  -0.00226   0.00000
   Bi     3.86691   3.86691   7.81084  -0.00343  -0.00226   0.00000
   Bi     5.80036   5.80036  10.35090  -0.01639  -0.01793  -0.00578
   Bi     5.80036   5.80036   1.75692  -0.01639  -0.01793   0.00578
   Se     0.00000   0.00000   0.00000   0.01317   0.00868   0.00000
   Se     1.93345   1.93345   6.05391   0.01246   0.01131   0.00000
   Se     0.00000   3.86691   0.00000  -0.03068  -0.02508  -0.00000
   Se     3.86691   0.00000   0.00000  -0.03808  -0.02021   0.00000
   Se     1.93345   5.80036   6.05391   0.00526   0.00037   0.00000
   Se     5.80036   1.93345   6.05391   0.00526   0.00037  -0.00000
   Se     3.86691   3.86691   0.00000   0.00977   0.00644  -0.00000
   Se     5.80036   5.80036   6.05391   0.01246   0.01131  -0.00000
   O      0.00000   1.93345   3.02696   0.00018   0.00063   0.00032
   O      0.00000   5.80036   9.08087   0.00018   0.00063   0.00032
   O      0.00000   5.80036   3.02696   0.00018   0.00063  -0.00032
   O      0.00000   1.93345   9.08087   0.00018   0.00063  -0.00032
   O      5.80036   0.00000   3.02696   0.00096   0.00012  -0.00048
   O      1.93345   0.00000   9.08087   0.00096   0.00012  -0.00048
   O      1.93345   0.00000   3.02696   0.00096   0.00012   0.00048
   O      5.80036   0.00000   9.08087   0.00096   0.00012   0.00048
   O      1.93345   3.86691   9.08087   0.00197  -0.00239   0.00325
   O      1.93345   3.86691   3.02696   0.00197  -0.00239  -0.00325
   O      3.86691   1.93345   3.02696  -0.00364   0.00130  -0.00214
   O      3.86691   1.93345   9.08087  -0.00364   0.00130   0.00214
   O      3.86691   5.80036   3.02696  -0.00364   0.00130   0.00214
   O      3.86691   5.80036   9.08087  -0.00364   0.00130  -0.00214
   O      5.80036   3.86691   9.08087   0.00197  -0.00239  -0.00325
   O      5.80036   3.86691   3.02696   0.00197  -0.00239   0.00325
PRIMCOORD   22
     40   1
   Bi     0.00000   0.00000   4.29699   0.00235  -0.00357   0.00000
   Bi     0.00000   0.00000   7.81084   0.00235  -0.00357   0.00000
   Bi     1.93345   1.93345  10.35090  -0.00727   0.00021   0.00119
   Bi     1.93345   1.93345   1.75692  -0.00727   0.00021  -0.00119
   Bi     0.00000   3.86691   4.29699  -0.01711   0.01542  -0.00000
   Bi     0.00000   3.86691   7.81084  -0.01711   0.01542  -0.00000
   Bi     3.86691   0.00000   4.29699  -0.01016   0.02598  -0.00000
   Bi     3.86691   0.00000   7.81084  -0.01016   0.02598   0.00000
   Bi     1.93345   5.80036  10.35090   0.01793  -0.01639  -0.00578
   Bi     1.93345   5.80036   1.75692   0.01793  -0.01639   0.00578
   Bi     5.80036   1.93345  10.35090   0.01793  -0.01639   0.00578
   Bi     5.80036   1.93345   1.75692   0.01793  -0.01639  -0.00578
   Bi     3.86691   3.86691   4.29699   0.00226  -0.00343  -0.00000
   Bi     3.86691   3.86691   7.81084   0.00226  -0.00343  -0.00000
   Bi     5.80036   5.80036  10.35090  -0.00727   0.00021  -0.00119
   Bi     5.80036   5.80036   1.75692  -0.00727   0.00021   0.00119
   Se     0.00000   0.00000   0.00000  -0.00868   0.01317  -0.00000
   Se     1.93345   1.93345   6.05391  -0.00037   0.00526  -0.00000
   Se     0.00000   3.86691   0.00000   0.02021  -0.03808   0.00000
   Se     3.86691   0.00000   0.00000   0.02508  -0.03068  -0.00000
   Se     1.93345   5.80036   6.05391  -0.01131   0.01246  -0.00000
   Se     5.80036   1.93345   6.05391  -0.01131   0.01246   0.00000
   Se     3.86691   3.86691   0.00000  -0.00644   0.00977   0.00000
   Se     5.80036   5.80036   6.05391  -0.00037   0.00526   0.00000
   O      0.00000   1.93345   3.02696  -0.00012   0.00096   0.00048
   O      0.00000   5.80036   9.08087  -0.00012   0.00096   0.00048
   O      0.00000   5.80036   3.02696  -0.00012   0.00096  -0.00048
   O      0.00000   1.93345   9.08087  -0.00012   0.00096  -0.00048
   O      5.80036   0.00000   3.02696  -0.00063   0.00018   0.00032
   O      1.93345   0.00000   9.08087  -0.00063   0.00018   0.00032
   O      1.93345   0.00000   3.02696  -0.00063   0.00018  -0.00032
   O      5.80036   0.00000   9.08087  -0.00063   0.00018  -0.00032
   O      1.93345   3.86691   9.08087  -0.00130  -0.00364  -0.00214
   O      1.93345   3.86691   3.02696  -0.00130  -0.00364   0.00214
   O      3.86691   1.93345   3.02696   0.00239   0.00197  -0.00325
   O      3.86691   1.93345   9.08087   0.00239   0.00197   0.00325
   O      3.86691   5.80036   3.02696   0.00239   0.00197   0.00325
   O      3.86691   5.80036   9.08087   0.00239   0.00197  -0.00325
   O      5.80036   3.86691   9.08087  -0.00130  -0.00364   0.00214
   O      5.80036   3.86691   3.02696  -0.00130  -0.00364  -0.00214
PRIMCOORD   23
     40   1
   Bi     0.00000   0.00000   4.29699  -0.00000   0.00000   0.00000
   Bi     0.00000   0.00000   7.81084  -0.00000   0.00000  -0.00000
   Bi     1.93345   1.93345  10.35090  -0.02320   0.02320  -0.00000
   Bi     1.93345   1.93345   1.75692  -0.02320   0.02320   0.00000
   Bi     0.00000   3.86691   4.29699   0.00000  -0.00000   0.00000
   Bi     0.00000   3.86691   7.81084  -0.00000  -0.00000   0.00000
   Bi     3.86691   0.00000   4.29699  -0.00000  -0.00000   0.00000
   Bi     3.86691   0.00000   7.81084  -0.00000  -0.00000   0.00000
   Bi     1.93345   5.80036  10.35090   0.02320   0.02320   0.00000
   Bi     1.93345   5.80036   1.75692   0.02320   0.02320   0.00000
   Bi     5.80036   1.93345  10.35090  -0.02320  -0.02320   0.00000
   Bi     5.80036   1.93345   1.75692  -0.02320  -0.02320   0.00000
   Bi     3.86691   3.86691   4.29699   0.00000   0.00000  -0.00000
   Bi     3.86691   3.86691   7.81084  -0.00000   0.00000  -0.00000
   Bi     5.80036   5.80036  10.35090   0.02320  -0.02320   0.00000
   Bi     5.80036   5.80036   1.75692   0.02320  -0.02320   0.00000
   Se     0.00000   0.00000   0.00000   0.00000  -0.00000  -0.00000
   Se     1.93345   1.93345   6.05391   0.01011  -0.01011  -0.00000
   Se     0.00000   3.86691   0.00000   0.00000   0.00000   0.00000
   Se     3.86691   0.00000   0.00000   0.00000   0.00000  -0.00000
   Se     1.93345   5.80036   6.05391  -0.01011  -0.01011   0.00000
   Se     5.80036   1.93345   6.05391   0.01011   0.01011  -0.00000
   Se     3.86691   3.86691   0.00000   0.00000  -0.00000   0.00000
   Se     5.80036   5.80036   6.05391  -0.01011   0.01011   0.00000
   O      0.00000   1.93345   3.02696  -0.00598  -0.00000   0.00000
   O      0.00000   5.80036   9.08087   0.00598   0.00000  -0.00000
   O      0.00000   5.80036   3.02696   0.00598  -0.00000   0.00000
   O      0.00000   1.93345   9.08087  -0.00598   0.00000  -0.00000
   O      5.80036   0.00000   3.02696  -0.00000  -0.00598   0.00000
   O      1.93345   0.00000   9.08087  -0.00000   0.00598  -0.00000
   O      1.93345   0.00000   3.02696  -0.00000   0.00598  -0.00000
   O      5.80036   0.00000   9.08087  -0.00000  -0.00598  -0.00000
   O      1.93345   3.86691   9.08087   0.00000   0.00598  -0.00000
   O      1.93345   3.86691   3.02696   0.00000   0.00598  -0.00000
   O      3.86691   1.93345   3.02696  -0.00598  -0.00000   0.00000
   O      3.86691   1.93345   9.08087  -0.00598   0.00000  -0.00000
   O      3.86691   5.80036   3.02696   0.00598   0.00000  -0.00000
   O      3.86691   5.80036   9.08087   0.00598   0.00000  -0.00000
   O      5.80036   3.86691   9.08087   0.00000  -0.00598  -0.00000
   O      5.80036   3.86691   3.02696   0.00000  -0.00598  -0.00000
PRIMCOORD   24
     40   1
   Bi     0.00000   0.00000   4.29699   0.02614  -0.00191  -0.00000
   Bi     0.00000   0.00000   7.81084   0.02614  -0.00191  -0.00000
   Bi     1.93345   1.93345  10.35090  -0.01648   0.01297   0.00022
   Bi     1.93345   1.93345   1.75692  -0.01648   0.01297  -0.00022
   Bi     0.00000   3.86691   4.29699   0.00373  -0.00023  -0.00000
   Bi     0.00000   3.86691   7.81084   0.00373  -0.00023  -0.00000
   Bi     3.86691   0.00000   4.29699   0.00311  -0.00027  -0.00000
   Bi     3.86691   0.00000   7.81084   0.00311  -0.00027  -0.00000
   Bi     1.93345   5.80036  10.35090  -0.01476  -0.01069   0.00025
   Bi     1.93345   5.80036   1.75692  -0.01476  -0.01069  -0.00025
   Bi     5.80036   1.93345  10.35090  -0.01476  -0.01069  -0.00025
   Bi     5.80036   1.93345   1.75692  -0.01476  -0.01069   0.00025
   Bi     3.86691   3.86691   4.29699   0.02851  -0.00208   0.00000
   Bi     3.86691   3.86691   7.81084   0.02851  -0.00208   0.00000
   Bi     5.80036   5.80036  10.35090  -0.01648   0.01297  -0.00022
   Bi     5.80036   5.80036   1.75692  -0.01648   0.01297   0.00022
   Se     0.00000   0.00000   0.00000  -0.01243   0.00091   0.00000
   Se     1.93345   1.93345   6.05391   0.01960  -0.00508  -0.00000
   Se     0.00000   3.86691   0.00000  -0.01008   0.00068   0.00000
   Se     3.86691   0.00000   0.00000  -0.00930   0.00074  -0.00000
   Se     1.93345   5.80036   6.05391   0.01906   0.00226  -0.00000
   Se     5.80036   1.93345   6.05391   0.01906   0.00226   0.00000
   Se     3.86691   3.86691   0.00000  -0.03997   0.00292  -0.00000
   Se     5.80036   5.80036   6.05391   0.01960  -0.00508   0.00000
   O      0.00000   1.93345   3.02696  -0.00565  -0.00025   0.00017
   O      0.00000   5.80036   9.08087  -0.00565  -0.00025   0.00017
   O      0.00000   5.80036   3.02696  -0.00565  -0.00025  -0.00017
   O      0.00000   1.93345   9.08087  -0.00565  -0.00025  -0.00017
   O      5.80036   0.00000   3.02696   0.00339   0.00041   0.00229
   O      1.93345   0.00000   9.08087   0.00339   0.00041   0.00229
   O      1.93345   0.00000   3.02696   0.00339   0.00041  -0.00229
   O      5.80036   0.00000   9.08087   0.00339   0.00041  -0.00229
   O      1.93345   3.86691   9.08087   0.00246   0.00004  -0.00566
   O      1.93345   3.86691   3.02696   0.00246   0.00004   0.00566
   O      3.86691   1.93345   3.02696  -0.00061  -0.00018  -0.00041
   O      3.86691   1.93345   9.08087  -0.00061  -0.00018   0.00041
   O      3.86691   5.80036   3.02696  -0.00061  -0.00018   0.00041
   O      3.86691   5.80036   9.08087  -0.00061  -0.00018  -0.00041
   O      5.80036   3.86691   9.08087   0.00246   0.00004   0.00566
   O      5.80036   3.86691   3.02696   0.00246   0.00004  -0.00566
PRIMCOORD   25
     40   1
   Bi     0.00000   0.00000   4.29699   0.00191   0.02614  -0.00000
   Bi     0.00000   0.00000   7.81084   0.00191   0.02614  -0.00000
   Bi     1.93345   1.93345  10.35090   0.01069  -0.01476   0.00025
   Bi     1.93345   1.93345   1.75692   0.01069  -0.01476  -0.00025
   Bi     0.00000   3.86691   4.29699   0.00027   0.00311   0.00000
   Bi     0.00000   3.86691   7.81084   0.00027   0.00311   0.00000
   Bi     3.86691   0.00000   4.29699   0.00023   0.00373   0.00000
   Bi     3.86691   0.00000   7.81084   0.00023   0.00373   0.00000
   Bi     1.93345   5.80036  10.35090  -0.01297  -0.01648  -0.00022
   Bi     1.93345   5.80036   1.75692  -0.01297  -0.01648   0.00022
   Bi     5.80036   1.93345  10.35090  -0.01297  -0.01648   0.00022
   Bi     5.80036   1.93345   1.75692  -0.01297  -0.01648  -0.00022
   Bi     3.86691   3.86691   4.29699   0.00208   0.02851  -0.00000
   Bi     3.86691   3.86691   7.81084   0.00208   0.02851  -0.00000
   Bi     5.80036   5.80036  10.35090   0.01069  -0.01476  -0.00025
   Bi     5.80036   5.80036   1.75692   0.01069  -0.01476   0.00025
   Se     0.00000   0.00000   0.00000  -0.00091  -0.01243   0.00000
   Se     1.93345   1.93345   6.05391  -0.00226   0.01906   0.00000
   Se     0.00000   3.86691   0.00000  -0.00074  -0.00930   0.00000
   Se     3.86691   0.00000   0.00000  -0.00068  -0.01008   0.00000
   Se     1.93345   5.80036   6.05391   0.00508   0.01960  -0.00000
   Se     5.80036   1.93345   6.05391   0.00508   0.01960   0.00000
   Se     3.86691   3.86691   0.00000  -0.00292  -0.03997  -0.00000
   Se     5.80036   5.80036   6.05391  -0.00226   0.01906   0.00000
   O      0.00000   1.93345   3.02696  -0.00041   0.00339  -0.00229
   O      0.00000   5.80036   9.08087  -0.00041   0.00339  -0.00229
   O      0.00000   5.80036   3.02696  -0.00041   0.00339   0.00229
   O      0.00000   1.93345   9.08087  -0.00041   0.00339   0.00229
   O      5.80036   0.00000   3.02696   0.00025  -0.00565   0.00017
   O      1.93345   0.00000   9.08087   0.00025  -0.00565   0.00017
   O      1.93345   0.00000   3.02696   0.00025  -0.00565  -0.00017
   O      5.80036   0.00000   9.08087   0.00025  -0.00565  -0.00017
   O      1.93345   3.86691   9.08087   0.00018  -0.00061  -0.00041
   O      1.93345   3.86691   3.02696   0.00018  -0.00061   0.00041
   O      3.86691   1.93345   3.02696  -0.00004   0.00246   0.00566
   O      3.86691   1.93345   9.08087  -0.00004   0.00246  -0.00566
   O      3.86691   5.80036   3.02696  -0.00004   0.00246  -0.00566
   O      3.86691   5.80036   9.08087  -0.00004   0.00246   0.00566
   O      5.80036   3.86691   9.08087   0.00018  -0.00061   0.00041
   O      5.80036   3.86691   3.02696   0.00018  -0.00061  -0.00041
PRIMCOORD   26
     40   1
   Bi     0.00000   0.00000   4.29699  -0.02292  -0.01264   0.00000
   Bi     0.00000   0.00000   7.81084   0.02292   0.01264   0.00000
   Bi     1.93345   1.93345  10.35090  -0.02097  -0.01139   0.00018
   Bi     1.93345   1.93345   1.75692   0.02097   0.01139   0.00018
   Bi     0.00000   3.86691   4.29699  -0.02197  -0.01227  -0.00000
   Bi     0.00000   3.86691   7.81084   0.02197   0.01227  -0.00000
   Bi     3.86691   0.00000   4.29699  -0.02224  -0.01212  -0.00000
   Bi     3.86691   0.00000   7.81084   0.02224   0.01212  -0.00000
   Bi     1.93345   5.80036  10.35090  -0.02123  -0.01188   0.00005
   Bi     1.93345   5.80036   1.75692   0.02123   0.01188   0.00005
   Bi     5.80036   1.93345  10.35090  -0.02123  -0.01188  -0.00005
   Bi     5.80036   1.93345   1.75692   0.02123   0.01188  -0.00005
   Bi     3.86691   3.86691   4.29699  -0.02224  -0.01227   0.00000
   Bi     3.86691   3.86691   7.81084   0.02224   0.01227   0.00000
   Bi     5.80036   5.80036  10.35090  -0.02097  -0.01139  -0.00018
   Bi     5.80036   5.80036   1.75692   0.02097   0.01139  -0.00018
   Se     0.00000   0.00000   0.00000   0.00000   0.00000  -0.00000
   Se     1.93345   1.93345   6.05391  -0.00000   0.00000   0.00434
   Se     0.00000   3.86691   0.00000   0.00000  -0.00000  -0.00000
   Se     3.86691   0.00000   0.00000   0.00000  -0.00000   0.00000
   Se     1.93345   5.80036   6.05391  -0.00000   0.00000   0.00125
   Se     5.80036   1.93345   6.05391  -0.00000   0.00000  -0.00125
   Se     3.86691   3.86691   0.00000   0.00000  -0.00000  -0.00000
   Se     5.80036   5.80036   6.05391  -0.00000   0.00000  -0.00434
   O      0.00000   1.93345   3.02696   0.00263  -0.00113   0.00012
   O      0.00000   5.80036   9.08087  -0.00263   0.00113  -0.00012
   O      0.00000   5.80036   3.02696   0.00263  -0.00113  -0.00012
   O      0.00000   1.93345   9.08087  -0.00263   0.00113   0.00012
   O      5.80036   0.00000   3.02696  -0.00204   0.00145  -0.00021
   O      1.93345   0.00000   9.08087   0.00204  -0.00145   0.00021
   O      1.93345   0.00000   3.02696  -0.00204   0.00145   0.00021
   O      5.80036   0.00000   9.08087   0.00204  -0.00145  -0.00021
   O      1.93345   3.86691   9.08087   0.00238  -0.00097  -0.00009
   O      1.93345   3.86691   3.02696  -0.00238   0.00097  -0.00009
   O      3.86691   1.93345   3.02696   0.00176  -0.00131  -0.00005
   O      3.86691   1.93345   9.08087  -0.00176   0.00131  -0.00005
   O      3.86691   5.80036   3.02696   0.00176  -0.00131   0.00005
   O      3.86691   5.80036   9.08087  -0.00176   0.00131   0.00005
   O      5.80036   3.86691   9.08087   0.00238  -0.00097   0.00009
   O      5.80036   3.86691   3.02696  -0.00238   0.00097   0.00009
PRIMCOORD   27
     40   1
   Bi     0.00000   0.00000   4.29699   0.01264  -0.02292  -0.00000
   Bi     0.00000   0.00000   7.81084  -0.01264   0.02292  -0.00000
   Bi     1.93345   1.93345  10.35090   0.01188  -0.02123   0.00005
   Bi     1.93345   1.93345   1.75692  -0.01188   0.02123   0.00005
   Bi     0.00000   3.86691   4.29699   0.01212  -0.02224   0.00000
   Bi     0.00000   3.86691   7.81084  -0.01212   0.02224  -0.00000
   Bi     3.86691   0.00000   4.29699   0.01227  -0.02197   0.00000
   Bi     3.86691   0.00000   7.81084  -0.01227   0.02197   0.00000
   Bi     1.93345   5.80036  10.35090   0.01139  -0.02097  -0.00018
   Bi     1.93345   5.80036   1.75692  -0.01139   0.02097  -0.00018
   Bi     5.80036   1.93345  10.35090   0.01139  -0.02097   0.00018
   Bi     5.80036   1.93345   1.75692  -0.01139   0.02097   0.00018
   Bi     3.86691   3.86691   4.29699   0.01227  -0.02224  -0.00000
   Bi     3.86691   3.86691   7.81084  -0.01227   0.02224  -0.00000
   Bi     5.80036   5.80036  10.35090   0.01188  -0.02123  -0.00005
   Bi     5.80036   5.80036   1.75692  -0.01188   0.02123  -0.00005
   Se     0.00000   0.00000   0.00000  -0.00000   0.00000   0.00000
   Se     1.93345   1.93345   6.05391   0.00000  -0.00000   0.00125
   Se     0.00000   3.86691   0.00000  -0.00000   0.00000  -0.00000
   Se     3.86691   0.00000   0.00000  -0.00000   0.00000   0.00000
   Se     1.93345   5.80036   6.05391  -0.00000  -0.00000  -0.00434
   Se     5.80036   1.93345   6.05391  -0.00000  -0.00000   0.00434
   Se     3.86691   3.86691   0.00000   0.00000   0.00000   0.00000
   Se     5.80036   5.80036   6.05391   0.00000  -0.00000  -0.00125
   O      0.00000   1.93345   3.02696  -0.00145  -0.00204   0.00021
   O      0.00000   5.80036   9.08087   0.00145   0.00204  -0.00021
   O      0.00000   5.80036   3.02696  -0.00145  -0.00204  -0.00021
   O      0.00000   1.93345   9.08087   0.00145   0.00204   0.00021
   O      5.80036   0.00000   3.02696   0.00113   0.00263   0.00012
   O      1.93345   0.00000   9.08087  -0.00113  -0.00263  -0.00012
   O      1.93345   0.00000   3.02696   0.00113   0.00263  -0.00012
   O      5.80036   0.00000   9.08087  -0.00113  -0.00263   0.00012
   O      1.93345   3.86691   9.08087  -0.00131  -0.00176   0.00005
   O      1.93345   3.86691   3.02696   0.00131   0.00176   0.00005
   O      3.86691   1.93345   3.02696  -0.00097  -0.00238  -0.00009
   O      3.86691   1.93345   9.08087   0.00097   0.00238  -0.00009
   O      3.86691   5.80036   3.02696  -0.00097  -0.00238   0.00009
   O      3.86691   5.80036   9.08087   0.00097   0.00238   0.00009
   O      5.80036   3.86691   9.08087  -0.00131  -0.00176  -0.00005
   O      5.80036   3.86691   3.02696   0.00131   0.00176  -0.00005
PRIMCOORD   28
     40   1
   Bi     0.00000   0.00000   4.29699  -0.00000  -0.00000   0.00000
   Bi     0.00000   0.00000   7.81084   0.00000  -0.00000   0.00000
   Bi     1.93345   1.93345  10.35090   0.02421   0.02421  -0.00169
   Bi     1.93345   1.93345   1.75692   0.02421   0.02421   0.00169
   Bi     0.00000   3.86691   4.29699  -0.00000  -0.00000  -0.00000
   Bi     0.00000   3.86691   7.81084   0.00000   0.00000  -0.00000
   Bi     3.86691   0.00000   4.29699  -0.00000   0.00000  -0.00000
   Bi     3.86691   0.00000   7.81084   0.00000   0.00000  -0.00000
   Bi     1.93345   5.80036  10.35090  -0.02421   0.02421   0.00169
   Bi     1.93345   5.80036   1.75692  -0.02421   0.02421  -0.00169
   Bi     5.80036   1.93345  10.35090   0.02421  -0.02421   0.00169
   Bi     5.80036   1.93345   1.75692   0.02421  -0.02421  -0.00169
   Bi     3.86691   3.86691   4.29699  -0.00000  -0.00000   0.00000
   Bi     3.86691   3.86691   7.81084   0.00000  -0.00000   0.00000
   Bi     5.80036   5.80036  10.35090  -0.02421  -0.02421  -0.00169
   Bi     5.80036   5.80036   1.75692  -0.02421  -0.02421   0.00169
   Se     0.00000   0.00000   0.00000  -0.00000   0.00000  -0.00000
   Se     1.93345   1.93345   6.05391  -0.00058  -0.00058  -0.00000
   Se     0.00000   3.86691   0.00000  -0.00000   0.00000   0.00000
   Se     3.86691   0.00000   0.00000  -0.00000   0.00000   0.00000
   Se     1.93345   5.80036   6.05391   0.00058  -0.00058   0.00000
   Se     5.80036   1.93345   6.05391  -0.00058   0.00058  -0.00000
   Se     3.86691   3.86691   0.00000   0.00000   0.00000   0.00000
   Se     5.80036   5.80036   6.05391   0.00058   0.00058   0.00000
   O      0.00000   1.93345   3.02696   0.00567  -0.00000   0.00000
   O      0.00000   5.80036   9.08087  -0.00567  -0.00000  -0.00000
   O      0.00000   5.80036   3.02696  -0.00567   0.00000  -0.00000
   O      0.00000   1.93345   9.08087   0.00567   0.00000   0.00000
   O      5.80036   0.00000   3.02696   0.00000  -0.00567   0.00000
   O      1.93345   0.00000   9.08087   0.00000   0.00567   0.00000
   O      1.93345   0.00000   3.02696  -0.00000   0.00567  -0.00000
   O      5.80036   0.00000   9.08087   0.00000  -0.00567   0.00000
   O      1.93345   3.86691   9.08087  -0.00000   0.00653   0.00000
   O      1.93345   3.86691   3.02696   0.00000   0.00653  -0.00000
   O      3.86691   1.93345   3.02696   0.00653   0.00000  -0.00000
   O      3.86691   1.93345   9.08087   0.00653  -0.00000   0.00000
   O      3.86691   5.80036   3.02696  -0.00653  -0.00000  -0.00000
   O      3.86691   5.80036   9.08087  -0.00653   0.00000   0.00000
   O      5.80036   3.86691   9.08087   0.00000  -0.00653   0.00000
   O      5.80036   3.86691   3.02696  -0.00000  -0.00653  -0.00000
PRIMCOORD   29
     40   1
   Bi     0.00000   0.00000   4.29699  -0.00000   0.00000   0.03354
   Bi     0.00000   0.00000   7.81084  -0.00000   0.00000   0.03354
   Bi     1.93345   1.93345  10.35090  -0.00008  -0.00008   0.00050
   Bi     1.93345   1.93345   1.75692   0.00008   0.00008   0.00050
   Bi     0.00000   3.86691   4.29699   0.00000  -0.00000  -0.03461
   Bi     0.00000   3.86691   7.81084  -0.00000  -0.00000  -0.03461
   Bi     3.86691   0.00000   4.29699   0.00000   0.00000  -0.03461
   Bi     3.86691   0.00000   7.81084  -0.00000  -0.00000  -0.03461
   Bi     1.93345   5.80036  10.35090  -0.00008   0.00008   0.00050
   Bi     1.93345   5.80036   1.75692   0.00008  -0.00008   0.00050
   Bi     5.80036   1.93345  10.35090   0.00008  -0.00008   0.00050
   Bi     5.80036   1.93345   1.75692  -0.00008   0.00008   0.00050
   Bi     3.86691   3.86691   4.29699  -0.00000   0.00000   0.03504
   Bi     3.86691   3.86691   7.81084  -0.00000   0.00000   0.03504
   Bi     5.80036   5.80036  10.35090   0.00008   0.00008   0.00050
   Bi     5.80036   5.80036   1.75692  -0.00008  -0.00008   0.00050
   Se     0.00000   0.00000   0.00000  -0.00000   0.00000  -0.00093
   Se     1.93345   1.93345   6.05391  -0.00000   0.00000  -0.00314
   Se     0.00000   3.86691   0.00000   0.00000  -0.00000   0.00706
   Se     3.86691   0.00000   0.00000   0.00000   0.00000   0.00706
   Se     1.93345   5.80036   6.05391  -0.00000   0.00000  -0.00314
   Se     5.80036   1.93345   6.05391  -0.00000   0.00000  -0.00314
   Se     3.86691   3.86691   0.00000   0.00000  -0.00000  -0.00745
   Se     5.80036   5.80036   6.05391  -0.00000   0.00000  -0.00314
   O      0.00000   1.93345   3.02696   0.00000  -0.00415  -0.00037
   O      0.00000   5.80036   9.08087   0.00000  -0.00415  -0.00037
   O      0.00000   5.80036   3.02696   0.00000   0.00415  -0.00037
   O      0.00000   1.93345   9.08087  -0.00000   0.00415  -0.00037
   O      5.80036   0.00000   3.02696   0.00415  -0.00000  -0.00037
   O      1.93345   0.00000   9.08087   0.00415  -0.00000  -0.00037
   O      1.93345   0.00000   3.02696  -0.00415  -0.00000  -0.00037
   O      5.80036   0.00000   9.08087  -0.00415  -0.00000  -0.00037
   O      1.93345   3.86691   9.08087  -0.00458  -0.00000   0.00012
   O      1.93345   3.86691   3.02696   0.00458   0.00000   0.00012
   O      3.86691   1.93345   3.02696  -0.00000   0.00458   0.00012
   O      3.86691   1.93345   9.08087  -0.00000  -0.00458   0.00012
   O      3.86691   5.80036   3.02696   0.00000  -0.00458   0.00012
   O      3.86691   5.80036   9.08087   0.00000   0.00458   0.00012
   O      5.80036   3.86691   9.08087   0.00458   0.00000   0.00012
   O      5.80036   3.86691   3.02696  -0.00458   0.00000   0.00012
PRIMCOORD   30
     40   1
   Bi     0.00000   0.00000   4.29699  -0.00000   0.00000  -0.00000
   Bi     0.00000   0.00000   7.81084  -0.00000  -0.00000   0.00000
   Bi     1.93345   1.93345  10.35090  -0.00243   0.00243   0.00000
   Bi     1.93345   1.93345   1.75692   0.00243  -0.00243   0.00000
   Bi     0.00000   3.86691   4.29699   0.00000   0.00000  -0.01694
   Bi     0.00000   3.86691   7.81084  -0.00000  -0.00000  -0.01694
   Bi     3.86691   0.00000   4.29699   0.00000  -0.00000   0.01694
   Bi     3.86691   0.00000   7.81084   0.00000   0.00000   0.01694
   Bi     1.93345   5.80036  10.35090  -0.00243  -0.00243   0.00000
   Bi     1.93345   5.80036   1.75692   0.00243   0.00243   0.00000
   Bi     5.80036   1.93345  10.35090   0.00243   0.00243  -0.00000
   Bi     5.80036   1.93345   1.75692  -0.00243  -0.00243  -0.00000
   Bi     3.86691   3.86691   4.29699  -0.00000   0.00000  -0.00000
   Bi     3.86691   3.86691   7.81084   0.00000  -0.00000  -0.00000
   Bi     5.80036   5.80036  10.35090   0.00243  -0.00243   0.00000
   Bi     5.80036   5.80036   1.75692  -0.00243   0.00243  -0.00000
   Se     0.00000   0.00000   0.00000   0.00000  -0.00000  -0.00000
   Se     1.93345   1.93345   6.05391   0.00000   0.00000  -0.00000
   Se     0.00000   3.86691   0.00000  -0.00000   0.00000   0.06417
   Se     3.86691   0.00000   0.00000  -0.00000  -0.00000  -0.06417
   Se     1.93345   5.80036   6.05391   0.00000  -0.00000  -0.00000
   Se     5.80036   1.93345   6.05391  -0.00000   0.00000   0.00000
   Se     3.86691   3.86691   0.00000   0.00000   0.00000   0.00000
   Se     5.80036   5.80036   6.05391  -0.00000   0.00000   0.00000
   O      0.00000   1.93345   3.02696  -0.00000  -0.00289  -0.00513
   O      0.00000   5.80036   9.08087   0.00000  -0.00289  -0.00513
   O      0.00000   5.80036   3.02696  -0.00000   0.00289  -0.00513
   O      0.00000   1.93345   9.08087   0.00000   0.00289  -0.00513
   O      5.80036   0.00000   3.02696  -0.00289   0.00000   0.00513
   O      1.93345   0.00000   9.08087  -0.00289  -0.00000   0.00513
   O      1.93345   0.00000   3.02696   0.00289   0.00000   0.00513
   O      5.80036   0.00000   9.08087   0.00289  -0.00000   0.00513
   O      1.93345   3.86691   9.08087  -0.00257   0.00000  -0.00489
   O      1.93345   3.86691   3.02696   0.00257  -0.00000  -0.00489
   O      3.86691   1.93345   3.02696   0.00000  -0.00257   0.00489
   O      3.86691   1.93345   9.08087  -0.00000   0.00257   0.00489
   O      3.86691   5.80036   3.02696   0.00000   0.00257   0.00489
   O      3.86691   5.80036   9.08087  -0.00000  -0.00257   0.00489
   O      5.80036   3.86691   9.08087   0.00257   0.00000  -0.00489
   O      5.80036   3.86691   3.02696  -0.00257  -0.00000  -0.00489
PRIMCOORD   31
     40   1
   Bi     0.00000   0.00000   4.29699  -0.00066  -0.00048  -0.00000
   Bi     0.00000   0.00000   7.81084   0.00066   0.00048   0.00000
   Bi     1.93345   1.93345  10.35090   0.00032   0.00079   0.00380
   Bi     1.93345   1.93345   1.75692  -0.00032  -0.00079   0.00380
   Bi     0.00000   3.86691   4.29699   0.00271  -0.00081   0.00000
   Bi     0.00000   3.86691   7.81084  -0.00271   0.00081   0.00000
   Bi     3.86691   0.00000   4.29699  -0.00112   0.00196  -0.00000
   Bi     3.86691   0.00000   7.81084   0.00112  -0.00196  -0.00000
   Bi     1.93345   5.80036  10.35090  -0.00137  -0.00155   0.00061
   Bi     1.93345   5.80036   1.75692   0.00137   0.00155   0.00061
   Bi     5.80036   1.93345  10.35090  -0.00137  -0.00155  -0.00061
   Bi     5.80036   1.93345   1.75692   0.00137   0.00155  -0.00061
   Bi     3.86691   3.86691   4.29699  -0.00261  -0.00189  -0.00000
   Bi     3.86691   3.86691   7.81084   0.00261   0.00189   0.00000
   Bi     5.80036   5.80036  10.35090   0.00032   0.00079  -0.00380
   Bi     5.80036   5.80036   1.75692  -0.00032  -0.00079  -0.00380
   Se     0.00000   0.00000   0.00000   0.00000   0.00000   0.00000
   Se     1.93345   1.93345   6.05391   0.00000   0.00000  -0.06899
   Se     0.00000   3.86691   0.00000  -0.00000  -0.00000  -0.00000
   Se     3.86691   0.00000   0.00000  -0.00000  -0.00000   0.00000
   Se     1.93345   5.80036   6.05391  -0.00000   0.00000  -0.01108
   Se     5.80036   1.93345   6.05391  -0.00000  -0.00000   0.01108
   Se     3.86691   3.86691   0.00000  -0.00000   0.00000  -0.00000
   Se     5.80036   5.80036   6.05391  -0.00000   0.00000   0.06899
   O      0.00000   1.93345   3.02696  -0.00124  -0.00040   0.00227
   O      0.00000   5.80036   9.08087   0.00124   0.00040  -0.00227
   O      0.00000   5.80036   3.02696  -0.00124  -0.00040  -0.00227
   O      0.00000   1.93345   9.08087   0.00124   0.00040   0.00227
   O      5.80036   0.00000   3.02696  -0.00055  -0.00089  -0.00314
   O      1.93345   0.00000   9.08087   0.00055   0.00089   0.00314
   O      1.93345   0.00000   3.02696  -0.00055  -0.00089   0.00314
   O      5.80036   0.00000   9.08087   0.00055   0.00089  -0.00314
   O      1.93345   3.86691   9.08087   0.00006  -0.00073   0.00220
   O      1.93345   3.86691   3.02696  -0.00006   0.00073   0.00220
   O      3.86691   1.93345   3.02696   0.00101  -0.00004   0.00159
   O      3.86691   1.93345   9.08087  -0.00101   0.00004   0.00159
   O      3.86691   5.80036   3.02696   0.00101  -0.00004  -0.00159
   O      3.86691   5.80036   9.08087  -0.00101   0.00004  -0.00159
   O      5.80036   3.86691   9.08087   0.00006  -0.00073  -0.00220
   O      5.80036   3.86691   3.02696  -0.00006   0.00073  -0.00220
PRIMCOORD   32
     40   1
   Bi     0.00000   0.00000   4.29699   0.00048  -0.00066  -0.00000
   Bi     0.00000   0.00000   7.81084  -0.00048   0.00066  -0.00000
   Bi     1.93345   1.93345  10.35090   0.00155  -0.00137   0.00061
   Bi     1.93345   1.93345   1.75692  -0.00155   0.00137   0.00061
   Bi     0.00000   3.86691   4.29699  -0.00196  -0.00112  -0.00000
   Bi     0.00000   3.86691   7.81084   0.00196   0.00112  -0.00000
   Bi     3.86691   0.00000   4.29699   0.00081   0.00271   0.00000
   Bi     3.86691   0.00000   7.81084  -0.00081  -0.00271   0.00000
   Bi     1.93345   5.80036  10.35090  -0.00079   0.00032  -0.00380
   Bi     1.93345   5.80036   1.75692   0.00079  -0.00032  -0.00380
   Bi     5.80036   1.93345  10.35090  -0.00079   0.00032   0.00380
   Bi     5.80036   1.93345   1.75692   0.00079  -0.00032   0.00380
   Bi     3.86691   3.86691   4.29699   0.00189  -0.00261  -0.00000
   Bi     3.86691   3.86691   7.81084  -0.00189   0.00261  -0.00000
   Bi     5.80036   5.80036  10.35090   0.00155  -0.00137  -0.00061
   Bi     5.80036   5.80036   1.75692  -0.00155   0.00137  -0.00061
   Se     0.00000   0.00000   0.00000  -0.00000  -0.00000  -0.00000
   Se     1.93345   1.93345   6.05391  -0.00000   0.00000  -0.01108
   Se     0.00000   3.86691   0.00000   0.00000  -0.00000   0.00000
   Se     3.86691   0.00000   0.00000   0.00000  -0.00000  -0.00000
   Se     1.93345   5.80036   6.05391  -0.00000   0.00000   0.06899
   Se     5.80036   1.93345   6.05391   0.00000   0.00000  -0.06899
   Se     3.86691   3.86691   0.00000   0.00000   0.00000   0.00000
   Se     5.80036   5.80036   6.05391   0.00000   0.00000   0.01108
   O      0.00000   1.93345   3.02696   0.00089  -0.00055   0.00314
   O      0.00000   5.80036   9.08087  -0.00089   0.00055  -0.00314
   O      0.00000   5.80036   3.02696   0.00089  -0.00055  -0.00314
   O      0.00000   1.93345   9.08087  -0.00089   0.00055   0.00314
   O      5.80036   0.00000   3.02696   0.00040  -0.00124   0.00227
   O      1.93345   0.00000   9.08087  -0.00040   0.00124  -0.00227
   O      1.93345   0.00000   3.02696   0.00040  -0.00124  -0.00227
   O      5.80036   0.00000   9.08087  -0.00040   0.00124   0.00227
   O      1.93345   3.86691   9.08087  -0.00004  -0.00101  -0.00159
   O      1.93345   3.86691   3.02696   0.00004   0.00101  -0.00159
   O      3.86691   1.93345   3.02696  -0.00073  -0.00006   0.00220
   O      3.86691   1.93345   9.08087   0.00073   0.00006   0.00220
   O      3.86691   5.80036   3.02696  -0.00073  -0.00006  -0.00220
   O      3.86691   5.80036   9.08087   0.00073   0.00006  -0.00220
   O      5.80036   3.86691   9.08087  -0.00004  -0.00101   0.00159
   O      5.80036   3.86691   3.02696   0.00004   0.00101   0.00159
PRIMCOORD   33
     40   1
   Bi     0.00000   0.00000   4.29699   0.00000  -0.00000   0.01576
   Bi     0.00000   0.00000   7.81084   0.00000   0.00000   0.01576
   Bi     1.93345   1.93345  10.35090   0.00150   0.00150   0.00014
   Bi     1.93345   1.93345   1.75692  -0.00150  -0.00150   0.00014
   Bi     0.00000   3.86691   4.29699  -0.00000   0.00000  -0.00095
   Bi     0.00000   3.86691   7.81084   0.00000  -0.00000  -0.00095
   Bi     3.86691   0.00000   4.29699  -0.00000  -0.00000  -0.00095
   Bi     3.86691   0.00000   7.81084   0.00000  -0.00000  -0.00095
   Bi     1.93345   5.80036  10.35090   0.00150  -0.00150   0.00014
   Bi     1.93345   5.80036   1.75692  -0.00150   0.00150   0.00014
   Bi     5.80036   1.93345  10.35090  -0.00150   0.00150   0.00014
   Bi     5.80036   1.93345   1.75692   0.00150  -0.00150   0.00014
   Bi     3.86691   3.86691   4.29699   0.00000   0.00000  -0.01472
   Bi     3.86691   3.86691   7.81084  -0.00000   0.00000  -0.01472
   Bi     5.80036   5.80036  10.35090  -0.00150  -0.00150   0.00014
   Bi     5.80036   5.80036   1.75692   0.00150   0.00150   0.00014
   Se     0.00000   0.00000   0.00000   0.00000  -0.00000  -0.06419
   Se     1.93345   1.93345   6.05391   0.00000  -0.00000  -0.00070
   Se     0.00000   3.86691   0.00000  -0.00000  -0.00000   0.00128
   Se     3.86691   0.00000   0.00000  -0.00000   0.00000   0.00128
   Se     1.93345   5.80036   6.05391   0.00000   0.00000  -0.00070
   Se     5.80036   1.93345   6.05391  -0.00000  -0.00000  -0.00070
   Se     3.86691   3.86691   0.00000  -0.00000   0.00000   0.06661
   Se     5.80036   5.80036   6.05391  -0.00000   0.00000  -0.00070
   O      0.00000   1.93345   3.02696   0.00000  -0.00216   0.00478
   O      0.00000   5.80036   9.08087   0.00000  -0.00216   0.00478
   O      0.00000   5.80036   3.02696  -0.00000   0.00216   0.00478
   O      0.00000   1.93345   9.08087  -0.00000   0.00216   0.00478
   O      5.80036   0.00000   3.02696   0.00216  -0.00000   0.00478
   O      1.93345   0.00000   9.08087   0.00216  -0.00000   0.00478
   O      1.93345   0.00000   3.02696  -0.00216   0.00000   0.00478
   O      5.80036   0.00000   9.08087  -0.00216   0.00000   0.00478
   O      1.93345   3.86691   9.08087   0.00210   0.00000  -0.00514
   O      1.93345   3.86691   3.02696  -0.00210  -0.00000  -0.00514
   O      3.86691   1.93345   3.02696  -0.00000  -0.00210  -0.00514
   O      3.86691   1.93345   9.08087   0.00000   0.00210  -0.00514
   O      3.86691   5.80036   3.02696   0.00000   0.00210  -0.00514
   O      3.86691   5.80036   9.08087  -0.00000  -0.00210  -0.00514
   O      5.80036   3.86691   9.08087  -0.00210  -0.00000  -0.00514
   O      5.80036   3.86691   3.02696   0.00210   0.00000  -0.00514
PRIMCOORD   34
     40   1
   Bi     0.00000   0.00000   4.29699  -0.00000   0.00000  -0.00000
   Bi     0.00000   0.00000   7.81084  -0.00000   0.00000  -0.00000
   Bi     1.93345   1.93345  10.35090   0.00105   0.00105  -0.03481
   Bi     1.93345   1.93345   1.75692  -0.00105  -0.00105  -0.03481
   Bi     0.00000   3.86691   4.29699  -0.00000  -0.00000   0.00000
   Bi     0.00000   3.86691   7.81084   0.00000  -0.00000   0.00000
   Bi     3.86691   0.00000   4.29699   0.00000   0.00000   0.00000
   Bi     3.86691   0.00000   7.81084   0.00000  -0.00000   0.00000
   Bi     1.93345   5.80036  10.35090  -0.00105   0.00105   0.03481
   Bi     1.93345   5.80036   1.75692   0.00105  -0.00105   0.03481
   Bi     5.80036   1.93345  10.35090   0.00105  -0.00105   0.03481
   Bi     5.80036   1.93345   1.75692  -0.00105   0.00105   0.03481
   Bi     3.86691   3.86691   4.29699   0.00000  -0.00000   0.00000
   Bi     3.86691   3.86691   7.81084  -0.00000   0.00000   0.00000
   Bi     5.80036   5.80036  10.35090  -0.00105  -0.00105  -0.03481
   Bi     5.80036   5.80036   1.75692   0.00105   0.00105  -0.03481
   Se     0.00000   0.00000   0.00000  -0.00000  -0.00000   0.00000
   Se     1.93345   1.93345   6.05391  -0.00000   0.00000   0.00588
   Se     0.00000   3.86691   0.00000   0.00000  -0.00000  -0.00000
   Se     3.86691   0.00000   0.00000   0.00000  -0.00000  -0.00000
   Se     1.93345   5.80036   6.05391  -0.00000   0.00000  -0.00588
   Se     5.80036   1.93345   6.05391   0.00000  -0.00000  -0.00588
   Se     3.86691   3.86691   0.00000  -0.00000   0.00000  -0.00000
   Se     5.80036   5.80036   6.05391   0.00000  -0.00000   0.00588
   O      0.00000   1.93345   3.02696   0.00278   0.00000  -0.00000
   O      0.00000   5.80036   9.08087   0.00278   0.00000  -0.00000
   O      0.00000   5.80036   3.02696  -0.00278  -0.00000  -0.00000
   O      0.00000   1.93345   9.08087  -0.00278  -0.00000  -0.00000
   O      5.80036   0.00000   3.02696  -0.00000  -0.00278  -0.00000
   O      1.93345   0.00000   9.08087  -0.00000  -0.00278  -0.00000
   O      1.93345   0.00000   3.02696   0.00000   0.00278  -0.00000
   O      5.80036   0.00000   9.08087   0.00000   0.00278  -0.00000
   O      1.93345   3.86691   9.08087  -0.00000   0.00327   0.00000
   O      1.93345   3.86691   3.02696   0.00000  -0.00327   0.00000
   O      3.86691   1.93345   3.02696  -0.00327   0.00000   0.00000
   O      3.86691   1.93345   9.08087   0.00327  -0.00000   0.00000
   O      3.86691   5.80036   3.02696   0.00327  -0.00000   0.00000
   O      3.86691   5.80036   9.08087  -0.00327   0.00000   0.00000
   O      5.80036   3.86691   9.08087   0.00000  -0.00327   0.00000
   O      5.80036   3.86691   3.02696  -0.00000   0.00327   0.00000
PRIMCOORD   35
     40   1
   Bi     0.00000   0.00000   4.29699   0.00478  -0.00379  -0.00000
   Bi     0.00000   0.00000   7.81084   0.00478  -0.00379   0.00000
   Bi     1.93345   1.93345  10.35090   0.00142  -0.00081   0.00239
   Bi     1.93345   1.93345   1.75692   0.00142  -0.00081  -0.00239
   Bi     0.00000   3.86691   4.29699   0.00382   0.00776  -0.00000
   Bi     0.00000   3.86691   7.81084   0.00382   0.00776   0.00000
   Bi     3.86691   0.00000   4.29699  -0.00979  -0.00303  -0.00000
   Bi     3.86691   0.00000   7.81084  -0.00979  -0.00303   0.00000
   Bi     1.93345   5.80036  10.35090   0.00275  -0.00249   0.02063
   Bi     1.93345   5.80036   1.75692   0.00275  -0.00249  -0.02063
   Bi     5.80036   1.93345  10.35090   0.00275  -0.00249  -0.02063
   Bi     5.80036   1.93345   1.75692   0.00275  -0.00249   0.02063
   Bi     3.86691   3.86691   4.29699  -0.00643   0.00509  -0.00000
   Bi     3.86691   3.86691   7.81084  -0.00643   0.00509   0.00000
   Bi     5.80036   5.80036  10.35090   0.00142  -0.00081  -0.00239
   Bi     5.80036   5.80036   1.75692   0.00142  -0.00081   0.00239
   Se     0.00000   0.00000   0.00000   0.04986  -0.03950   0.00000
   Se     1.93345   1.93345   6.05391  -0.00602   0.00581   0.00000
   Se     0.00000   3.86691   0.00000   0.00186  -0.00195   0.00000
   Se     3.86691   0.00000   0.00000   0.00247  -0.00147  -0.00000
   Se     1.93345   5.80036   6.05391  -0.00156   0.00019  -0.00000
   Se     5.80036   1.93345   6.05391  -0.00156   0.00019   0.00000
   Se     3.86691   3.86691   0.00000  -0.04471   0.03542  -0.00000
   Se     5.80036   5.80036   6.05391  -0.00602   0.00581  -0.00000
   O      0.00000   1.93345   3.02696  -0.00187  -0.00174   0.00053
   O      0.00000   5.80036   9.08087  -0.00187  -0.00174   0.00053
   O      0.00000   5.80036   3.02696  -0.00187  -0.00174  -0.00053
   O      0.00000   1.93345   9.08087  -0.00187  -0.00174  -0.00053
   O      5.80036   0.00000   3.02696   0.00219   0.00148   0.00067
   O      1.93345   0.00000   9.08087   0.00219   0.00148   0.00067
   O      1.93345   0.00000   3.02696   0.00219   0.00148  -0.00067
   O      5.80036   0.00000   9.08087   0.00219   0.00148  -0.00067
   O      1.93345   3.86691   9.08087  -0.00125  -0.00257  -0.00260
   O      1.93345   3.86691   3.02696  -0.00125  -0.00257   0.00260
   O      3.86691   1.93345   3.02696   0.00324   0.00099  -0.00206
   O      3.86691   1.93345   9.08087   0.00324   0.00099   0.00206
   O      3.86691   5.80036   3.02696   0.00324   0.00099   0.00206
   O      3.86691   5.80036   9.08087   0.00324   0.00099  -0.00206
   O      5.80036   3.86691   9.08087  -0.00125  -0.00257   0.00260
   O      5.80036   3.86691   3.02696  -0.00125  -0.00257  -0.00260
PRIMCOORD   36
     40   1
   Bi     0.00000   0.00000   4.29699  -0.00379  -0.00478   0.00000
   Bi     0.00000   0.00000   7.81084  -0.00379  -0.00478  -0.00000
   Bi     1.93345   1.93345  10.35090  -0.00249  -0.00275  -0.02063
   Bi     1.93345   1.93345   1.75692  -0.00249  -0.00275   0.02063
   Bi     0.00000   3.86691   4.29699  -0.00303   0.00979   0.00000
   Bi     0.00000   3.86691   7.81084  -0.00303   0.00979  -0.00000
   Bi     3.86691   0.00000   4.29699   0.00776  -0.00382   0.00000
   Bi     3.86691   0.00000   7.81084   0.00776  -0.00382  -0.00000
   Bi     1.93345   5.80036  10.35090  -0.00081  -0.00142   0.00239
   Bi     1.93345   5.80036   1.75692  -0.00081  -0.00142  -0.00239
   Bi     5.80036   1.93345  10.35090  -0.00081  -0.00142  -0.00239
   Bi     5.80036   1.93345   1.75692  -0.00081  -0.00142   0.00239
   Bi     3.86691   3.86691   4.29699   0.00509   0.00643   0.00000
   Bi     3.86691   3.86691   7.81084   0.00509   0.00643  -0.00000
   Bi     5.80036   5.80036  10.35090  -0.00249  -0.00275   0.02063
   Bi     5.80036   5.80036   1.75692  -0.00249  -0.00275  -0.02063
   Se     0.00000   0.00000   0.00000  -0.03950  -0.04986  -0.00000
   Se     1.93345   1.93345   6.05391   0.00019   0.00156  -0.00000
   Se     0.00000   3.86691   0.00000  -0.00147  -0.00247  -0.00000
   Se     3.86691   0.00000   0.00000  -0.00195  -0.00186   0.00000
   Se     1.93345   5.80036   6.05391   0.00581   0.00602  -0.00000
   Se     5.80036   1.93345   6.05391   0.00581   0.00602   0.00000
   Se     3.86691   3.86691   0.00000   0.03542   0.04471   0.00000
   Se     5.80036   5.80036   6.05391   0.00019   0.00156   0.00000
   O      0.00000   1.93345   3.02696   0.00148  -0.00219   0.00067
   O      0.00000   5.80036   9.08087   0.00148  -0.00219   0.00067
   O      0.00000   5.80036   3.02696   0.00148  -0.00219  -0.00067
   O      0.00000   1.93345   9.08087   0.00148  -0.00219  -0.00067
   O      5.80036   0.00000   3.02696  -0.00174   0.00187  -0.00053
   O      1.93345   0.00000   9.08087  -0.00174   0.00187  -0.00053
   O      1.93345   0.00000   3.02696  -0.00174   0.00187   0.00053
   O      5.80036   0.00000   9.08087  -0.00174   0.00187   0.00053
   O      1.93345   3.86691   9.08087   0.00099  -0.00324   0.00206
   O      1.93345   3.86691   3.02696   0.00099  -0.00324  -0.00206
   O      3.86691   1.93345   3.02696  -0.00257   0.00125  -0.00260
   O      3.86691   1.93345   9.08087  -0.00257   0.00125   0.00260
   O      3.86691   5.80036   3.02696  -0.00257   0.00125   0.00260
   O      3.86691   5.80036   9.08087  -0.00257   0.00125  -0.00260
   O      5.80036   3.86691   9.08087   0.00099  -0.00324  -0.00206
   O      5.80036   3.86691   3.02696   0.00099  -0.00324   0.00206
PRIMCOORD   37
     40   1
   Bi     0.00000   0.00000   4.29699  -0.00000   0.00000   0.01544
   Bi     0.00000   0.00000   7.81084   0.00000   0.00000  -0.01544
   Bi     1.93345   1.93345  10.35090   0.00058   0.00058  -0.01795
   Bi     1.93345   1.93345   1.75692   0.00058   0.00058   0.01795
   Bi     0.00000   3.86691   4.29699   0.00000  -0.00000   0.01881
   Bi     0.00000   3.86691   7.81084  -0.00000  -0.00000  -0.01881
   Bi     3.86691   0.00000   4.29699   0.00000   0.00000   0.01881
   Bi     3.86691   0.00000   7.81084  -0.00000   0.00000  -0.01881
   Bi     1.93345   5.80036  10.35090   0.00058  -0.00058  -0.01795
   Bi     1.93345   5.80036   1.75692   0.00058  -0.00058   0.01795
   Bi     5.80036   1.93345  10.35090  -0.00058   0.00058  -0.01795
   Bi     5.80036   1.93345   1.75692  -0.00058   0.00058   0.01795
   Bi     3.86691   3.86691   4.29699  -0.00000  -0.00000   0.01821
   Bi     3.86691   3.86691   7.81084   0.00000  -0.00000  -0.01821
   Bi     5.80036   5.80036  10.35090  -0.00058  -0.00058  -0.01795
   Bi     5.80036   5.80036   1.75692  -0.00058  -0.00058   0.01795
   Se     0.00000   0.00000   0.00000   0.00000   0.00000  -0.00000
   Se     1.93345   1.93345   6.05391  -0.00132  -0.00132   0.00000
   Se     0.00000   3.86691   0.00000   0.00000   0.00000   0.00000
   Se     3.86691   0.00000   0.00000   0.00000   0.00000  -0.00000
   Se     1.93345   5.80036   6.05391  -0.00132   0.00132   0.00000
   Se     5.80036   1.93345   6.05391   0.00132  -0.00132  -0.00000
   Se     3.86691   3.86691   0.00000  -0.00000  -0.00000   0.00000
   Se     5.80036   5.80036   6.05391   0.00132   0.00132  -0.00000
   O      0.00000   1.93345   3.02696  -0.00000   0.00086   0.01676
   O      0.00000   5.80036   9.08087  -0.00000  -0.00086  -0.01676
   O      0.00000   5.80036   3.02696  -0.00000  -0.00086   0.01676
   O      0.00000   1.93345   9.08087  -0.00000   0.00086  -0.01676
   O      5.80036   0.00000   3.02696  -0.00086  -0.00000   0.01676
   O      1.93345   0.00000   9.08087   0.00086  -0.00000  -0.01676
   O      1.93345   0.00000   3.02696   0.00086  -0.00000   0.01676
   O      5.80036   0.00000   9.08087  -0.00086  -0.00000  -0.01676
   O      1.93345   3.86691   9.08087   0.00052   0.00000  -0.01800
   O      1.93345   3.86691   3.02696   0.00052   0.00000   0.01800
   O      3.86691   1.93345   3.02696   0.00000   0.00052   0.01800
   O      3.86691   1.93345   9.08087   0.00000   0.00052  -0.01800
   O      3.86691   5.80036   3.02696   0.00000  -0.00052   0.01800
   O      3.86691   5.80036   9.08087   0.00000  -0.00052  -0.01800
   O      5.80036   3.86691   9.08087  -0.00052   0.00000  -0.01800
   O      5.80036   3.86691   3.02696  -0.00052   0.00000   0.01800
PRIMCOORD   38
     40   1
   Bi     0.00000   0.00000   4.29699   0.00000  -0.00000   0.00000
   Bi     0.00000   0.00000   7.81084  -0.00000   0.00000  -0.00000
   Bi     1.93345   1.93345  10.35090   0.01084  -0.01084  -0.00000
   Bi     1.93345   1.93345   1.75692   0.01084  -0.01084   0.00000
   Bi     0.00000   3.86691   4.29699  -0.00000   0.00000  -0.03907
   Bi     0.00000   3.86691   7.81084   0.00000  -0.00000   0.03907
   Bi     3.86691   0.00000   4.29699  -0.00000   0.00000   0.03907
   Bi     3.86691   0.00000   7.81084   0.00000  -0.00000  -0.03907
   Bi     1.93345   5.80036  10.35090   0.01084   0.01084  -0.00000
   Bi     1.93345   5.80036   1.75692   0.01084   0.01084   0.00000
   Bi     5.80036   1.93345  10.35090  -0.01084  -0.01084  -0.00000
   Bi     5.80036   1.93345   1.75692  -0.01084  -0.01084   0.00000
   Bi     3.86691   3.86691   4.29699   0.00000  -0.00000   0.00000
   Bi     3.86691   3.86691   7.81084  -0.00000   0.00000  -0.00000
   Bi     5.80036   5.80036  10.35090  -0.01084   0.01084  -0.00000
   Bi     5.80036   5.80036   1.75692  -0.01084   0.01084   0.00000
   Se     0.00000   0.00000   0.00000  -0.00000   0.00000   0.00000
   Se     1.93345   1.93345   6.05391   0.01147  -0.01147  -0.00000
   Se     0.00000   3.86691   0.00000  -0.00000   0.00000  -0.00000
   Se     3.86691   0.00000   0.00000   0.00000  -0.00000   0.00000
   Se     1.93345   5.80036   6.05391   0.01147   0.01147   0.00000
   Se     5.80036   1.93345   6.05391  -0.01147  -0.01147  -0.00000
   Se     3.86691   3.86691   0.00000   0.00000  -0.00000  -0.00000
   Se     5.80036   5.80036   6.05391  -0.01147   0.01147   0.00000
   O      0.00000   1.93345   3.02696   0.00000  -0.00188  -0.00777
   O      0.00000   5.80036   9.08087   0.00000   0.00188   0.00777
   O      0.00000   5.80036   3.02696   0.00000   0.00188  -0.00777
   O      0.00000   1.93345   9.08087   0.00000  -0.00188   0.00777
   O      5.80036   0.00000   3.02696  -0.00188  -0.00000   0.00777
   O      1.93345   0.00000   9.08087   0.00188  -0.00000  -0.00777
   O      1.93345   0.00000   3.02696   0.00188  -0.00000   0.00777
   O      5.80036   0.00000   9.08087  -0.00188  -0.00000  -0.00777
   O      1.93345   3.86691   9.08087   0.00166   0.00000   0.00734
   O      1.93345   3.86691   3.02696   0.00166   0.00000  -0.00734
   O      3.86691   1.93345   3.02696  -0.00000  -0.00166   0.00734
   O      3.86691   1.93345   9.08087  -0.00000  -0.00166  -0.00734
   O      3.86691   5.80036   3.02696  -0.00000   0.00166   0.00734
   O      3.86691   5.80036   9.08087  -0.00000   0.00166  -0.00734
   O      5.80036   3.86691   9.08087  -0.00166   0.00000   0.00734
   O      5.80036   3.86691   3.02696  -0.00166   0.00000  -0.00734
PRIMCOORD   39
     40   1
   Bi     0.00000   0.00000   4.29699   0.02097  -0.00001   0.00000
   Bi     0.00000   0.00000   7.81084  -0.02097   0.00001  -0.00000
   Bi     1.93345   1.93345  10.35090   0.00115  -0.02356   0.00094
   Bi     1.93345   1.93345   1.75692  -0.00115   0.02356   0.00094
   Bi     0.00000   3.86691   4.29699  -0.02553   0.00002   0.00000
   Bi     0.00000   3.86691   7.81084   0.02553  -0.00002  -0.00000
   Bi     3.86691   0.00000   4.29699  -0.02485   0.00002   0.00000
   Bi     3.86691   0.00000   7.81084   0.02485  -0.00002  -0.00000
   Bi     1.93345   5.80036  10.35090   0.00112   0.02356   0.00094
   Bi     1.93345   5.80036   1.75692  -0.00112  -0.02356   0.00094
   Bi     5.80036   1.93345  10.35090   0.00112   0.02356  -0.00094
   Bi     5.80036   1.93345   1.75692  -0.00112  -0.02356  -0.00094
   Bi     3.86691   3.86691   4.29699   0.02246  -0.00001   0.00000
   Bi     3.86691   3.86691   7.81084  -0.02246   0.00001  -0.00000
   Bi     5.80036   5.80036  10.35090   0.00115  -0.02356  -0.00094
   Bi     5.80036   5.80036   1.75692  -0.00115   0.02356  -0.00094
   Se     0.00000   0.00000   0.00000  -0.00000   0.00000   0.00000
   Se     1.93345   1.93345   6.05391  -0.00000   0.00000  -0.00723
   Se     0.00000   3.86691   0.00000  -0.00000  -0.00000  -0.00000
   Se     3.86691   0.00000   0.00000   0.00000  -0.00000   0.00000
   Se     1.93345   5.80036   6.05391  -0.00000  -0.00000  -0.00724
   Se     5.80036   1.93345   6.05391   0.00000   0.00000   0.00724
   Se     3.86691   3.86691   0.00000   0.00000  -0.00000  -0.00000
   Se     5.80036   5.80036   6.05391   0.00000  -0.00000   0.00723
   O      0.00000   1.93345   3.02696   0.00090  -0.00000   0.00001
   O      0.00000   5.80036   9.08087  -0.00090   0.00000  -0.00001
   O      0.00000   5.80036   3.02696   0.00090  -0.00000  -0.00001
   O      0.00000   1.93345   9.08087  -0.00090   0.00000   0.00001
   O      5.80036   0.00000   3.02696   0.00055  -0.00000   0.00962
   O      1.93345   0.00000   9.08087  -0.00055   0.00000  -0.00962
   O      1.93345   0.00000   3.02696   0.00055  -0.00000  -0.00962
   O      5.80036   0.00000   9.08087  -0.00055   0.00000   0.00962
   O      1.93345   3.86691   9.08087  -0.00101   0.00000   0.01128
   O      1.93345   3.86691   3.02696   0.00101  -0.00000   0.01128
   O      3.86691   1.93345   3.02696   0.00206  -0.00000  -0.00001
   O      3.86691   1.93345   9.08087  -0.00206   0.00000  -0.00001
   O      3.86691   5.80036   3.02696   0.00206  -0.00000   0.00001
   O      3.86691   5.80036   9.08087  -0.00206   0.00000   0.00001
   O      5.80036   3.86691   9.08087  -0.00101   0.00000  -0.01128
   O      5.80036   3.86691   3.02696   0.00101  -0.00000  -0.01128
PRIMCOORD   40
     40   1
   Bi     0.00000   0.00000   4.29699   0.00001   0.02097   0.00000
   Bi     0.00000   0.00000   7.81084  -0.00001  -0.02097  -0.00000
   Bi     1.93345   1.93345  10.35090  -0.02356   0.00112   0.00094
   Bi     1.93345   1.93345   1.75692   0.02356  -0.00112   0.00094
   Bi     0.00000   3.86691   4.29699  -0.00002  -0.02485  -0.00000
   Bi     0.00000   3.86691   7.81084   0.00002   0.02485   0.00000
   Bi     3.86691   0.00000   4.29699  -0.00002  -0.02553   0.00000
   Bi     3.86691   0.00000   7.81084   0.00002   0.02553  -0.00000
   Bi     1.93345   5.80036  10.35090   0.02356   0.00115  -0.00094
   Bi     1.93345   5.80036   1.75692  -0.02356  -0.00115  -0.00094
   Bi     5.80036   1.93345  10.35090   0.02356   0.00115   0.00094
   Bi     5.80036   1.93345   1.75692  -0.02356  -0.00115   0.00094
   Bi     3.86691   3.86691   4.29699   0.00001   0.02246  -0.00000
   Bi     3.86691   3.86691   7.81084  -0.00001  -0.02246   0.00000
   Bi     5.80036   5.80036  10.35090  -0.02356   0.00112  -0.00094
   Bi     5.80036   5.80036   1.75692   0.02356  -0.00112  -0.00094
   Se     0.00000   0.00000   0.00000  -0.00000   0.00000  -0.00000
   Se     1.93345   1.93345   6.05391   0.00000  -0.00000  -0.00724
   Se     0.00000   3.86691   0.00000   0.00000   0.00000  -0.00000
   Se     3.86691   0.00000   0.00000  -0.00000  -0.00000   0.00000
   Se     1.93345   5.80036   6.05391   0.00000   0.00000   0.00723
   Se     5.80036   1.93345   6.05391   0.00000  -0.00000  -0.00723
   Se     3.86691   3.86691   0.00000   0.00000  -0.00000   0.00000
   Se     5.80036   5.80036   6.05391  -0.00000   0.00000   0.00724
   O      0.00000   1.93345   3.02696   0.00000   0.00055  -0.00962
   O      0.00000   5.80036   9.08087  -0.00000  -0.00055   0.00962
   O      0.00000   5.80036   3.02696   0.00000   0.00055   0.00962
   O      0.00000   1.93345   9.08087  -0.00000  -0.00055  -0.00962
   O      5.80036   0.00000   3.02696   0.00000   0.00090   0.00001
   O      1.93345   0.00000   9.08087  -0.00000  -0.00090  -0.00001
   O      1.93345   0.00000   3.02696   0.00000   0.00090  -0.00001
   O      5.80036   0.00000   9.08087  -0.00000  -0.00090   0.00001
   O      1.93345   3.86691   9.08087  -0.00000  -0.00206   0.00001
   O      1.93345   3.86691   3.02696   0.00000   0.00206   0.00001
   O      3.86691   1.93345   3.02696   0.00000   0.00101   0.01128
   O      3.86691   1.93345   9.08087  -0.00000  -0.00101   0.01128
   O      3.86691   5.80036   3.02696   0.00000   0.00101  -0.01128
   O      3.86691   5.80036   9.08087  -0.00000  -0.00101  -0.01128
   O      5.80036   3.86691   9.08087  -0.00000  -0.00206  -0.00001
   O      5.80036   3.86691   3.02696   0.00000   0.00206  -0.00001
PRIMCOORD   41
     40   1
   Bi     0.00000   0.00000   4.29699  -0.01073   0.00003   0.00000
   Bi     0.00000   0.00000   7.81084  -0.01073   0.00003  -0.00000
   Bi     1.93345   1.93345  10.35090  -0.00058  -0.00435  -0.01243
   Bi     1.93345   1.93345   1.75692  -0.00058  -0.00435   0.01243
   Bi     0.00000   3.86691   4.29699  -0.00315  -0.00003   0.00000
   Bi     0.00000   3.86691   7.81084  -0.00315  -0.00003  -0.00000
   Bi     3.86691   0.00000   4.29699   0.01247   0.00001  -0.00000
   Bi     3.86691   0.00000   7.81084   0.01247   0.00001   0.00000
   Bi     1.93345   5.80036  10.35090  -0.00060   0.00435  -0.01250
   Bi     1.93345   5.80036   1.75692  -0.00060   0.00435   0.01250
   Bi     5.80036   1.93345  10.35090  -0.00060   0.00435   0.01250
   Bi     5.80036   1.93345   1.75692  -0.00060   0.00435  -0.01250
   Bi     3.86691   3.86691   4.29699   0.00401  -0.00001  -0.00000
   Bi     3.86691   3.86691   7.81084   0.00401  -0.00001   0.00000
   Bi     5.80036   5.80036  10.35090  -0.00058  -0.00435   0.01243
   Bi     5.80036   5.80036   1.75692  -0.00058  -0.00435  -0.01243
   Se     0.00000   0.00000   0.00000   0.03628  -0.00010  -0.00000
   Se     1.93345   1.93345   6.05391   0.00015  -0.00551   0.00000
   Se     0.00000   3.86691   0.00000  -0.02796  -0.00012  -0.00000
   Se     3.86691   0.00000   0.00000   0.04524   0.00008   0.00000
   Se     1.93345   5.80036   6.05391   0.00012   0.00550   0.00000
   Se     5.80036   1.93345   6.05391   0.00012   0.00550   0.00000
   Se     3.86691   3.86691   0.00000  -0.05434   0.00015   0.00000
   Se     5.80036   5.80036   6.05391   0.00015  -0.00551   0.00000
   O      0.00000   1.93345   3.02696  -0.00458  -0.00001  -0.00003
   O      0.00000   5.80036   9.08087  -0.00458  -0.00001  -0.00003
   O      0.00000   5.80036   3.02696  -0.00458  -0.00001   0.00003
   O      0.00000   1.93345   9.08087  -0.00458  -0.00001   0.00003
   O      5.80036   0.00000   3.02696   0.00205   0.00001  -0.01134
   O      1.93345   0.00000   9.08087   0.00205   0.00001  -0.01134
   O      1.93345   0.00000   3.02696   0.00205   0.00001   0.01134
   O      5.80036   0.00000   9.08087   0.00205   0.00001   0.01134
   O      1.93345   3.86691   9.08087  -0.00265  -0.00001  -0.00456
   O      1.93345   3.86691   3.02696  -0.00265  -0.00001   0.00456
   O      3.86691   1.93345   3.02696   0.00398   0.00001  -0.00001
   O      3.86691   1.93345   9.08087   0.00398   0.00001   0.00001
   O      3.86691   5.80036   3.02696   0.00398   0.00001   0.00001
   O      3.86691   5.80036   9.08087   0.00398   0.00001  -0.00001
   O      5.80036   3.86691   9.08087  -0.00265  -0.00001   0.00456
   O      5.80036   3.86691   3.02696  -0.00265  -0.00001  -0.00456
PRIMCOORD   42
     40   1
   Bi     0.00000   0.00000   4.29699   0.00003   0.01073   0.00000
   Bi     0.00000   0.00000   7.81084   0.00003   0.01073  -0.00000
   Bi     1.93345   1.93345  10.35090   0.00435   0.00060   0.01250
   Bi     1.93345   1.93345   1.75692   0.00435   0.00060  -0.01250
   Bi     0.00000   3.86691   4.29699   0.00001  -0.01247  -0.00000
   Bi     0.00000   3.86691   7.81084   0.00001  -0.01247   0.00000
   Bi     3.86691   0.00000   4.29699  -0.00003   0.00315   0.00000
   Bi     3.86691   0.00000   7.81084  -0.00003   0.00315  -0.00000
   Bi     1.93345   5.80036  10.35090  -0.00435   0.00058  -0.01243
   Bi     1.93345   5.80036   1.75692  -0.00435   0.00058   0.01243
   Bi     5.80036   1.93345  10.35090  -0.00435   0.00058   0.01243
   Bi     5.80036   1.93345   1.75692  -0.00435   0.00058  -0.01243
   Bi     3.86691   3.86691   4.29699  -0.00001  -0.00401  -0.00000
   Bi     3.86691   3.86691   7.81084  -0.00001  -0.00401   0.00000
   Bi     5.80036   5.80036  10.35090   0.00435   0.00060  -0.01250
   Bi     5.80036   5.80036   1.75692   0.00435   0.00060   0.01250
   Se     0.00000   0.00000   0.00000  -0.00010  -0.03628   0.00000
   Se     1.93345   1.93345   6.05391   0.00550  -0.00012  -0.00000
   Se     0.00000   3.86691   0.00000   0.00008  -0.04524   0.00000
   Se     3.86691   0.00000   0.00000  -0.00012   0.02796  -0.00000
   Se     1.93345   5.80036   6.05391  -0.00551  -0.00015   0.00000
   Se     5.80036   1.93345   6.05391  -0.00551  -0.00015   0.00000
   Se     3.86691   3.86691   0.00000   0.00015   0.05434  -0.00000
   Se     5.80036   5.80036   6.05391   0.00550  -0.00012  -0.00000
   O      0.00000   1.93345   3.02696   0.00001  -0.00205  -0.01134
   O      0.00000   5.80036   9.08087   0.00001  -0.00205  -0.01134
   O      0.00000   5.80036   3.02696   0.00001  -0.00205   0.01134
   O      0.00000   1.93345   9.08087   0.00001  -0.00205   0.01134
   O      5.80036   0.00000   3.02696  -0.00001   0.00458   0.00003
   O      1.93345   0.00000   9.08087  -0.00001   0.00458   0.00003
   O      1.93345   0.00000   3.02696  -0.00001   0.00458  -0.00003
   O      5.80036   0.00000   9.08087  -0.00001   0.00458  -0.00003
   O      1.93345   3.86691   9.08087   0.00001  -0.00398   0.00001
   O      1.93345   3.86691   3.02696   0.00001  -0.00398  -0.00001
   O      3.86691   1.93345   3.02696  -0.00001   0.00265  -0.00456
   O      3.86691   1.93345   9.08087  -0.00001   0.00265   0.00456
   O      3.86691   5.80036   3.02696  -0.00001   0.00265   0.00456
   O      3.86691   5.80036   9.08087  -0.00001   0.00265  -0.00456
   O      5.80036   3.86691   9.08087   0.00001  -0.00398  -0.00001
   O      5.80036   3.86691   3.02696   0.00001  -0.00398   0.00001
PRIMCOORD   43
     40   1
   Bi     0.00000   0.00000   4.29699   0.00000  -0.00000   0.03925
   Bi     0.00000   0.00000   7.81084   0.00000  -0.00000  -0.03925
   Bi     1.93345   1.93345  10.35090  -0.01128  -0.01128  -0.00107
   Bi     1.93345   1.93345   1.75692  -0.01128  -0.01128   0.00107
   Bi     0.00000   3.86691   4.29699   0.00000   0.00000   0.00127
   Bi     0.00000   3.86691   7.81084  -0.00000   0.00000  -0.00127
   Bi     3.86691   0.00000   4.29699  -0.00000   0.00000   0.00127
   Bi     3.86691   0.00000   7.81084  -0.00000   0.00000  -0.00127
   Bi     1.93345   5.80036  10.35090  -0.01128   0.01128  -0.00107
   Bi     1.93345   5.80036   1.75692  -0.01128   0.01128   0.00107
   Bi     5.80036   1.93345  10.35090   0.01128  -0.01128  -0.00107
   Bi     5.80036   1.93345   1.75692   0.01128  -0.01128   0.00107
   Bi     3.86691   3.86691   4.29699  -0.00000   0.00000  -0.03769
   Bi     3.86691   3.86691   7.81084   0.00000   0.00000   0.03769
   Bi     5.80036   5.80036  10.35090   0.01128   0.01128  -0.00107
   Bi     5.80036   5.80036   1.75692   0.01128   0.01128   0.00107
   Se     0.00000   0.00000   0.00000  -0.00000  -0.00000  -0.00000
   Se     1.93345   1.93345   6.05391  -0.00209  -0.00209   0.00000
   Se     0.00000   3.86691   0.00000   0.00000   0.00000   0.00000
   Se     3.86691   0.00000   0.00000  -0.00000   0.00000   0.00000
   Se     1.93345   5.80036   6.05391  -0.00209   0.00209   0.00000
   Se     5.80036   1.93345   6.05391   0.00209  -0.00209   0.00000
   Se     3.86691   3.86691   0.00000   0.00000  -0.00000   0.00000
   Se     5.80036   5.80036   6.05391   0.00209   0.00209   0.00000
   O      0.00000   1.93345   3.02696   0.00000  -0.00396   0.01132
   O      0.00000   5.80036   9.08087   0.00000   0.00396  -0.01132
   O      0.00000   5.80036   3.02696   0.00000   0.00396   0.01132
   O      0.00000   1.93345   9.08087   0.00000  -0.00396  -0.01132
   O      5.80036   0.00000   3.02696   0.00396   0.00000   0.01132
   O      1.93345   0.00000   9.08087  -0.00396  -0.00000  -0.01132
   O      1.93345   0.00000   3.02696  -0.00396  -0.00000   0.01132
   O      5.80036   0.00000   9.08087   0.00396  -0.00000  -0.01132
   O      1.93345   3.86691   9.08087  -0.00398  -0.00000   0.00946
   O      1.93345   3.86691   3.02696  -0.00398   0.00000  -0.00946
   O      3.86691   1.93345   3.02696  -0.00000  -0.00398  -0.00946
   O      3.86691   1.93345   9.08087  -0.00000  -0.00398   0.00946
   O      3.86691   5.80036   3.02696  -0.00000   0.00398  -0.00946
   O      3.86691   5.80036   9.08087  -0.00000   0.00398   0.00946
   O      5.80036   3.86691   9.08087   0.00398   0.00000   0.00946
   O      5.80036   3.86691   3.02696   0.00398   0.00000  -0.00946
PRIMCOORD   44
     40   1
   Bi     0.00000   0.00000   4.29699  -0.00241  -0.00250   0.00000
   Bi     0.00000   0.00000   7.81084  -0.00241  -0.00250   0.00000
   Bi     1.93345   1.93345  10.35090  -0.00488  -0.00475   0.00305
   Bi     1.93345   1.93345   1.75692  -0.00488  -0.00475  -0.00305
   Bi     0.00000   3.86691   4.29699   0.00397   0.00472  -0.00000
   Bi     0.00000   3.86691   7.81084   0.00397   0.00472   0.00000
   Bi     3.86691   0.00000   4.29699   0.00455   0.00412  -0.00000
   Bi     3.86691   0.00000   7.81084   0.00455   0.00412   0.00000
   Bi     1.93345   5.80036  10.35090   0.00383   0.00365  -0.00006
   Bi     1.93345   5.80036   1.75692   0.00383   0.00365   0.00006
   Bi     5.80036   1.93345  10.35090   0.00383   0.00365   0.00006
   Bi     5.80036   1.93345   1.75692   0.00383   0.00365  -0.00006
   Bi     3.86691   3.86691   4.29699  -0.00231  -0.00240  -0.00000
   Bi     3.86691   3.86691   7.81084  -0.00231  -0.00240   0.00000
   Bi     5.80036   5.80036  10.35090  -0.00488  -0.00475  -0.00305
   Bi     5.80036   5.80036   1.75692  -0.00488  -0.00475   0.00305
   Se     0.00000   0.00000   0.00000  -0.03245  -0.03366  -0.00000
   Se     1.93345   1.93345   6.05391  -0.00155  -0.00135   0.00000
   Se     0.00000   3.86691   0.00000   0.04559   0.00478  -0.00000
   Se     3.86691   0.00000   0.00000   0.00461   0.04728   0.00000
   Se     1.93345   5.80036   6.05391   0.00545   0.00539  -0.00000
   Se     5.80036   1.93345   6.05391   0.00545   0.00539  -0.00000
   Se     3.86691   3.86691   0.00000  -0.03257  -0.03378   0.00000
   Se     5.80036   5.80036   6.05391  -0.00155  -0.00135   0.00000
   O      0.00000   1.93345   3.02696  -0.00400  -0.00089   0.00717
   O      0.00000   5.80036   9.08087  -0.00400  -0.00089   0.00717
   O      0.00000   5.80036   3.02696  -0.00400  -0.00089  -0.00717
   O      0.00000   1.93345   9.08087  -0.00400  -0.00089  -0.00717
   O      5.80036   0.00000   3.02696  -0.00086  -0.00415  -0.00692
   O      1.93345   0.00000   9.08087  -0.00086  -0.00415  -0.00692
   O      1.93345   0.00000   3.02696  -0.00086  -0.00415   0.00692
   O      5.80036   0.00000   9.08087  -0.00086  -0.00415   0.00692
   O      1.93345   3.86691   9.08087   0.00028   0.00235   0.00140
   O      1.93345   3.86691   3.02696   0.00028   0.00235  -0.00140
   O      3.86691   1.93345   3.02696   0.00227   0.00029  -0.00145
   O      3.86691   1.93345   9.08087   0.00227   0.00029   0.00145
   O      3.86691   5.80036   3.02696   0.00227   0.00029   0.00145
   O      3.86691   5.80036   9.08087   0.00227   0.00029  -0.00145
   O      5.80036   3.86691   9.08087   0.00028   0.00235  -0.00140
   O      5.80036   3.86691   3.02696   0.00028   0.00235   0.00140
PRIMCOORD   45
     40   1
   Bi     0.00000   0.00000   4.29699  -0.00250   0.00241   0.00000
   Bi     0.00000   0.00000   7.81084  -0.00250   0.00241  -0.00000
   Bi     1.93345   1.93345  10.35090   0.00365  -0.00383   0.00006
   Bi     1.93345   1.93345   1.75692   0.00365  -0.00383  -0.00006
   Bi     0.00000   3.86691   4.29699   0.00412  -0.00455  -0.00000
   Bi     0.00000   3.86691   7.81084   0.00412  -0.00455   0.00000
   Bi     3.86691   0.00000   4.29699   0.00472  -0.00397  -0.00000
   Bi     3.86691   0.00000   7.81084   0.00472  -0.00397   0.00000
   Bi     1.93345   5.80036  10.35090  -0.00475   0.00488   0.00305
   Bi     1.93345   5.80036   1.75692  -0.00475   0.00488  -0.00305
   Bi     5.80036   1.93345  10.35090  -0.00475   0.00488  -0.00305
   Bi     5.80036   1.93345   1.75692  -0.00475   0.00488   0.00305
   Bi     3.86691   3.86691   4.29699  -0.00240   0.00231  -0.00000
   Bi     3.86691   3.86691   7.81084  -0.00240   0.00231   0.00000
   Bi     5.80036   5.80036  10.35090   0.00365  -0.00383  -0.00006
   Bi     5.80036   5.80036   1.75692   0.00365  -0.00383   0.00006
   Se     0.00000   0.00000   0.00000  -0.03366   0.03245  -0.00000
   Se     1.93345   1.93345   6.05391   0.00539  -0.00545   0.00000
   Se     0.00000   3.86691   0.00000   0.04728  -0.00461  -0.00000
   Se     3.86691   0.00000   0.00000   0.00478  -0.04559  -0.00000
   Se     1.93345   5.80036   6.05391  -0.00135   0.00155  -0.00000
   Se     5.80036   1.93345   6.05391  -0.00135   0.00155   0.00000
   Se     3.86691   3.86691   0.00000  -0.03378   0.03257   0.00000
   Se     5.80036   5.80036   6.05391   0.00539  -0.00545  -0.00000
   O      0.00000   1.93345   3.02696  -0.00415   0.00086  -0.00692
   O      0.00000   5.80036   9.08087  -0.00415   0.00086  -0.00692
   O      0.00000   5.80036   3.02696  -0.00415   0.00086   0.00692
   O      0.00000   1.93345   9.08087  -0.00415   0.00086   0.00692
   O      5.80036   0.00000   3.02696  -0.00089   0.00400  -0.00717
   O      1.93345   0.00000   9.08087  -0.00089   0.00400  -0.00717
   O      1.93345   0.00000   3.02696  -0.00089   0.00400   0.00717
   O      5.80036   0.00000   9.08087  -0.00089   0.00400   0.00717
   O      1.93345   3.86691   9.08087   0.00029  -0.00227   0.00145
   O      1.93345   3.86691   3.02696   0.00029  -0.00227  -0.00145
   O      3.86691   1.93345   3.02696   0.00235  -0.00028   0.00140
   O      3.86691   1.93345   9.08087   0.00235  -0.00028  -0.00140
   O      3.86691   5.80036   3.02696   0.00235  -0.00028  -0.00140
   O      3.86691   5.80036   9.08087   0.00235  -0.00028   0.00140
   O      5.80036   3.86691   9.08087   0.00029  -0.00227  -0.00145
   O      5.80036   3.86691   3.02696   0.00029  -0.00227   0.00145
PRIMCOORD   46
     40   1
   Bi     0.00000   0.00000   4.29699  -0.00460   0.00001  -0.00000
   Bi     0.00000   0.00000   7.81084  -0.00460   0.00001   0.00000
   Bi     1.93345   1.93345  10.35090   0.00093   0.00140  -0.00591
   Bi     1.93345   1.93345   1.75692   0.00093   0.00140   0.00591
   Bi     0.00000   3.86691   4.29699  -0.00690  -0.00001  -0.00000
   Bi     0.00000   3.86691   7.81084  -0.00690  -0.00001   0.00000
   Bi     3.86691   0.00000   4.29699   0.00346   0.00002   0.00000
   Bi     3.86691   0.00000   7.81084   0.00346   0.00002  -0.00000
   Bi     1.93345   5.80036  10.35090   0.00094  -0.00141  -0.00594
   Bi     1.93345   5.80036   1.75692   0.00094  -0.00141   0.00594
   Bi     5.80036   1.93345  10.35090   0.00094  -0.00141   0.00594
   Bi     5.80036   1.93345   1.75692   0.00094  -0.00141  -0.00594
   Bi     3.86691   3.86691   4.29699   0.00531  -0.00002  -0.00000
   Bi     3.86691   3.86691   7.81084   0.00531  -0.00002   0.00000
   Bi     5.80036   5.80036  10.35090   0.00093   0.00140   0.00591
   Bi     5.80036   5.80036   1.75692   0.00093   0.00140  -0.00591
   Se     0.00000   0.00000   0.00000   0.03614  -0.00011  -0.00000
   Se     1.93345   1.93345   6.05391  -0.00230  -0.00102  -0.00000
   Se     0.00000   3.86691   0.00000   0.03570   0.00020  -0.00000
   Se     3.86691   0.00000   0.00000  -0.06523  -0.00011  -0.00000
   Se     1.93345   5.80036   6.05391  -0.00230   0.00103  -0.00000
   Se     5.80036   1.93345   6.05391  -0.00230   0.00103  -0.00000
   Se     3.86691   3.86691   0.00000  -0.00430   0.00001   0.00000
   Se     5.80036   5.80036   6.05391  -0.00230  -0.00102  -0.00000
   O      0.00000   1.93345   3.02696  -0.00980   0.00000  -0.00004
   O      0.00000   5.80036   9.08087  -0.00980   0.00000  -0.00004
   O      0.00000   5.80036   3.02696  -0.00980   0.00000   0.00004
   O      0.00000   1.93345   9.08087  -0.00980   0.00000   0.00004
   O      5.80036   0.00000   3.02696  -0.00020   0.00003  -0.01218
   O      1.93345   0.00000   9.08087  -0.00020   0.00003  -0.01218
   O      1.93345   0.00000   3.02696  -0.00020   0.00003   0.01218
   O      5.80036   0.00000   9.08087  -0.00020   0.00003   0.01218
   O      1.93345   3.86691   9.08087   0.00109  -0.00003  -0.01694
   O      1.93345   3.86691   3.02696   0.00109  -0.00003   0.01694
   O      3.86691   1.93345   3.02696   0.01081  -0.00000  -0.00005
   O      3.86691   1.93345   9.08087   0.01081  -0.00000   0.00005
   O      3.86691   5.80036   3.02696   0.01081  -0.00000   0.00005
   O      3.86691   5.80036   9.08087   0.01081  -0.00000  -0.00005
   O      5.80036   3.86691   9.08087   0.00109  -0.00003   0.01694
   O      5.80036   3.86691   3.02696   0.00109  -0.00003  -0.01694
PRIMCOORD   47
     40   1
   Bi     0.00000   0.00000   4.29699   0.00001   0.00460   0.00000
   Bi     0.00000   0.00000   7.81084   0.00001   0.00460   0.00000
   Bi     1.93345   1.93345  10.35090  -0.00141  -0.00094   0.00594
   Bi     1.93345   1.93345   1.75692  -0.00141  -0.00094  -0.00594
   Bi     0.00000   3.86691   4.29699   0.00002  -0.00346   0.00000
   Bi     0.00000   3.86691   7.81084   0.00002  -0.00346  -0.00000
   Bi     3.86691   0.00000   4.29699  -0.00001   0.00690  -0.00000
   Bi     3.86691   0.00000   7.81084  -0.00001   0.00690   0.00000
   Bi     1.93345   5.80036  10.35090   0.00140  -0.00093  -0.00591
   Bi     1.93345   5.80036   1.75692   0.00140  -0.00093   0.00591
   Bi     5.80036   1.93345  10.35090   0.00140  -0.00093   0.00591
   Bi     5.80036   1.93345   1.75692   0.00140  -0.00093  -0.00591
   Bi     3.86691   3.86691   4.29699  -0.00002  -0.00531   0.00000
   Bi     3.86691   3.86691   7.81084  -0.00002  -0.00531  -0.00000
   Bi     5.80036   5.80036  10.35090  -0.00141  -0.00094  -0.00594
   Bi     5.80036   5.80036   1.75692  -0.00141  -0.00094   0.00594
   Se     0.00000   0.00000   0.00000  -0.00011  -0.03614  -0.00000
   Se     1.93345   1.93345   6.05391   0.00103   0.00230   0.00000
   Se     0.00000   3.86691   0.00000  -0.00011   0.06523   0.00000
   Se     3.86691   0.00000   0.00000   0.00020  -0.03570   0.00000
   Se     1.93345   5.80036   6.05391  -0.00102   0.00230  -0.00000
   Se     5.80036   1.93345   6.05391  -0.00102   0.00230   0.00000
   Se     3.86691   3.86691   0.00000   0.00001   0.00430   0.00000
   Se     5.80036   5.80036   6.05391   0.00103   0.00230  -0.00000
   O      0.00000   1.93345   3.02696   0.00003   0.00020  -0.01218
   O      0.00000   5.80036   9.08087   0.00003   0.00020  -0.01218
   O      0.00000   5.80036   3.02696   0.00003   0.00020   0.01218
   O      0.00000   1.93345   9.08087   0.00003   0.00020   0.01218
   O      5.80036   0.00000   3.02696   0.00000   0.00980   0.00004
   O      1.93345   0.00000   9.08087   0.00000   0.00980   0.00004
   O      1.93345   0.00000   3.02696   0.00000   0.00980  -0.00004
   O      5.80036   0.00000   9.08087   0.00000   0.00980  -0.00004
   O      1.93345   3.86691   9.08087  -0.00000  -0.01081   0.00005
   O      1.93345   3.86691   3.02696  -0.00000  -0.01081  -0.00005
   O      3.86691   1.93345   3.02696  -0.00003  -0.00109  -0.01694
   O      3.86691   1.93345   9.08087  -0.00003  -0.00109   0.01694
   O      3.86691   5.80036   3.02696  -0.00003  -0.00109   0.01694
   O      3.86691   5.80036   9.08087  -0.00003  -0.00109  -0.01694
   O      5.80036   3.86691   9.08087  -0.00000  -0.01081  -0.00005
   O      5.80036   3.86691   3.02696  -0.00000  -0.01081   0.00005
PRIMCOORD   48
     40   1
   Bi     0.00000   0.00000   4.29699   0.00000  -0.00000   0.00000
   Bi     0.00000   0.00000   7.81084   0.00000   0.00000   0.00000
   Bi     1.93345   1.93345  10.35090   0.00305  -0.00305   0.00000
   Bi     1.93345   1.93345   1.75692   0.00305  -0.00305  -0.00000
   Bi     0.00000   3.86691   4.29699   0.00000   0.00000  -0.00245
   Bi     0.00000   3.86691   7.81084   0.00000  -0.00000   0.00245
   Bi     3.86691   0.00000   4.29699  -0.00000   0.00000   0.00245
   Bi     3.86691   0.00000   7.81084  -0.00000   0.00000  -0.00245
   Bi     1.93345   5.80036  10.35090   0.00305   0.00305   0.00000
   Bi     1.93345   5.80036   1.75692   0.00305   0.00305  -0.00000
   Bi     5.80036   1.93345  10.35090  -0.00305  -0.00305  -0.00000
   Bi     5.80036   1.93345   1.75692  -0.00305  -0.00305   0.00000
   Bi     3.86691   3.86691   4.29699  -0.00000  -0.00000  -0.00000
   Bi     3.86691   3.86691   7.81084  -0.00000  -0.00000  -0.00000
   Bi     5.80036   5.80036  10.35090  -0.00305   0.00305  -0.00000
   Bi     5.80036   5.80036   1.75692  -0.00305   0.00305   0.00000
   Se     0.00000   0.00000   0.00000  -0.00000  -0.00000   0.00000
   Se     1.93345   1.93345   6.05391  -0.02961   0.02961   0.00000
   Se     0.00000   3.86691   0.00000  -0.00000   0.00000  -0.00000
   Se     3.86691   0.00000   0.00000   0.00000   0.00000  -0.00000
   Se     1.93345   5.80036   6.05391  -0.02961  -0.02961  -0.00000
   Se     5.80036   1.93345   6.05391   0.02961   0.02961   0.00000
   Se     3.86691   3.86691   0.00000   0.00000   0.00000  -0.00000
   Se     5.80036   5.80036   6.05391   0.02961  -0.02961   0.00000
   O      0.00000   1.93345   3.02696   0.00000  -0.00832  -0.01044
   O      0.00000   5.80036   9.08087   0.00000   0.00832   0.01044
   O      0.00000   5.80036   3.02696   0.00000   0.00832  -0.01044
   O      0.00000   1.93345   9.08087   0.00000  -0.00832   0.01044
   O      5.80036   0.00000   3.02696  -0.00832   0.00000   0.01044
   O      1.93345   0.00000   9.08087   0.00832  -0.00000  -0.01044
   O      1.93345   0.00000   3.02696   0.00832  -0.00000   0.01044
   O      5.80036   0.00000   9.08087  -0.00832   0.00000  -0.01044
   O      1.93345   3.86691   9.08087   0.00826  -0.00000   0.01026
   O      1.93345   3.86691   3.02696   0.00826  -0.00000  -0.01026
   O      3.86691   1.93345   3.02696  -0.00000  -0.00826   0.01026
   O      3.86691   1.93345   9.08087  -0.00000  -0.00826  -0.01026
   O      3.86691   5.80036   3.02696  -0.00000   0.00826   0.01026
   O      3.86691   5.80036   9.08087  -0.00000   0.00826  -0.01026
   O      5.80036   3.86691   9.08087  -0.00826  -0.00000   0.01026
   O      5.80036   3.86691   3.02696  -0.00826  -0.00000  -0.01026
PRIMCOORD   49
     40   1
   Bi     0.00000   0.00000   4.29699   0.00000  -0.00000   0.00077
   Bi     0.00000   0.00000   7.81084   0.00000   0.00000  -0.00077
   Bi     1.93345   1.93345  10.35090   0.00117   0.00117   0.00049
   Bi     1.93345   1.93345   1.75692   0.00117   0.00117  -0.00049
   Bi     0.00000   3.86691   4.29699   0.00000   0.00000  -0.00049
   Bi     0.00000   3.86691   7.81084   0.00000  -0.00000   0.00049
   Bi     3.86691   0.00000   4.29699  -0.00000  -0.00000  -0.00049
   Bi     3.86691   0.00000   7.81084  -0.00000   0.00000   0.00049
   Bi     1.93345   5.80036  10.35090   0.00117  -0.00117   0.00049
   Bi     1.93345   5.80036   1.75692   0.00117  -0.00117  -0.00049
   Bi     5.80036   1.93345  10.35090  -0.00117   0.00117   0.00049
   Bi     5.80036   1.93345   1.75692  -0.00117   0.00117  -0.00049
   Bi     3.86691   3.86691   4.29699   0.00000   0.00000  -0.00149
   Bi     3.86691   3.86691   7.81084  -0.00000  -0.00000   0.00149
   Bi     5.80036   5.80036  10.35090  -0.00117  -0.00117   0.00049
   Bi     5.80036   5.80036   1.75692  -0.00117  -0.00117  -0.00049
   Se     0.00000   0.00000   0.00000  -0.00000  -0.00000  -0.00000
   Se     1.93345   1.93345   6.05391  -0.03110  -0.03110  -0.00000
   Se     0.00000   3.86691   0.00000  -0.00000  -0.00000   0.00000
   Se     3.86691   0.00000   0.00000   0.00000   0.00000   0.00000
   Se     1.93345   5.80036   6.05391  -0.03110   0.03110  -0.00000
   Se     5.80036   1.93345   6.05391   0.03110  -0.03110  -0.00000
   Se     3.86691   3.86691   0.00000  -0.00000   0.00000  -0.00000
   Se     5.80036   5.80036   6.05391   0.03110   0.03110  -0.00000
   O      0.00000   1.93345   3.02696   0.00000   0.00781  -0.00935
   O      0.00000   5.80036   9.08087   0.00000  -0.00781   0.00935
   O      0.00000   5.80036   3.02696   0.00000  -0.00781  -0.00935
   O      0.00000   1.93345   9.08087   0.00000   0.00781   0.00935
   O      5.80036   0.00000   3.02696  -0.00781  -0.00000  -0.00935
   O      1.93345   0.00000   9.08087   0.00781   0.00000   0.00935
   O      1.93345   0.00000   3.02696   0.00781  -0.00000  -0.00935
   O      5.80036   0.00000   9.08087  -0.00781   0.00000   0.00935
   O      1.93345   3.86691   9.08087   0.00780   0.00000  -0.00835
   O      1.93345   3.86691   3.02696   0.00780  -0.00000   0.00835
   O      3.86691   1.93345   3.02696  -0.00000   0.00780   0.00835
   O      3.86691   1.93345   9.08087  -0.00000   0.00780  -0.00835
   O      3.86691   5.80036   3.02696  -0.00000  -0.00780   0.00835
   O      3.86691   5.80036   9.08087  -0.00000  -0.00780  -0.00835
   O      5.80036   3.86691   9.08087  -0.00780   0.00000  -0.00835
   O      5.80036   3.86691   3.02696  -0.00780   0.00000   0.00835
PRIMCOORD   50
     40   1
   Bi     0.00000   0.00000   4.29699   0.00000  -0.00000  -0.00000
   Bi     0.00000   0.00000   7.81084  -0.00000  -0.00000   0.00000
   Bi     1.93345   1.93345  10.35090   0.00012   0.00012   0.00007
   Bi     1.93345   1.93345   1.75692   0.00012   0.00012  -0.00007
   Bi     0.00000   3.86691   4.29699  -0.00000  -0.00000  -0.00000
   Bi     0.00000   3.86691   7.81084  -0.00000  -0.00000   0.00000
   Bi     3.86691   0.00000   4.29699  -0.00000   0.00000   0.00000
   Bi     3.86691   0.00000   7.81084   0.00000  -0.00000  -0.00000
   Bi     1.93345   5.80036  10.35090  -0.00012   0.00012  -0.00007
   Bi     1.93345   5.80036   1.75692  -0.00012   0.00012   0.00007
   Bi     5.80036   1.93345  10.35090   0.00012  -0.00012  -0.00007
   Bi     5.80036   1.93345   1.75692   0.00012  -0.00012   0.00007
   Bi     3.86691   3.86691   4.29699   0.00000  -0.00000   0.00000
   Bi     3.86691   3.86691   7.81084  -0.00000  -0.00000  -0.00000
   Bi     5.80036   5.80036  10.35090  -0.00012  -0.00012   0.00007
   Bi     5.80036   5.80036   1.75692  -0.00012  -0.00012  -0.00007
   Se     0.00000   0.00000   0.00000   0.00000   0.00000  -0.00000
   Se     1.93345   1.93345   6.05391   0.03522   0.03522   0.00000
   Se     0.00000   3.86691   0.00000  -0.00000   0.00000   0.00000
   Se     3.86691   0.00000   0.00000  -0.00000  -0.00000   0.00000
   Se     1.93345   5.80036   6.05391  -0.03522   0.03522  -0.00000
   Se     5.80036   1.93345   6.05391   0.03522  -0.03522  -0.00000
   Se     3.86691   3.86691   0.00000  -0.00000   0.00000  -0.00000
   Se     5.80036   5.80036   6.05391  -0.03522  -0.03522   0.00000
   O      0.00000   1.93345   3.02696   0.00217  -0.00000  -0.00000
   O      0.00000   5.80036   9.08087  -0.00217   0.00000   0.00000
   O      0.00000   5.80036   3.02696  -0.00217   0.00000  -0.00000
   O      0.00000   1.93345   9.08087   0.00217  -0.00000   0.00000
   O      5.80036   0.00000   3.02696  -0.00000  -0.00217   0.00000
   O      1.93345   0.00000   9.08087   0.00000   0.00217  -0.00000
   O      1.93345   0.00000   3.02696   0.00000   0.00217   0.00000
   O      5.80036   0.00000   9.08087  -0.00000  -0.00217  -0.00000
   O      1.93345   3.86691   9.08087   0.00000   0.00215   0.00000
   O      1.93345   3.86691   3.02696   0.00000   0.00215   0.00000
   O      3.86691   1.93345   3.02696   0.00215  -0.00000  -0.00000
   O      3.86691   1.93345   9.08087   0.00215  -0.00000   0.00000
   O      3.86691   5.80036   3.02696  -0.00215   0.00000   0.00000
   O      3.86691   5.80036   9.08087  -0.00215   0.00000  -0.00000
   O      5.80036   3.86691   9.08087  -0.00000  -0.00215   0.00000
   O      5.80036   3.86691   3.02696  -0.00000  -0.00215  -0.00000
PRIMCOORD   51
     40   1
   Bi     0.00000   0.00000   4.29699  -0.00000  -0.00000   0.00000
   Bi     0.00000   0.00000   7.81084   0.00000  -0.00000   0.00000
   Bi     1.93345   1.93345  10.35090   0.00286  -0.00286  -0.00000
   Bi     1.93345   1.93345   1.75692   0.00286  -0.00286  -0.00000
   Bi     0.00000   3.86691   4.29699  -0.00000   0.00000  -0.00000
   Bi     0.00000   3.86691   7.81084  -0.00000   0.00000   0.00000
   Bi     3.86691   0.00000   4.29699   0.00000   0.00000  -0.00000
   Bi     3.86691   0.00000   7.81084  -0.00000   0.00000  -0.00000
   Bi     1.93345   5.80036  10.35090  -0.00286  -0.00286  -0.00000
   Bi     1.93345   5.80036   1.75692  -0.00286  -0.00286   0.00000
   Bi     5.80036   1.93345  10.35090   0.00286   0.00286   0.00000
   Bi     5.80036   1.93345   1.75692   0.00286   0.00286  -0.00000
   Bi     3.86691   3.86691   4.29699  -0.00000  -0.00000   0.00000
   Bi     3.86691   3.86691   7.81084   0.00000  -0.00000   0.00000
   Bi     5.80036   5.80036  10.35090  -0.00286   0.00286  -0.00000
   Bi     5.80036   5.80036   1.75692  -0.00286   0.00286  -0.00000
   Se     0.00000   0.00000   0.00000   0.00000   0.00000   0.00000
   Se     1.93345   1.93345   6.05391   0.03508  -0.03508   0.00000
   Se     0.00000   3.86691   0.00000  -0.00000  -0.00000  -0.00000
   Se     3.86691   0.00000   0.00000  -0.00000  -0.00000  -0.00000
   Se     1.93345   5.80036   6.05391  -0.03508  -0.03508   0.00000
   Se     5.80036   1.93345   6.05391   0.03508   0.03508   0.00000
   Se     3.86691   3.86691   0.00000   0.00000   0.00000   0.00000
   Se     5.80036   5.80036   6.05391  -0.03508   0.03508   0.00000
   O      0.00000   1.93345   3.02696   0.00126   0.00000   0.00000
   O      0.00000   5.80036   9.08087  -0.00126   0.00000   0.00000
   O      0.00000   5.80036   3.02696  -0.00126  -0.00000  -0.00000
   O      0.00000   1.93345   9.08087   0.00126  -0.00000  -0.00000
   O      5.80036   0.00000   3.02696  -0.00000   0.00126  -0.00000
   O      1.93345   0.00000   9.08087  -0.00000  -0.00126   0.00000
   O      1.93345   0.00000   3.02696   0.00000  -0.00126  -0.00000
   O      5.80036   0.00000   9.08087   0.00000   0.00126   0.00000
   O      1.93345   3.86691   9.08087   0.00000  -0.00126  -0.00000
   O      1.93345   3.86691   3.02696  -0.00000  -0.00126   0.00000
   O      3.86691   1.93345   3.02696   0.00126  -0.00000  -0.00000
   O      3.86691   1.93345   9.08087   0.00126   0.00000   0.00000
   O      3.86691   5.80036   3.02696  -0.00126   0.00000   0.00000
   O      3.86691   5.80036   9.08087  -0.00126  -0.00000  -0.00000
   O      5.80036   3.86691   9.08087  -0.00000   0.00126   0.00000
   O      5.80036   3.86691   3.02696   0.00000   0.00126   0.00000
PRIMCOORD   52
     40   1
   Bi     0.00000   0.00000   4.29699   0.00000   0.00000   0.00295
   Bi     0.00000   0.00000   7.81084   0.00000   0.00000   0.00295
   Bi     1.93345   1.93345  10.35090   0.00021   0.00021  -0.00173
   Bi     1.93345   1.93345   1.75692  -0.00021  -0.00021  -0.00173
   Bi     0.00000   3.86691   4.29699  -0.00000  -0.00000  -0.00032
   Bi     0.00000   3.86691   7.81084  -0.00000   0.00000  -0.00032
   Bi     3.86691   0.00000   4.29699  -0.00000   0.00000  -0.00032
   Bi     3.86691   0.00000   7.81084  -0.00000   0.00000  -0.00032
   Bi     1.93345   5.80036  10.35090   0.00021  -0.00021  -0.00173
   Bi     1.93345   5.80036   1.75692  -0.00021   0.00021  -0.00173
   Bi     5.80036   1.93345  10.35090  -0.00021   0.00021  -0.00173
   Bi     5.80036   1.93345   1.75692   0.00021  -0.00021  -0.00173
   Bi     3.86691   3.86691   4.29699  -0.00000  -0.00000   0.00344
   Bi     3.86691   3.86691   7.81084   0.00000  -0.00000   0.00344
   Bi     5.80036   5.80036  10.35090  -0.00021  -0.00021  -0.00173
   Bi     5.80036   5.80036   1.75692   0.00021   0.00021  -0.00173
   Se     0.00000   0.00000   0.00000  -0.00000  -0.00000   0.04257
   Se     1.93345   1.93345   6.05391  -0.00000   0.00000   0.00701
   Se     0.00000   3.86691   0.00000  -0.00000   0.00000  -0.05432
   Se     3.86691   0.00000   0.00000   0.00000  -0.00000  -0.05432
   Se     1.93345   5.80036   6.05391   0.00000   0.00000   0.00701
   Se     5.80036   1.93345   6.05391  -0.00000  -0.00000   0.00701
   Se     3.86691   3.86691   0.00000   0.00000  -0.00000   0.04358
   Se     5.80036   5.80036   6.05391   0.00000  -0.00000   0.00701
   O      0.00000   1.93345   3.02696  -0.00000   0.00263   0.00013
   O      0.00000   5.80036   9.08087   0.00000   0.00263   0.00013
   O      0.00000   5.80036   3.02696   0.00000  -0.00263   0.00013
   O      0.00000   1.93345   9.08087  -0.00000  -0.00263   0.00013
   O      5.80036   0.00000   3.02696  -0.00263  -0.00000   0.00013
   O      1.93345   0.00000   9.08087  -0.00263   0.00000   0.00013
   O      1.93345   0.00000   3.02696   0.00263   0.00000   0.00013
   O      5.80036   0.00000   9.08087   0.00263  -0.00000   0.00013
   O      1.93345   3.86691   9.08087   0.00291   0.00000   0.00025
   O      1.93345   3.86691   3.02696  -0.00291   0.00000   0.00025
   O      3.86691   1.93345   3.02696  -0.00000  -0.00291   0.00025
   O      3.86691   1.93345   9.08087  -0.00000   0.00291   0.00025
   O      3.86691   5.80036   3.02696   0.00000   0.00291   0.00025
   O      3.86691   5.80036   9.08087   0.00000  -0.00291   0.00025
   O      5.80036   3.86691   9.08087  -0.00291  -0.00000   0.00025
   O      5.80036   3.86691   3.02696   0.00291  -0.00000   0.00025
PRIMCOORD   53
     40   1
   Bi     0.00000   0.00000   4.29699  -0.00112   0.00011  -0.00000
   Bi     0.00000   0.00000   7.81084  -0.00112   0.00011   0.00000
   Bi     1.93345   1.93345  10.35090   0.00008   0.00047   0.00247
   Bi     1.93345   1.93345   1.75692   0.00008   0.00047  -0.00247
   Bi     0.00000   3.86691   4.29699   0.00206  -0.00009   0.00000
   Bi     0.00000   3.86691   7.81084   0.00206  -0.00009  -0.00000
   Bi     3.86691   0.00000   4.29699   0.00090  -0.00020   0.00000
   Bi     3.86691   0.00000   7.81084   0.00090  -0.00020  -0.00000
   Bi     1.93345   5.80036  10.35090   0.00017  -0.00050   0.00300
   Bi     1.93345   5.80036   1.75692   0.00017  -0.00050  -0.00300
   Bi     5.80036   1.93345  10.35090   0.00017  -0.00050  -0.00300
   Bi     5.80036   1.93345   1.75692   0.00017  -0.00050   0.00300
   Bi     3.86691   3.86691   4.29699  -0.00241   0.00024  -0.00000
   Bi     3.86691   3.86691   7.81084  -0.00241   0.00024   0.00000
   Bi     5.80036   5.80036  10.35090   0.00008   0.00047  -0.00247
   Bi     5.80036   5.80036   1.75692   0.00008   0.00047   0.00247
   Se     0.00000   0.00000   0.00000   0.00504  -0.00049   0.00000
   Se     1.93345   1.93345   6.05391   0.00437  -0.04880  -0.00000
   Se     0.00000   3.86691   0.00000  -0.00750   0.00055  -0.00000
   Se     3.86691   0.00000   0.00000  -0.00566   0.00073  -0.00000
   Se     1.93345   5.80036   6.05391  -0.00520   0.04888   0.00000
   Se     5.80036   1.93345   6.05391  -0.00520   0.04888  -0.00000
   Se     3.86691   3.86691   0.00000   0.00901  -0.00088   0.00000
   Se     5.80036   5.80036   6.05391   0.00437  -0.04880   0.00000
   O      0.00000   1.93345   3.02696  -0.00025  -0.00004  -0.00021
   O      0.00000   5.80036   9.08087  -0.00025  -0.00004  -0.00021
   O      0.00000   5.80036   3.02696  -0.00025  -0.00004   0.00021
   O      0.00000   1.93345   9.08087  -0.00025  -0.00004   0.00021
   O      5.80036   0.00000   3.02696   0.00044   0.00002  -0.00218
   O      1.93345   0.00000   9.08087   0.00044   0.00002  -0.00218
   O      1.93345   0.00000   3.02696   0.00044   0.00002   0.00218
   O      5.80036   0.00000   9.08087   0.00044   0.00002   0.00218
   O      1.93345   3.86691   9.08087   0.00057  -0.00006   0.00390
   O      1.93345   3.86691   3.02696   0.00057  -0.00006  -0.00390
   O      3.86691   1.93345   3.02696   0.00056  -0.00006   0.00038
   O      3.86691   1.93345   9.08087   0.00056  -0.00006  -0.00038
   O      3.86691   5.80036   3.02696   0.00056  -0.00006  -0.00038
   O      3.86691   5.80036   9.08087   0.00056  -0.00006   0.00038
   O      5.80036   3.86691   9.08087   0.00057  -0.00006  -0.00390
   O      5.80036   3.86691   3.02696   0.00057  -0.00006   0.00390
PRIMCOORD   54
     40   1
   Bi     0.00000   0.00000   4.29699  -0.00011  -0.00112  -0.00000
   Bi     0.00000   0.00000   7.81084  -0.00011  -0.00112   0.00000
   Bi     1.93345   1.93345  10.35090   0.00050   0.00017   0.00300
   Bi     1.93345   1.93345   1.75692   0.00050   0.00017  -0.00300
   Bi     0.00000   3.86691   4.29699   0.00020   0.00090   0.00000
   Bi     0.00000   3.86691   7.81084   0.00020   0.00090  -0.00000
   Bi     3.86691   0.00000   4.29699   0.00009   0.00206   0.00000
   Bi     3.86691   0.00000   7.81084   0.00009   0.00206  -0.00000
   Bi     1.93345   5.80036  10.35090  -0.00047   0.00008  -0.00247
   Bi     1.93345   5.80036   1.75692  -0.00047   0.00008   0.00247
   Bi     5.80036   1.93345  10.35090  -0.00047   0.00008   0.00247
   Bi     5.80036   1.93345   1.75692  -0.00047   0.00008  -0.00247
   Bi     3.86691   3.86691   4.29699  -0.00024  -0.00241  -0.00000
   Bi     3.86691   3.86691   7.81084  -0.00024  -0.00241   0.00000
   Bi     5.80036   5.80036  10.35090   0.00050   0.00017  -0.00300
   Bi     5.80036   5.80036   1.75692   0.00050   0.00017   0.00300
   Se     0.00000   0.00000   0.00000   0.00049   0.00504  -0.00000
   Se     1.93345   1.93345   6.05391  -0.04888  -0.00520  -0.00000
   Se     0.00000   3.86691   0.00000  -0.00073  -0.00566   0.00000
   Se     3.86691   0.00000   0.00000  -0.00055  -0.00750   0.00000
   Se     1.93345   5.80036   6.05391   0.04880   0.00437  -0.00000
   Se     5.80036   1.93345   6.05391   0.04880   0.00437   0.00000
   Se     3.86691   3.86691   0.00000   0.00088   0.00901  -0.00000
   Se     5.80036   5.80036   6.05391  -0.04888  -0.00520  -0.00000
   O      0.00000   1.93345   3.02696  -0.00002   0.00044   0.00218
   O      0.00000   5.80036   9.08087  -0.00002   0.00044   0.00218
   O      0.00000   5.80036   3.02696  -0.00002   0.00044  -0.00218
   O      0.00000   1.93345   9.08087  -0.00002   0.00044  -0.00218
   O      5.80036   0.00000   3.02696   0.00004  -0.00025  -0.00021
   O      1.93345   0.00000   9.08087   0.00004  -0.00025  -0.00021
   O      1.93345   0.00000   3.02696   0.00004  -0.00025   0.00021
   O      5.80036   0.00000   9.08087   0.00004  -0.00025   0.00021
   O      1.93345   3.86691   9.08087   0.00006   0.00056   0.00038
   O      1.93345   3.86691   3.02696   0.00006   0.00056  -0.00038
   O      3.86691   1.93345   3.02696   0.00006   0.00057  -0.00390
   O      3.86691   1.93345   9.08087   0.00006   0.00057   0.00390
   O      3.86691   5.80036   3.02696   0.00006   0.00057   0.00390
   O      3.86691   5.80036   9.08087   0.00006   0.00057  -0.00390
   O      5.80036   3.86691   9.08087   0.00006   0.00056  -0.00038
   O      5.80036   3.86691   3.02696   0.00006   0.00056   0.00038
PRIMCOORD   55
     40   1
   Bi     0.00000   0.00000   4.29699   0.00000  -0.00000  -0.00000
   Bi     0.00000   0.00000   7.81084   0.00000  -0.00000   0.00000
   Bi     1.93345   1.93345  10.35090  -0.00117  -0.00117  -0.03358
   Bi     1.93345   1.93345   1.75692  -0.00117  -0.00117   0.03358
   Bi     0.00000   3.86691   4.29699  -0.00000  -0.00000   0.00000
   Bi     0.00000   3.86691   7.81084  -0.00000   0.00000  -0.00000
   Bi     3.86691   0.00000   4.29699  -0.00000  -0.00000   0.00000
   Bi     3.86691   0.00000   7.81084  -0.00000  -0.00000  -0.00000
   Bi     1.93345   5.80036  10.35090   0.00117  -0.00117   0.03358
   Bi     1.93345   5.80036   1.75692   0.00117  -0.00117  -0.03358
   Bi     5.80036   1.93345  10.35090  -0.00117   0.00117   0.03358
   Bi     5.80036   1.93345   1.75692  -0.00117   0.00117  -0.03358
   Bi     3.86691   3.86691   4.29699   0.00000  -0.00000  -0.00000
   Bi     3.86691   3.86691   7.81084  -0.00000  -0.00000   0.00000
   Bi     5.80036   5.80036  10.35090   0.00117   0.00117  -0.03358
   Bi     5.80036   5.80036   1.75692   0.00117   0.00117   0.03358
   Se     0.00000   0.00000   0.00000   0.00000   0.00000   0.00000
   Se     1.93345   1.93345   6.05391   0.00021   0.00021   0.00000
   Se     0.00000   3.86691   0.00000   0.00000   0.00000   0.00000
   Se     3.86691   0.00000   0.00000  -0.00000  -0.00000   0.00000
   Se     1.93345   5.80036   6.05391  -0.00021   0.00021  -0.00000
   Se     5.80036   1.93345   6.05391   0.00021  -0.00021  -0.00000
   Se     3.86691   3.86691   0.00000   0.00000   0.00000  -0.00000
   Se     5.80036   5.80036   6.05391  -0.00021  -0.00021   0.00000
   O      0.00000   1.93345   3.02696  -0.00818   0.00000  -0.00000
   O      0.00000   5.80036   9.08087   0.00818  -0.00000  -0.00000
   O      0.00000   5.80036   3.02696   0.00818  -0.00000   0.00000
   O      0.00000   1.93345   9.08087  -0.00818   0.00000  -0.00000
   O      5.80036   0.00000   3.02696  -0.00000   0.00818  -0.00000
   O      1.93345   0.00000   9.08087   0.00000  -0.00818   0.00000
   O      1.93345   0.00000   3.02696   0.00000  -0.00818  -0.00000
   O      5.80036   0.00000   9.08087  -0.00000   0.00818   0.00000
   O      1.93345   3.86691   9.08087  -0.00000   0.00724  -0.00000
   O      1.93345   3.86691   3.02696  -0.00000   0.00724   0.00000
   O      3.86691   1.93345   3.02696   0.00724  -0.00000   0.00000
   O      3.86691   1.93345   9.08087   0.00724  -0.00000  -0.00000
   O      3.86691   5.80036   3.02696  -0.00724   0.00000  -0.00000
   O      3.86691   5.80036   9.08087  -0.00724   0.00000  -0.00000
   O      5.80036   3.86691   9.08087   0.00000  -0.00724  -0.00000
   O      5.80036   3.86691   3.02696   0.00000  -0.00724   0.00000
PRIMCOORD   56
     40   1
   Bi     0.00000   0.00000   4.29699  -0.00000  -0.00000   0.03501
   Bi     0.00000   0.00000   7.81084  -0.00000  -0.00000  -0.03501
   Bi     1.93345   1.93345  10.35090  -0.00011  -0.00011  -0.00100
   Bi     1.93345   1.93345   1.75692  -0.00011  -0.00011   0.00100
   Bi     0.00000   3.86691   4.29699   0.00000   0.00000  -0.03319
   Bi     0.00000   3.86691   7.81084  -0.00000   0.00000   0.03319
   Bi     3.86691   0.00000   4.29699   0.00000   0.00000  -0.03319
   Bi     3.86691   0.00000   7.81084   0.00000   0.00000   0.03319
   Bi     1.93345   5.80036  10.35090  -0.00011   0.00011  -0.00100
   Bi     1.93345   5.80036   1.75692  -0.00011   0.00011   0.00100
   Bi     5.80036   1.93345  10.35090   0.00011  -0.00011  -0.00100
   Bi     5.80036   1.93345   1.75692   0.00011  -0.00011   0.00100
   Bi     3.86691   3.86691   4.29699  -0.00000   0.00000   0.03461
   Bi     3.86691   3.86691   7.81084  -0.00000  -0.00000  -0.03461
   Bi     5.80036   5.80036  10.35090   0.00011   0.00011  -0.00100
   Bi     5.80036   5.80036   1.75692   0.00011   0.00011   0.00100
   Se     0.00000   0.00000   0.00000   0.00000   0.00000  -0.00000
   Se     1.93345   1.93345   6.05391   0.00009   0.00009   0.00000
   Se     0.00000   3.86691   0.00000  -0.00000   0.00000  -0.00000
   Se     3.86691   0.00000   0.00000  -0.00000  -0.00000  -0.00000
   Se     1.93345   5.80036   6.05391   0.00009  -0.00009  -0.00000
   Se     5.80036   1.93345   6.05391  -0.00009   0.00009  -0.00000
   Se     3.86691   3.86691   0.00000   0.00000   0.00000  -0.00000
   Se     5.80036   5.80036   6.05391  -0.00009  -0.00009   0.00000
   O      0.00000   1.93345   3.02696  -0.00000  -0.00688   0.00077
   O      0.00000   5.80036   9.08087   0.00000   0.00688  -0.00077
   O      0.00000   5.80036   3.02696  -0.00000   0.00688   0.00077
   O      0.00000   1.93345   9.08087  -0.00000  -0.00688  -0.00077
   O      5.80036   0.00000   3.02696   0.00688  -0.00000   0.00077
   O      1.93345   0.00000   9.08087  -0.00688  -0.00000  -0.00077
   O      1.93345   0.00000   3.02696  -0.00688   0.00000   0.00077
   O      5.80036   0.00000   9.08087   0.00688   0.00000  -0.00077
   O      1.93345   3.86691   9.08087   0.00664   0.00000  -0.00072
   O      1.93345   3.86691   3.02696   0.00664   0.00000   0.00072
   O      3.86691   1.93345   3.02696   0.00000   0.00664   0.00072
   O      3.86691   1.93345   9.08087   0.00000   0.00664  -0.00072
   O      3.86691   5.80036   3.02696   0.00000  -0.00664   0.00072
   O      3.86691   5.80036   9.08087  -0.00000  -0.00664  -0.00072
   O      5.80036   3.86691   9.08087  -0.00664  -0.00000  -0.00072
   O      5.80036   3.86691   3.02696  -0.00664   0.00000   0.00072
PRIMCOORD   57
     40   1
   Bi     0.00000   0.00000   4.29699   0.00000  -0.00000   0.00000
   Bi     0.00000   0.00000   7.81084   0.00000  -0.00000  -0.00000
   Bi     1.93345   1.93345  10.35090   0.00003   0.00003  -0.00160
   Bi     1.93345   1.93345   1.75692  -0.00003  -0.00003  -0.00160
   Bi     0.00000   3.86691   4.29699  -0.00000  -0.00000  -0.00000
   Bi     0.00000   3.86691   7.81084  -0.00000   0.00000   0.00000
   Bi     3.86691   0.00000   4.29699   0.00000   0.00000  -0.00000
   Bi     3.86691   0.00000   7.81084   0.00000  -0.00000   0.00000
   Bi     1.93345   5.80036  10.35090  -0.00003   0.00003   0.00160
   Bi     1.93345   5.80036   1.75692   0.00003  -0.00003   0.00160
   Bi     5.80036   1.93345  10.35090   0.00003  -0.00003   0.00160
   Bi     5.80036   1.93345   1.75692  -0.00003   0.00003   0.00160
   Bi     3.86691   3.86691   4.29699  -0.00000  -0.00000   0.00000
   Bi     3.86691   3.86691   7.81084  -0.00000  -0.00000  -0.00000
   Bi     5.80036   5.80036  10.35090  -0.00003  -0.00003  -0.00160
   Bi     5.80036   5.80036   1.75692   0.00003   0.00003  -0.00160
   Se     0.00000   0.00000   0.00000  -0.00000  -0.00000  -0.00000
   Se     1.93345   1.93345   6.05391   0.00000   0.00000  -0.04991
   Se     0.00000   3.86691   0.00000   0.00000  -0.00000   0.00000
   Se     3.86691   0.00000   0.00000  -0.00000   0.00000   0.00000
   Se     1.93345   5.80036   6.05391  -0.00000   0.00000   0.04991
   Se     5.80036   1.93345   6.05391   0.00000  -0.00000   0.04991
   Se     3.86691   3.86691   0.00000  -0.00000  -0.00000  -0.00000
   Se     5.80036   5.80036   6.05391   0.00000  -0.00000  -0.04991
   O      0.00000   1.93345   3.02696  -0.00101  -0.00000   0.00000
   O      0.00000   5.80036   9.08087  -0.00101   0.00000  -0.00000
   O      0.00000   5.80036   3.02696   0.00101   0.00000   0.00000
   O      0.00000   1.93345   9.08087   0.00101  -0.00000  -0.00000
   O      5.80036   0.00000   3.02696   0.00000   0.00101   0.00000
   O      1.93345   0.00000   9.08087  -0.00000   0.00101  -0.00000
   O      1.93345   0.00000   3.02696  -0.00000  -0.00101   0.00000
   O      5.80036   0.00000   9.08087   0.00000  -0.00101  -0.00000
   O      1.93345   3.86691   9.08087   0.00000  -0.00099  -0.00000
   O      1.93345   3.86691   3.02696   0.00000   0.00099   0.00000
   O      3.86691   1.93345   3.02696   0.00099   0.00000   0.00000
   O      3.86691   1.93345   9.08087  -0.00099   0.00000  -0.00000
   O      3.86691   5.80036   3.02696  -0.00099  -0.00000   0.00000
   O      3.86691   5.80036   9.08087   0.00099  -0.00000  -0.00000
   O      5.80036   3.86691   9.08087  -0.00000   0.00099  -0.00000
   O      5.80036   3.86691   3.02696  -0.00000  -0.00099   0.00000
PRIMCOORD   58
     40   1
   Bi     0.00000   0.00000   4.29699   0.00000  -0.00000   0.00774
   Bi     0.00000   0.00000   7.81084  -0.00000   0.00000   0.00774
   Bi     1.93345   1.93345  10.35090   0.00045   0.00045  -0.00818
   Bi     1.93345   1.93345   1.75692  -0.00045  -0.00045  -0.00818
   Bi     0.00000   3.86691   4.29699  -0.00000   0.00000   0.00709
   Bi     0.00000   3.86691   7.81084  -0.00000  -0.00000   0.00709
   Bi     3.86691   0.00000   4.29699   0.00000  -0.00000   0.00709
   Bi     3.86691   0.00000   7.81084  -0.00000  -0.00000   0.00709
   Bi     1.93345   5.80036  10.35090   0.00045  -0.00045  -0.00818
   Bi     1.93345   5.80036   1.75692  -0.00045   0.00045  -0.00818
   Bi     5.80036   1.93345  10.35090  -0.00045   0.00045  -0.00818
   Bi     5.80036   1.93345   1.75692   0.00045  -0.00045  -0.00818
   Bi     3.86691   3.86691   4.29699   0.00000   0.00000   0.00898
   Bi     3.86691   3.86691   7.81084  -0.00000   0.00000   0.00898
   Bi     5.80036   5.80036  10.35090  -0.00045  -0.00045  -0.00818
   Bi     5.80036   5.80036   1.75692   0.00045   0.00045  -0.00818
   Se     0.00000   0.00000   0.00000   0.00000   0.00000  -0.04563
   Se     1.93345   1.93345   6.05391  -0.00000  -0.00000   0.03341
   Se     0.00000   3.86691   0.00000   0.00000  -0.00000  -0.02018
   Se     3.86691   0.00000   0.00000  -0.00000  -0.00000  -0.02018
   Se     1.93345   5.80036   6.05391  -0.00000   0.00000   0.03341
   Se     5.80036   1.93345   6.05391   0.00000  -0.00000   0.03341
   Se     3.86691   3.86691   0.00000   0.00000  -0.00000  -0.04001
   Se     5.80036   5.80036   6.05391   0.00000   0.00000   0.03341
   O      0.00000   1.93345   3.02696   0.00000  -0.00105   0.00066
   O      0.00000   5.80036   9.08087  -0.00000  -0.00105   0.00066
   O      0.00000   5.80036   3.02696   0.00000   0.00105   0.00066
   O      0.00000   1.93345   9.08087  -0.00000   0.00105   0.00066
   O      5.80036   0.00000   3.02696   0.00105   0.00000   0.00066
   O      1.93345   0.00000   9.08087   0.00105   0.00000   0.00066
   O      1.93345   0.00000   3.02696  -0.00105   0.00000   0.00066
   O      5.80036   0.00000   9.08087  -0.00105   0.00000   0.00066
   O      1.93345   3.86691   9.08087  -0.00057   0.00000   0.00058
   O      1.93345   3.86691   3.02696   0.00057   0.00000   0.00058
   O      3.86691   1.93345   3.02696   0.00000   0.00057   0.00058
   O      3.86691   1.93345   9.08087  -0.00000  -0.00057   0.00058
   O      3.86691   5.80036   3.02696   0.00000  -0.00057   0.00058
   O      3.86691   5.80036   9.08087  -0.00000   0.00057   0.00058
   O      5.80036   3.86691   9.08087   0.00057   0.00000   0.00058
   O      5.80036   3.86691   3.02696  -0.00057   0.00000   0.00058
PRIMCOORD   59
     40   1
   Bi     0.00000   0.00000   4.29699  -0.00000  -0.00000   0.00000
   Bi     0.00000   0.00000   7.81084   0.00000   0.00000   0.00000
   Bi     1.93345   1.93345  10.35090   0.01904  -0.01904  -0.00000
   Bi     1.93345   1.93345   1.75692  -0.01904   0.01904  -0.00000
   Bi     0.00000   3.86691   4.29699  -0.00000   0.00000  -0.02612
   Bi     0.00000   3.86691   7.81084   0.00000  -0.00000  -0.02612
   Bi     3.86691   0.00000   4.29699   0.00000  -0.00000   0.02612
   Bi     3.86691   0.00000   7.81084  -0.00000   0.00000   0.02612
   Bi     1.93345   5.80036  10.35090   0.01904   0.01904  -0.00000
   Bi     1.93345   5.80036   1.75692  -0.01904  -0.01904  -0.00000
   Bi     5.80036   1.93345  10.35090  -0.01904  -0.01904   0.00000
   Bi     5.80036   1.93345   1.75692   0.01904   0.01904   0.00000
   Bi     3.86691   3.86691   4.29699   0.00000   0.00000  -0.00000
   Bi     3.86691   3.86691   7.81084  -0.00000  -0.00000  -0.00000
   Bi     5.80036   5.80036  10.35090  -0.01904   0.01904   0.00000
   Bi     5.80036   5.80036   1.75692   0.01904  -0.01904   0.00000
   Se     0.00000   0.00000   0.00000  -0.00000   0.00000   0.00000
   Se     1.93345   1.93345   6.05391  -0.00000   0.00000  -0.00000
   Se     0.00000   3.86691   0.00000  -0.00000  -0.00000  -0.02097
   Se     3.86691   0.00000   0.00000   0.00000  -0.00000   0.02097
   Se     1.93345   5.80036   6.05391  -0.00000  -0.00000  -0.00000
   Se     5.80036   1.93345   6.05391   0.00000  -0.00000   0.00000
   Se     3.86691   3.86691   0.00000  -0.00000  -0.00000  -0.00000
   Se     5.80036   5.80036   6.05391   0.00000   0.00000   0.00000
   O      0.00000   1.93345   3.02696  -0.00000   0.00553  -0.00148
   O      0.00000   5.80036   9.08087   0.00000   0.00553  -0.00148
   O      0.00000   5.80036   3.02696  -0.00000  -0.00553  -0.00148
   O      0.00000   1.93345   9.08087   0.00000  -0.00553  -0.00148
   O      5.80036   0.00000   3.02696   0.00553  -0.00000   0.00148
   O      1.93345   0.00000   9.08087   0.00553   0.00000   0.00148
   O      1.93345   0.00000   3.02696  -0.00553  -0.00000   0.00148
   O      5.80036   0.00000   9.08087  -0.00553   0.00000   0.00148
   O      1.93345   3.86691   9.08087   0.00633  -0.00000  -0.00076
   O      1.93345   3.86691   3.02696  -0.00633   0.00000  -0.00076
   O      3.86691   1.93345   3.02696   0.00000   0.00633   0.00076
   O      3.86691   1.93345   9.08087  -0.00000  -0.00633   0.00076
   O      3.86691   5.80036   3.02696   0.00000  -0.00633   0.00076
   O      3.86691   5.80036   9.08087  -0.00000   0.00633   0.00076
   O      5.80036   3.86691   9.08087  -0.00633  -0.00000  -0.00076
   O      5.80036   3.86691   3.02696   0.00633   0.00000  -0.00076
PRIMCOORD   60
     40   1
   Bi     0.00000   0.00000   4.29699  -0.00000   0.00000   0.02690
   Bi     0.00000   0.00000   7.81084   0.00000  -0.00000   0.02690
   Bi     1.93345   1.93345  10.35090  -0.01868  -0.01868  -0.00072
   Bi     1.93345   1.93345   1.75692   0.01868   0.01868  -0.00072
   Bi     0.00000   3.86691   4.29699  -0.00000  -0.00000   0.00044
   Bi     0.00000   3.86691   7.81084   0.00000   0.00000   0.00044
   Bi     3.86691   0.00000   4.29699   0.00000   0.00000   0.00044
   Bi     3.86691   0.00000   7.81084  -0.00000  -0.00000   0.00044
   Bi     1.93345   5.80036  10.35090  -0.01868   0.01868  -0.00072
   Bi     1.93345   5.80036   1.75692   0.01868  -0.01868  -0.00072
   Bi     5.80036   1.93345  10.35090   0.01868  -0.01868  -0.00072
   Bi     5.80036   1.93345   1.75692  -0.01868   0.01868  -0.00072
   Bi     3.86691   3.86691   4.29699   0.00000  -0.00000  -0.02575
   Bi     3.86691   3.86691   7.81084  -0.00000   0.00000  -0.02575
   Bi     5.80036   5.80036  10.35090   0.01868   0.01868  -0.00072
   Bi     5.80036   5.80036   1.75692  -0.01868  -0.01868  -0.00072
   Se     0.00000   0.00000   0.00000   0.00000   0.00000   0.02233
   Se     1.93345   1.93345   6.05391   0.00000  -0.00000   0.00231
   Se     0.00000   3.86691   0.00000   0.00000   0.00000  -0.00197
   Se     3.86691   0.00000   0.00000  -0.00000  -0.00000  -0.00197
   Se     1.93345   5.80036   6.05391   0.00000   0.00000   0.00231
   Se     5.80036   1.93345   6.05391  -0.00000   0.00000   0.00231
   Se     3.86691   3.86691   0.00000   0.00000   0.00000  -0.02382
   Se     5.80036   5.80036   6.05391  -0.00000  -0.00000   0.00231
   O      0.00000   1.93345   3.02696  -0.00000   0.00575   0.00089
   O      0.00000   5.80036   9.08087   0.00000   0.00575   0.00089
   O      0.00000   5.80036   3.02696  -0.00000  -0.00575   0.00089
   O      0.00000   1.93345   9.08087   0.00000  -0.00575   0.00089
   O      5.80036   0.00000   3.02696  -0.00575   0.00000   0.00089
   O      1.93345   0.00000   9.08087  -0.00575  -0.00000   0.00089
   O      1.93345   0.00000   3.02696   0.00575   0.00000   0.00089
   O      5.80036   0.00000   9.08087   0.00575   0.00000   0.00089
   O      1.93345   3.86691   9.08087  -0.00582   0.00000  -0.00049
   O      1.93345   3.86691   3.02696   0.00582  -0.00000  -0.00049
   O      3.86691   1.93345   3.02696   0.00000   0.00582  -0.00049
   O      3.86691   1.93345   9.08087  -0.00000  -0.00582  -0.00049
   O      3.86691   5.80036   3.02696   0.00000  -0.00582  -0.00049
   O      3.86691   5.80036   9.08087  -0.00000   0.00582  -0.00049
   O      5.80036   3.86691   9.08087   0.00582   0.00000  -0.00049
   O      5.80036   3.86691   3.02696  -0.00582  -0.00000  -0.00049
PRIMCOORD   61
     40   1
   Bi     0.00000   0.00000   4.29699  -0.00011   0.02907  -0.00000
   Bi     0.00000   0.00000   7.81084   0.00011  -0.02907  -0.00000
   Bi     1.93345   1.93345  10.35090   0.00033   0.00012   0.01838
   Bi     1.93345   1.93345   1.75692  -0.00033  -0.00012   0.01838
   Bi     0.00000   3.86691   4.29699  -0.00010  -0.02842  -0.00000
   Bi     0.00000   3.86691   7.81084   0.00010   0.02842  -0.00000
   Bi     3.86691   0.00000   4.29699   0.00011   0.02691   0.00000
   Bi     3.86691   0.00000   7.81084  -0.00011  -0.02691   0.00000
   Bi     1.93345   5.80036  10.35090  -0.00033   0.00012  -0.01852
   Bi     1.93345   5.80036   1.75692   0.00033  -0.00012  -0.01852
   Bi     5.80036   1.93345  10.35090  -0.00033   0.00012   0.01852
   Bi     5.80036   1.93345   1.75692   0.00033  -0.00012   0.01852
   Bi     3.86691   3.86691   4.29699   0.00011  -0.02714   0.00000
   Bi     3.86691   3.86691   7.81084  -0.00011   0.02714   0.00000
   Bi     5.80036   5.80036  10.35090   0.00033   0.00012  -0.01838
   Bi     5.80036   5.80036   1.75692  -0.00033  -0.00012  -0.01838
   Se     0.00000   0.00000   0.00000  -0.00000   0.00000  -0.00000
   Se     1.93345   1.93345   6.05391  -0.00000  -0.00000   0.01049
   Se     0.00000   3.86691   0.00000   0.00000   0.00000  -0.00000
   Se     3.86691   0.00000   0.00000  -0.00000  -0.00000   0.00000
   Se     1.93345   5.80036   6.05391  -0.00000   0.00000  -0.01057
   Se     5.80036   1.93345   6.05391  -0.00000   0.00000   0.01057
   Se     3.86691   3.86691   0.00000   0.00000   0.00000   0.00000
   Se     5.80036   5.80036   6.05391   0.00000   0.00000  -0.01049
   O      0.00000   1.93345   3.02696  -0.00003  -0.00007   0.00149
   O      0.00000   5.80036   9.08087   0.00003   0.00007  -0.00149
   O      0.00000   5.80036   3.02696  -0.00003  -0.00007  -0.00149
   O      0.00000   1.93345   9.08087   0.00003   0.00007   0.00149
   O      5.80036   0.00000   3.02696   0.00000   0.00861   0.00001
   O      1.93345   0.00000   9.08087  -0.00000  -0.00861  -0.00001
   O      1.93345   0.00000   3.02696   0.00000   0.00861  -0.00001
   O      5.80036   0.00000   9.08087  -0.00000  -0.00861   0.00001
   O      1.93345   3.86691   9.08087   0.00000   0.00838  -0.00001
   O      1.93345   3.86691   3.02696  -0.00000  -0.00838  -0.00001
   O      3.86691   1.93345   3.02696   0.00003   0.00076   0.00192
   O      3.86691   1.93345   9.08087  -0.00003  -0.00076   0.00192
   O      3.86691   5.80036   3.02696   0.00003   0.00076  -0.00192
   O      3.86691   5.80036   9.08087  -0.00003  -0.00076  -0.00192
   O      5.80036   3.86691   9.08087   0.00000   0.00838   0.00001
   O      5.80036   3.86691   3.02696  -0.00000  -0.00838   0.00001
PRIMCOORD   62
     40   1
   Bi     0.00000   0.00000   4.29699  -0.02907  -0.00011  -0.00000
   Bi     0.00000   0.00000   7.81084   0.02907   0.00011  -0.00000
   Bi     1.93345   1.93345  10.35090  -0.00012  -0.00033  -0.01852
   Bi     1.93345   1.93345   1.75692   0.00012   0.00033  -0.01852
   Bi     0.00000   3.86691   4.29699  -0.02691   0.00011   0.00000
   Bi     0.00000   3.86691   7.81084   0.02691  -0.00011   0.00000
   Bi     3.86691   0.00000   4.29699   0.02842  -0.00010  -0.00000
   Bi     3.86691   0.00000   7.81084  -0.02842   0.00010  -0.00000
   Bi     1.93345   5.80036  10.35090  -0.00012   0.00033  -0.01838
   Bi     1.93345   5.80036   1.75692   0.00012  -0.00033  -0.01838
   Bi     5.80036   1.93345  10.35090  -0.00012   0.00033   0.01838
   Bi     5.80036   1.93345   1.75692   0.00012  -0.00033   0.01838
   Bi     3.86691   3.86691   4.29699   0.02714   0.00011   0.00000
   Bi     3.86691   3.86691   7.81084  -0.02714  -0.00011   0.00000
   Bi     5.80036   5.80036  10.35090  -0.00012  -0.00033   0.01852
   Bi     5.80036   5.80036   1.75692   0.00012   0.00033   0.01852
   Se     0.00000   0.00000   0.00000  -0.00000  -0.00000  -0.00000
   Se     1.93345   1.93345   6.05391  -0.00000   0.00000  -0.01057
   Se     0.00000   3.86691   0.00000  -0.00000  -0.00000   0.00000
   Se     3.86691   0.00000   0.00000   0.00000   0.00000  -0.00000
   Se     1.93345   5.80036   6.05391   0.00000  -0.00000  -0.01049
   Se     5.80036   1.93345   6.05391  -0.00000  -0.00000   0.01049
   Se     3.86691   3.86691   0.00000   0.00000   0.00000   0.00000
   Se     5.80036   5.80036   6.05391  -0.00000   0.00000   0.01057
   O      0.00000   1.93345   3.02696  -0.00861   0.00000  -0.00001
   O      0.00000   5.80036   9.08087   0.00861  -0.00000   0.00001
   O      0.00000   5.80036   3.02696  -0.00861   0.00000   0.00001
   O      0.00000   1.93345   9.08087   0.00861  -0.00000  -0.00001
   O      5.80036   0.00000   3.02696   0.00007  -0.00003   0.00149
   O      1.93345   0.00000   9.08087  -0.00007   0.00003  -0.00149
   O      1.93345   0.00000   3.02696   0.00007  -0.00003  -0.00149
   O      5.80036   0.00000   9.08087  -0.00007   0.00003   0.00149
   O      1.93345   3.86691   9.08087   0.00076  -0.00003  -0.00192
   O      1.93345   3.86691   3.02696  -0.00076   0.00003  -0.00192
   O      3.86691   1.93345   3.02696   0.00838  -0.00000  -0.00001
   O      3.86691   1.93345   9.08087  -0.00838   0.00000  -0.00001
   O      3.86691   5.80036   3.02696   0.00838  -0.00000   0.00001
   O      3.86691   5.80036   9.08087  -0.00838   0.00000   0.00001
   O      5.80036   3.86691   9.08087   0.00076  -0.00003   0.00192
   O      5.80036   3.86691   3.02696  -0.00076   0.00003   0.00192
PRIMCOORD   63
     40   1
   Bi     0.00000   0.00000   4.29699  -0.00283  -0.02594  -0.00000
   Bi     0.00000   0.00000   7.81084  -0.00283  -0.02594  -0.00000
   Bi     1.93345   1.93345  10.35090   0.02393   0.00227   0.00088
   Bi     1.93345   1.93345   1.75692   0.02393   0.00227  -0.00088
   Bi     0.00000   3.86691   4.29699   0.00265   0.02673  -0.00000
   Bi     0.00000   3.86691   7.81084   0.00265   0.02673  -0.00000
   Bi     3.86691   0.00000   4.29699   0.00292   0.02425   0.00000
   Bi     3.86691   0.00000   7.81084   0.00292   0.02425  -0.00000
   Bi     1.93345   5.80036  10.35090  -0.02401  -0.00297  -0.00071
   Bi     1.93345   5.80036   1.75692  -0.02401  -0.00297   0.00071
   Bi     5.80036   1.93345  10.35090  -0.02401  -0.00297   0.00071
   Bi     5.80036   1.93345   1.75692  -0.02401  -0.00297  -0.00071
   Bi     3.86691   3.86691   4.29699  -0.00257  -0.02355   0.00000
   Bi     3.86691   3.86691   7.81084  -0.00257  -0.02355  -0.00000
   Bi     5.80036   5.80036  10.35090   0.02393   0.00227  -0.00088
   Bi     5.80036   5.80036   1.75692   0.02393   0.00227   0.00088
   Se     0.00000   0.00000   0.00000  -0.00023  -0.00206  -0.00000
   Se     1.93345   1.93345   6.05391   0.00544   0.00140   0.00000
   Se     0.00000   3.86691   0.00000   0.00040   0.00321  -0.00000
   Se     3.86691   0.00000   0.00000   0.00035   0.00368  -0.00000
   Se     1.93345   5.80036   6.05391  -0.00527   0.00023  -0.00000
   Se     5.80036   1.93345   6.05391  -0.00527   0.00023  -0.00000
   Se     3.86691   3.86691   0.00000  -0.00046  -0.00423   0.00000
   Se     5.80036   5.80036   6.05391   0.00544   0.00140  -0.00000
   O      0.00000   1.93345   3.02696  -0.00018  -0.00213  -0.00013
   O      0.00000   5.80036   9.08087  -0.00018  -0.00213  -0.00013
   O      0.00000   5.80036   3.02696  -0.00018  -0.00213   0.00013
   O      0.00000   1.93345   9.08087  -0.00018  -0.00213   0.00013
   O      5.80036   0.00000   3.02696  -0.00023  -0.00167   0.00001
   O      1.93345   0.00000   9.08087  -0.00023  -0.00167   0.00001
   O      1.93345   0.00000   3.02696  -0.00023  -0.00167  -0.00001
   O      5.80036   0.00000   9.08087  -0.00023  -0.00167  -0.00001
   O      1.93345   3.86691   9.08087  -0.00018   0.00010   0.00023
   O      1.93345   3.86691   3.02696  -0.00018   0.00010  -0.00023
   O      3.86691   1.93345   3.02696   0.00001  -0.00161  -0.00207
   O      3.86691   1.93345   9.08087   0.00001  -0.00161   0.00207
   O      3.86691   5.80036   3.02696   0.00001  -0.00161   0.00207
   O      3.86691   5.80036   9.08087   0.00001  -0.00161  -0.00207
   O      5.80036   3.86691   9.08087  -0.00018   0.00010  -0.00023
   O      5.80036   3.86691   3.02696  -0.00018   0.00010   0.00023
PRIMCOORD   64
     40   1
   Bi     0.00000   0.00000   4.29699   0.02594  -0.00283   0.00000
   Bi     0.00000   0.00000   7.81084   0.02594  -0.00283   0.00000
   Bi     1.93345   1.93345  10.35090   0.00297  -0.02401  -0.00071
   Bi     1.93345   1.93345   1.75692   0.00297  -0.02401   0.00071
   Bi     0.00000   3.86691   4.29699  -0.02425   0.00292  -0.00000
   Bi     0.00000   3.86691   7.81084  -0.02425   0.00292   0.00000
   Bi     3.86691   0.00000   4.29699  -0.02673   0.00265  -0.00000
   Bi     3.86691   0.00000   7.81084  -0.02673   0.00265   0.00000
   Bi     1.93345   5.80036  10.35090  -0.00227   0.02393  -0.00088
   Bi     1.93345   5.80036   1.75692  -0.00227   0.02393   0.00088
   Bi     5.80036   1.93345  10.35090  -0.00227   0.02393   0.00088
   Bi     5.80036   1.93345   1.75692  -0.00227   0.02393  -0.00088
   Bi     3.86691   3.86691   4.29699   0.02355  -0.00257  -0.00000
   Bi     3.86691   3.86691   7.81084   0.02355  -0.00257   0.00000
   Bi     5.80036   5.80036  10.35090   0.00297  -0.02401   0.00071
   Bi     5.80036   5.80036   1.75692   0.00297  -0.02401  -0.00071
   Se     0.00000   0.00000   0.00000   0.00206  -0.00023   0.00000
   Se     1.93345   1.93345   6.05391  -0.00023  -0.00527  -0.00000
   Se     0.00000   3.86691   0.00000  -0.00368   0.00035   0.00000
   Se     3.86691   0.00000   0.00000  -0.00321   0.00040   0.00000
   Se     1.93345   5.80036   6.05391  -0.00140   0.00544  -0.00000
   Se     5.80036   1.93345   6.05391  -0.00140   0.00544  -0.00000
   Se     3.86691   3.86691   0.00000   0.00423  -0.00046   0.00000
   Se     5.80036   5.80036   6.05391  -0.00023  -0.00527  -0.00000
   O      0.00000   1.93345   3.02696   0.00167  -0.00023  -0.00001
   O      0.00000   5.80036   9.08087   0.00167  -0.00023  -0.00001
   O      0.00000   5.80036   3.02696   0.00167  -0.00023   0.00001
   O      0.00000   1.93345   9.08087   0.00167  -0.00023   0.00001
   O      5.80036   0.00000   3.02696   0.00213  -0.00018  -0.00013
   O      1.93345   0.00000   9.08087   0.00213  -0.00018  -0.00013
   O      1.93345   0.00000   3.02696   0.00213  -0.00018   0.00013
   O      5.80036   0.00000   9.08087   0.00213  -0.00018   0.00013
   O      1.93345   3.86691   9.08087   0.00161   0.00001  -0.00207
   O      1.93345   3.86691   3.02696   0.00161   0.00001   0.00207
   O      3.86691   1.93345   3.02696  -0.00010  -0.00018  -0.00023
   O      3.86691   1.93345   9.08087  -0.00010  -0.00018   0.00023
   O      3.86691   5.80036   3.02696  -0.00010  -0.00018   0.00023
   O      3.86691   5.80036   9.08087  -0.00010  -0.00018  -0.00023
   O      5.80036   3.86691   9.08087   0.00161   0.00001   0.00207
   O      5.80036   3.86691   3.02696   0.00161   0.00001  -0.00207
PRIMCOORD   65
     40   1
   Bi     0.00000   0.00000   4.29699   0.00145   0.02760  -0.00000
   Bi     0.00000   0.00000   7.81084   0.00145   0.02760   0.00000
   Bi     1.93345   1.93345  10.35090   0.00110  -0.00029  -0.01826
   Bi     1.93345   1.93345   1.75692   0.00110  -0.00029   0.01826
   Bi     0.00000   3.86691   4.29699   0.00154  -0.02736   0.00000
   Bi     0.00000   3.86691   7.81084   0.00154  -0.02736  -0.00000
   Bi     3.86691   0.00000   4.29699  -0.00143   0.02938  -0.00000
   Bi     3.86691   0.00000   7.81084  -0.00143   0.02938   0.00000
   Bi     1.93345   5.80036  10.35090  -0.00114  -0.00041   0.01644
   Bi     1.93345   5.80036   1.75692  -0.00114  -0.00041  -0.01644
   Bi     5.80036   1.93345  10.35090  -0.00114  -0.00041  -0.01644
   Bi     5.80036   1.93345   1.75692  -0.00114  -0.00041   0.01644
   Bi     3.86691   3.86691   4.29699  -0.00153  -0.02914   0.00000
   Bi     3.86691   3.86691   7.81084  -0.00153  -0.02914  -0.00000
   Bi     5.80036   5.80036  10.35090   0.00110  -0.00029   0.01826
   Bi     5.80036   5.80036   1.75692   0.00110  -0.00029  -0.01826
   Se     0.00000   0.00000   0.00000   0.00030   0.00569   0.00000
   Se     1.93345   1.93345   6.05391  -0.00363   0.00018  -0.00000
   Se     0.00000   3.86691   0.00000   0.00074  -0.00448   0.00000
   Se     3.86691   0.00000   0.00000  -0.00023   0.01421   0.00000
   Se     1.93345   5.80036   6.05391   0.00367   0.00056  -0.00000
   Se     5.80036   1.93345   6.05391   0.00367   0.00056   0.00000
   Se     3.86691   3.86691   0.00000  -0.00037  -0.00705  -0.00000
   Se     5.80036   5.80036   6.05391  -0.00363   0.00018   0.00000
   O      0.00000   1.93345   3.02696   0.00044  -0.00203   0.00027
   O      0.00000   5.80036   9.08087   0.00044  -0.00203   0.00027
   O      0.00000   5.80036   3.02696   0.00044  -0.00203  -0.00027
   O      0.00000   1.93345   9.08087   0.00044  -0.00203  -0.00027
   O      5.80036   0.00000   3.02696  -0.00011   0.00833  -0.00001
   O      1.93345   0.00000   9.08087  -0.00011   0.00833  -0.00001
   O      1.93345   0.00000   3.02696  -0.00011   0.00833   0.00001
   O      5.80036   0.00000   9.08087  -0.00011   0.00833   0.00001
   O      1.93345   3.86691   9.08087  -0.00011  -0.01025   0.00011
   O      1.93345   3.86691   3.02696  -0.00011  -0.01025  -0.00011
   O      3.86691   1.93345   3.02696  -0.00054  -0.00213  -0.00219
   O      3.86691   1.93345   9.08087  -0.00054  -0.00213   0.00219
   O      3.86691   5.80036   3.02696  -0.00054  -0.00213   0.00219
   O      3.86691   5.80036   9.08087  -0.00054  -0.00213  -0.00219
   O      5.80036   3.86691   9.08087  -0.00011  -0.01025  -0.00011
   O      5.80036   3.86691   3.02696  -0.00011  -0.01025   0.00011
PRIMCOORD   66
     40   1
   Bi     0.00000   0.00000   4.29699  -0.02760   0.00145   0.00000
   Bi     0.00000   0.00000   7.81084  -0.02760   0.00145  -0.00000
   Bi     1.93345   1.93345  10.35090   0.00041  -0.00114   0.01644
   Bi     1.93345   1.93345   1.75692   0.00041  -0.00114  -0.01644
   Bi     0.00000   3.86691   4.29699  -0.02938  -0.00143  -0.00000
   Bi     0.00000   3.86691   7.81084  -0.02938  -0.00143   0.00000
   Bi     3.86691   0.00000   4.29699   0.02736   0.00154  -0.00000
   Bi     3.86691   0.00000   7.81084   0.02736   0.00154  -0.00000
   Bi     1.93345   5.80036  10.35090   0.00029   0.00110   0.01826
   Bi     1.93345   5.80036   1.75692   0.00029   0.00110  -0.01826
   Bi     5.80036   1.93345  10.35090   0.00029   0.00110  -0.01826
   Bi     5.80036   1.93345   1.75692   0.00029   0.00110   0.01826
   Bi     3.86691   3.86691   4.29699   0.02914  -0.00153  -0.00000
   Bi     3.86691   3.86691   7.81084   0.02914  -0.00153   0.00000
   Bi     5.80036   5.80036  10.35090   0.00041  -0.00114  -0.01644
   Bi     5.80036   5.80036   1.75692   0.00041  -0.00114   0.01644
   Se     0.00000   0.00000   0.00000  -0.00569   0.00030  -0.00000
   Se     1.93345   1.93345   6.05391  -0.00056   0.00367   0.00000
   Se     0.00000   3.86691   0.00000  -0.01421  -0.00023  -0.00000
   Se     3.86691   0.00000   0.00000   0.00448   0.00074  -0.00000
   Se     1.93345   5.80036   6.05391  -0.00018  -0.00363   0.00000
   Se     5.80036   1.93345   6.05391  -0.00018  -0.00363   0.00000
   Se     3.86691   3.86691   0.00000   0.00705  -0.00037  -0.00000
   Se     5.80036   5.80036   6.05391  -0.00056   0.00367   0.00000
   O      0.00000   1.93345   3.02696  -0.00833  -0.00011   0.00001
   O      0.00000   5.80036   9.08087  -0.00833  -0.00011   0.00001
   O      0.00000   5.80036   3.02696  -0.00833  -0.00011  -0.00001
   O      0.00000   1.93345   9.08087  -0.00833  -0.00011  -0.00001
   O      5.80036   0.00000   3.02696   0.00203   0.00044   0.00027
   O      1.93345   0.00000   9.08087   0.00203   0.00044   0.00027
   O      1.93345   0.00000   3.02696   0.00203   0.00044  -0.00027
   O      5.80036   0.00000   9.08087   0.00203   0.00044  -0.00027
   O      1.93345   3.86691   9.08087   0.00213  -0.00054  -0.00219
   O      1.93345   3.86691   3.02696   0.00213  -0.00054   0.00219
   O      3.86691   1.93345   3.02696   0.01025  -0.00011  -0.00011
   O      3.86691   1.93345   9.08087   0.01025  -0.00011   0.00011
   O      3.86691   5.80036   3.02696   0.01025  -0.00011   0.00011
   O      3.86691   5.80036   9.08087   0.01025  -0.00011  -0.00011
   O      5.80036   3.86691   9.08087   0.00213  -0.00054   0.00219
   O      5.80036   3.86691   3.02696   0.00213  -0.00054  -0.00219
PRIMCOORD   67
     40   1
   Bi     0.00000   0.00000   4.29699  -0.00000  -0.00000  -0.02477
   Bi     0.00000   0.00000   7.81084  -0.00000  -0.00000   0.02477
   Bi     1.93345   1.93345  10.35090  -0.02043  -0.02043  -0.00055
   Bi     1.93345   1.93345   1.75692  -0.02043  -0.02043   0.00055
   Bi     0.00000   3.86691   4.29699  -0.00000   0.00000  -0.00020
   Bi     0.00000   3.86691   7.81084  -0.00000   0.00000   0.00020
   Bi     3.86691   0.00000   4.29699   0.00000  -0.00000  -0.00020
   Bi     3.86691   0.00000   7.81084   0.00000  -0.00000   0.00020
   Bi     1.93345   5.80036  10.35090  -0.02043   0.02043  -0.00055
   Bi     1.93345   5.80036   1.75692  -0.02043   0.02043   0.00055
   Bi     5.80036   1.93345  10.35090   0.02043  -0.02043  -0.00055
   Bi     5.80036   1.93345   1.75692   0.02043  -0.02043   0.00055
   Bi     3.86691   3.86691   4.29699   0.00000   0.00000   0.02406
   Bi     3.86691   3.86691   7.81084   0.00000   0.00000  -0.02406
   Bi     5.80036   5.80036  10.35090   0.02043   0.02043  -0.00055
   Bi     5.80036   5.80036   1.75692   0.02043   0.02043   0.00055
   Se     0.00000   0.00000   0.00000  -0.00000  -0.00000  -0.00000
   Se     1.93345   1.93345   6.05391  -0.00590  -0.00590   0.00000
   Se     0.00000   3.86691   0.00000  -0.00000   0.00000   0.00000
   Se     3.86691   0.00000   0.00000   0.00000  -0.00000  -0.00000
   Se     1.93345   5.80036   6.05391  -0.00590   0.00590   0.00000
   Se     5.80036   1.93345   6.05391   0.00590  -0.00590  -0.00000
   Se     3.86691   3.86691   0.00000   0.00000   0.00000  -0.00000
   Se     5.80036   5.80036   6.05391   0.00590   0.00590  -0.00000
   O      0.00000   1.93345   3.02696  -0.00000  -0.00658  -0.00015
   O      0.00000   5.80036   9.08087  -0.00000   0.00658   0.00015
   O      0.00000   5.80036   3.02696  -0.00000   0.00658  -0.00015
   O      0.00000   1.93345   9.08087  -0.00000  -0.00658   0.00015
   O      5.80036   0.00000   3.02696   0.00658  -0.00000  -0.00015
   O      1.93345   0.00000   9.08087  -0.00658  -0.00000   0.00015
   O      1.93345   0.00000   3.02696  -0.00658  -0.00000  -0.00015
   O      5.80036   0.00000   9.08087   0.00658  -0.00000   0.00015
   O      1.93345   3.86691   9.08087  -0.00620   0.00000   0.00010
   O      1.93345   3.86691   3.02696  -0.00620   0.00000  -0.00010
   O      3.86691   1.93345   3.02696   0.00000  -0.00620  -0.00010
   O      3.86691   1.93345   9.08087   0.00000  -0.00620   0.00010
   O      3.86691   5.80036   3.02696   0.00000   0.00620  -0.00010
   O      3.86691   5.80036   9.08087   0.00000   0.00620   0.00010
   O      5.80036   3.86691   9.08087   0.00620   0.00000   0.00010
   O      5.80036   3.86691   3.02696   0.00620   0.00000  -0.00010
PRIMCOORD   68
     40   1
   Bi     0.00000   0.00000   4.29699   0.00000   0.00000  -0.00000
   Bi     0.00000   0.00000   7.81084   0.00000   0.00000   0.00000
   Bi     1.93345   1.93345  10.35090  -0.02014   0.02014  -0.00000
   Bi     1.93345   1.93345   1.75692  -0.02014   0.02014   0.00000
   Bi     0.00000   3.86691   4.29699   0.00000  -0.00000  -0.02443
   Bi     0.00000   3.86691   7.81084   0.00000  -0.00000   0.02443
   Bi     3.86691   0.00000   4.29699  -0.00000   0.00000   0.02443
   Bi     3.86691   0.00000   7.81084  -0.00000   0.00000  -0.02443
   Bi     1.93345   5.80036  10.35090  -0.02014  -0.02014   0.00000
   Bi     1.93345   5.80036   1.75692  -0.02014  -0.02014   0.00000
   Bi     5.80036   1.93345  10.35090   0.02014   0.02014  -0.00000
   Bi     5.80036   1.93345   1.75692   0.02014   0.02014   0.00000
   Bi     3.86691   3.86691   4.29699  -0.00000  -0.00000   0.00000
   Bi     3.86691   3.86691   7.81084  -0.00000  -0.00000  -0.00000
   Bi     5.80036   5.80036  10.35090   0.02014  -0.02014   0.00000
   Bi     5.80036   5.80036   1.75692   0.02014  -0.02014  -0.00000
   Se     0.00000   0.00000   0.00000  -0.00000   0.00000   0.00000
   Se     1.93345   1.93345   6.05391  -0.00895   0.00895  -0.00000
   Se     0.00000   3.86691   0.00000   0.00000  -0.00000   0.00000
   Se     3.86691   0.00000   0.00000   0.00000   0.00000   0.00000
   Se     1.93345   5.80036   6.05391  -0.00895  -0.00895  -0.00000
   Se     5.80036   1.93345   6.05391   0.00895   0.00895  -0.00000
   Se     3.86691   3.86691   0.00000   0.00000  -0.00000   0.00000
   Se     5.80036   5.80036   6.05391   0.00895  -0.00895  -0.00000
   O      0.00000   1.93345   3.02696   0.00000   0.00612   0.00047
   O      0.00000   5.80036   9.08087   0.00000  -0.00612  -0.00047
   O      0.00000   5.80036   3.02696   0.00000  -0.00612   0.00047
   O      0.00000   1.93345   9.08087   0.00000   0.00612  -0.00047
   O      5.80036   0.00000   3.02696   0.00612   0.00000  -0.00047
   O      1.93345   0.00000   9.08087  -0.00612   0.00000   0.00047
   O      1.93345   0.00000   3.02696  -0.00612   0.00000  -0.00047
   O      5.80036   0.00000   9.08087   0.00612   0.00000   0.00047
   O      1.93345   3.86691   9.08087  -0.00475  -0.00000  -0.00003
   O      1.93345   3.86691   3.02696  -0.00475  -0.00000   0.00003
   O      3.86691   1.93345   3.02696  -0.00000   0.00475  -0.00003
   O      3.86691   1.93345   9.08087  -0.00000   0.00475   0.00003
   O      3.86691   5.80036   3.02696  -0.00000  -0.00475  -0.00003
   O      3.86691   5.80036   9.08087  -0.00000  -0.00475   0.00003
   O      5.80036   3.86691   9.08087   0.00475  -0.00000  -0.00003
   O      5.80036   3.86691   3.02696   0.00475  -0.00000   0.00003
PRIMCOORD   69
     40   1
   Bi     0.00000   0.00000   4.29699  -0.00031  -0.02412   0.00000
   Bi     0.00000   0.00000   7.81084   0.00031   0.02412  -0.00000
   Bi     1.93345   1.93345  10.35090  -0.02491  -0.00037   0.00036
   Bi     1.93345   1.93345   1.75692   0.02491   0.00037   0.00036
   Bi     0.00000   3.86691   4.29699   0.00033   0.02415  -0.00000
   Bi     0.00000   3.86691   7.81084  -0.00033  -0.02415   0.00000
   Bi     3.86691   0.00000   4.29699   0.00031   0.02583   0.00000
   Bi     3.86691   0.00000   7.81084  -0.00031  -0.02583  -0.00000
   Bi     1.93345   5.80036  10.35090   0.02491   0.00027  -0.00035
   Bi     1.93345   5.80036   1.75692  -0.02491  -0.00027  -0.00035
   Bi     5.80036   1.93345  10.35090   0.02491   0.00027   0.00035
   Bi     5.80036   1.93345   1.75692  -0.02491  -0.00027   0.00035
   Bi     3.86691   3.86691   4.29699  -0.00033  -0.02566  -0.00000
   Bi     3.86691   3.86691   7.81084   0.00033   0.02566   0.00000
   Bi     5.80036   5.80036  10.35090  -0.02491  -0.00037  -0.00036
   Bi     5.80036   5.80036   1.75692   0.02491   0.00037  -0.00036
   Se     0.00000   0.00000   0.00000   0.00000   0.00000  -0.00000
   Se     1.93345   1.93345   6.05391  -0.00000   0.00000   0.00047
   Se     0.00000   3.86691   0.00000   0.00000  -0.00000  -0.00000
   Se     3.86691   0.00000   0.00000  -0.00000   0.00000   0.00000
   Se     1.93345   5.80036   6.05391   0.00000   0.00000  -0.00046
   Se     5.80036   1.93345   6.05391   0.00000   0.00000   0.00046
   Se     3.86691   3.86691   0.00000  -0.00000  -0.00000   0.00000
   Se     5.80036   5.80036   6.05391  -0.00000   0.00000  -0.00047
   O      0.00000   1.93345   3.02696   0.00000   0.00042   0.00340
   O      0.00000   5.80036   9.08087  -0.00000  -0.00042  -0.00340
   O      0.00000   5.80036   3.02696   0.00000   0.00042  -0.00340
   O      0.00000   1.93345   9.08087  -0.00000  -0.00042   0.00340
   O      5.80036   0.00000   3.02696   0.00001   0.00024  -0.00004
   O      1.93345   0.00000   9.08087  -0.00001  -0.00024   0.00004
   O      1.93345   0.00000   3.02696   0.00001   0.00024   0.00004
   O      5.80036   0.00000   9.08087  -0.00001  -0.00024  -0.00004
   O      1.93345   3.86691   9.08087  -0.00000  -0.00079  -0.00000
   O      1.93345   3.86691   3.02696   0.00000   0.00079  -0.00000
   O      3.86691   1.93345   3.02696   0.00001   0.00006  -0.00039
   O      3.86691   1.93345   9.08087  -0.00001  -0.00006  -0.00039
   O      3.86691   5.80036   3.02696   0.00001   0.00006   0.00039
   O      3.86691   5.80036   9.08087  -0.00001  -0.00006   0.00039
   O      5.80036   3.86691   9.08087  -0.00000  -0.00079   0.00000
   O      5.80036   3.86691   3.02696   0.00000   0.00079   0.00000
PRIMCOORD   70
     40   1
   Bi     0.00000   0.00000   4.29699   0.02412  -0.00031  -0.00000
   Bi     0.00000   0.00000   7.81084  -0.02412   0.00031   0.00000
   Bi     1.93345   1.93345  10.35090  -0.00027   0.02491  -0.00035
   Bi     1.93345   1.93345   1.75692   0.00027  -0.02491  -0.00035
   Bi     0.00000   3.86691   4.29699  -0.02583   0.00031  -0.00000
   Bi     0.00000   3.86691   7.81084   0.02583  -0.00031   0.00000
   Bi     3.86691   0.00000   4.29699  -0.02415   0.00033  -0.00000
   Bi     3.86691   0.00000   7.81084   0.02415  -0.00033   0.00000
   Bi     1.93345   5.80036  10.35090   0.00037  -0.02491  -0.00036
   Bi     1.93345   5.80036   1.75692  -0.00037   0.02491  -0.00036
   Bi     5.80036   1.93345  10.35090   0.00037  -0.02491   0.00036
   Bi     5.80036   1.93345   1.75692  -0.00037   0.02491   0.00036
   Bi     3.86691   3.86691   4.29699   0.02566  -0.00033  -0.00000
   Bi     3.86691   3.86691   7.81084  -0.02566   0.00033   0.00000
   Bi     5.80036   5.80036  10.35090  -0.00027   0.02491   0.00035
   Bi     5.80036   5.80036   1.75692   0.00027  -0.02491   0.00035
   Se     0.00000   0.00000   0.00000  -0.00000   0.00000   0.00000
   Se     1.93345   1.93345   6.05391  -0.00000  -0.00000  -0.00046
   Se     0.00000   3.86691   0.00000  -0.00000  -0.00000   0.00000
   Se     3.86691   0.00000   0.00000  -0.00000  -0.00000   0.00000
   Se     1.93345   5.80036   6.05391  -0.00000   0.00000  -0.00047
   Se     5.80036   1.93345   6.05391  -0.00000   0.00000   0.00047
   Se     3.86691   3.86691   0.00000   0.00000   0.00000   0.00000
   Se     5.80036   5.80036   6.05391  -0.00000  -0.00000   0.00046
   O      0.00000   1.93345   3.02696  -0.00024   0.00001   0.00004
   O      0.00000   5.80036   9.08087   0.00024  -0.00001  -0.00004
   O      0.00000   5.80036   3.02696  -0.00024   0.00001  -0.00004
   O      0.00000   1.93345   9.08087   0.00024  -0.00001   0.00004
   O      5.80036   0.00000   3.02696  -0.00042   0.00000   0.00340
   O      1.93345   0.00000   9.08087   0.00042  -0.00000  -0.00340
   O      1.93345   0.00000   3.02696  -0.00042   0.00000  -0.00340
   O      5.80036   0.00000   9.08087   0.00042  -0.00000   0.00340
   O      1.93345   3.86691   9.08087   0.00006  -0.00001   0.00039
   O      1.93345   3.86691   3.02696  -0.00006   0.00001   0.00039
   O      3.86691   1.93345   3.02696  -0.00079   0.00000  -0.00000
   O      3.86691   1.93345   9.08087   0.00079  -0.00000  -0.00000
   O      3.86691   5.80036   3.02696  -0.00079   0.00000   0.00000
   O      3.86691   5.80036   9.08087   0.00079  -0.00000   0.00000
   O      5.80036   3.86691   9.08087   0.00006  -0.00001  -0.00039
   O      5.80036   3.86691   3.02696  -0.00006   0.00001  -0.00039
PRIMCOORD   71
     40   1
   Bi     0.00000   0.00000   4.29699   0.00000   0.00000  -0.01818
   Bi     0.00000   0.00000   7.81084   0.00000  -0.00000  -0.01818
   Bi     1.93345   1.93345  10.35090  -0.00012  -0.00012   0.01827
   Bi     1.93345   1.93345   1.75692   0.00012   0.00012   0.01827
   Bi     0.00000   3.86691   4.29699  -0.00000  -0.00000  -0.01884
   Bi     0.00000   3.86691   7.81084   0.00000   0.00000  -0.01884
   Bi     3.86691   0.00000   4.29699  -0.00000  -0.00000  -0.01884
   Bi     3.86691   0.00000   7.81084  -0.00000  -0.00000  -0.01884
   Bi     1.93345   5.80036  10.35090  -0.00012   0.00012   0.01827
   Bi     1.93345   5.80036   1.75692   0.00012  -0.00012   0.01827
   Bi     5.80036   1.93345  10.35090   0.00012  -0.00012   0.01827
   Bi     5.80036   1.93345   1.75692  -0.00012   0.00012   0.01827
   Bi     3.86691   3.86691   4.29699   0.00000   0.00000  -0.01846
   Bi     3.86691   3.86691   7.81084  -0.00000  -0.00000  -0.01846
   Bi     5.80036   5.80036  10.35090   0.00012   0.00012   0.01827
   Bi     5.80036   5.80036   1.75692  -0.00012  -0.00012   0.01827
   Se     0.00000   0.00000   0.00000   0.00000   0.00000  -0.02339
   Se     1.93345   1.93345   6.05391   0.00000  -0.00000   0.02448
   Se     0.00000   3.86691   0.00000   0.00000  -0.00000  -0.02335
   Se     3.86691   0.00000   0.00000  -0.00000  -0.00000  -0.02335
   Se     1.93345   5.80036   6.05391   0.00000   0.00000   0.02448
   Se     5.80036   1.93345   6.05391   0.00000   0.00000   0.02448
   Se     3.86691   3.86691   0.00000  -0.00000   0.00000  -0.02297
   Se     5.80036   5.80036   6.05391  -0.00000  -0.00000   0.02448
   O      0.00000   1.93345   3.02696  -0.00000   0.00006   0.00054
   O      0.00000   5.80036   9.08087   0.00000   0.00006   0.00054
   O      0.00000   5.80036   3.02696  -0.00000  -0.00006   0.00054
   O      0.00000   1.93345   9.08087  -0.00000  -0.00006   0.00054
   O      5.80036   0.00000   3.02696  -0.00006  -0.00000   0.00054
   O      1.93345   0.00000   9.08087  -0.00006   0.00000   0.00054
   O      1.93345   0.00000   3.02696   0.00006  -0.00000   0.00054
   O      5.80036   0.00000   9.08087   0.00006   0.00000   0.00054
   O      1.93345   3.86691   9.08087   0.00009  -0.00000   0.00055
   O      1.93345   3.86691   3.02696  -0.00009  -0.00000   0.00055
   O      3.86691   1.93345   3.02696  -0.00000  -0.00009   0.00055
   O      3.86691   1.93345   9.08087  -0.00000   0.00009   0.00055
   O      3.86691   5.80036   3.02696  -0.00000   0.00009   0.00055
   O      3.86691   5.80036   9.08087  -0.00000  -0.00009   0.00055
   O      5.80036   3.86691   9.08087  -0.00009  -0.00000   0.00055
   O      5.80036   3.86691   3.02696   0.00009  -0.00000   0.00055
PRIMCOORD   72
     40   1
   Bi     0.00000   0.00000   4.29699  -0.00000   0.00000  -0.02479
   Bi     0.00000   0.00000   7.81084   0.00000   0.00000   0.02479
   Bi     1.93345   1.93345  10.35090   0.00038   0.00038  -0.02491
   Bi     1.93345   1.93345   1.75692   0.00038   0.00038   0.02491
   Bi     0.00000   3.86691   4.29699   0.00000  -0.00000  -0.02495
   Bi     0.00000   3.86691   7.81084   0.00000  -0.00000   0.02495
   Bi     3.86691   0.00000   4.29699   0.00000  -0.00000  -0.02495
   Bi     3.86691   0.00000   7.81084  -0.00000   0.00000   0.02495
   Bi     1.93345   5.80036  10.35090   0.00038  -0.00038  -0.02491
   Bi     1.93345   5.80036   1.75692   0.00038  -0.00038   0.02491
   Bi     5.80036   1.93345  10.35090  -0.00038   0.00038  -0.02491
   Bi     5.80036   1.93345   1.75692  -0.00038   0.00038   0.02491
   Bi     3.86691   3.86691   4.29699  -0.00000  -0.00000  -0.02564
   Bi     3.86691   3.86691   7.81084  -0.00000  -0.00000   0.02564
   Bi     5.80036   5.80036  10.35090  -0.00038  -0.00038  -0.02491
   Bi     5.80036   5.80036   1.75692  -0.00038  -0.00038   0.02491
   Se     0.00000   0.00000   0.00000  -0.00000   0.00000   0.00000
   Se     1.93345   1.93345   6.05391  -0.00000  -0.00000  -0.00000
   Se     0.00000   3.86691   0.00000   0.00000  -0.00000   0.00000
   Se     3.86691   0.00000   0.00000   0.00000   0.00000   0.00000
   Se     1.93345   5.80036   6.05391  -0.00000   0.00000  -0.00000
   Se     5.80036   1.93345   6.05391   0.00000  -0.00000  -0.00000
   Se     3.86691   3.86691   0.00000  -0.00000  -0.00000   0.00000
   Se     5.80036   5.80036   6.05391   0.00000   0.00000  -0.00000
   O      0.00000   1.93345   3.02696  -0.00000   0.00008  -0.00038
   O      0.00000   5.80036   9.08087  -0.00000  -0.00008   0.00038
   O      0.00000   5.80036   3.02696   0.00000  -0.00008  -0.00038
   O      0.00000   1.93345   9.08087   0.00000   0.00008   0.00038
   O      5.80036   0.00000   3.02696  -0.00008  -0.00000  -0.00038
   O      1.93345   0.00000   9.08087   0.00008   0.00000   0.00038
   O      1.93345   0.00000   3.02696   0.00008   0.00000  -0.00038
   O      5.80036   0.00000   9.08087  -0.00008   0.00000   0.00038
   O      1.93345   3.86691   9.08087   0.00009   0.00000  -0.00007
   O      1.93345   3.86691   3.02696   0.00009  -0.00000   0.00007
   O      3.86691   1.93345   3.02696  -0.00000   0.00009   0.00007
   O      3.86691   1.93345   9.08087  -0.00000   0.00009  -0.00007
   O      3.86691   5.80036   3.02696  -0.00000  -0.00009   0.00007
   O      3.86691   5.80036   9.08087   0.00000  -0.00009  -0.00007
   O      5.80036   3.86691   9.08087  -0.00009  -0.00000  -0.00007
   O      5.80036   3.86691   3.02696  -0.00009   0.00000   0.00007
PRIMCOORD   73
     40   1
   Bi     0.00000   0.00000   4.29699  -0.00000  -0.00000   0.00000
   Bi     0.00000   0.00000   7.81084  -0.00000  -0.00000  -0.00000
   Bi     1.93345   1.93345  10.35090   0.00000  -0.00000   0.00000
   Bi     1.93345   1.93345   1.75692  -0.00000   0.00000  -0.00000
   Bi     0.00000   3.86691   4.29699   0.00000  -0.00000  -0.00000
   Bi     0.00000   3.86691   7.81084  -0.00000   0.00000  -0.00000
   Bi     3.86691   0.00000   4.29699   0.00000  -0.00000   0.00000
   Bi     3.86691   0.00000   7.81084   0.00000   0.00000   0.00000
   Bi     1.93345   5.80036  10.35090  -0.00000  -0.00000   0.00000
   Bi     1.93345   5.80036   1.75692   0.00000   0.00000  -0.00000
   Bi     5.80036   1.93345  10.35090   0.00000   0.00000  -0.00000
   Bi     5.80036   1.93345   1.75692  -0.00000  -0.00000   0.00000
   Bi     3.86691   3.86691   4.29699  -0.00000  -0.00000   0.00000
   Bi     3.86691   3.86691   7.81084   0.00000   0.00000  -0.00000
   Bi     5.80036   5.80036  10.35090  -0.00000   0.00000  -0.00000
   Bi     5.80036   5.80036   1.75692   0.00000  -0.00000  -0.00000
   Se     0.00000   0.00000   0.00000   0.00000  -0.00000   0.00000
   Se     1.93345   1.93345   6.05391   0.00000  -0.00000   0.00000
   Se     0.00000   3.86691   0.00000   0.00000   0.00000   0.00000
   Se     3.86691   0.00000   0.00000  -0.00000  -0.00000   0.00000
   Se     1.93345   5.80036   6.05391   0.00000  -0.00000   0.00000
   Se     5.80036   1.93345   6.05391  -0.00000  -0.00000   0.00000
   Se     3.86691   3.86691   0.00000  -0.00000  -0.00000  -0.00000
   Se     5.80036   5.80036   6.05391   0.00000  -0.00000   0.00000
   O      0.00000   1.93345   3.02696  -0.02500   0.00000   0.00000
   O      0.00000   5.80036   9.08087  -0.02500   0.00000   0.00000
   O      0.00000   5.80036   3.02696   0.02500   0.00000   0.00000
   O      0.00000   1.93345   9.08087   0.02500   0.00000  -0.00000
   O      5.80036   0.00000   3.02696  -0.00000  -0.02500   0.00000
   O      1.93345   0.00000   9.08087  -0.00000  -0.02500   0.00000
   O      1.93345   0.00000   3.02696  -0.00000   0.02500  -0.00000
   O      5.80036   0.00000   9.08087  -0.00000   0.02500  -0.00000
   O      1.93345   3.86691   9.08087  -0.00000   0.02500   0.00000
   O      1.93345   3.86691   3.02696  -0.00000  -0.02500  -0.00000
   O      3.86691   1.93345   3.02696   0.02500   0.00000  -0.00000
   O      3.86691   1.93345   9.08087  -0.02500  -0.00000   0.00000
   O      3.86691   5.80036   3.02696  -0.02500   0.00000   0.00000
   O      3.86691   5.80036   9.08087   0.02500  -0.00000   0.00000
   O      5.80036   3.86691   9.08087  -0.00000  -0.02500  -0.00000
   O      5.80036   3.86691   3.02696  -0.00000   0.02500   0.00000
PRIMCOORD   74
     40   1
   Bi     0.00000   0.00000   4.29699   0.00000  -0.00000  -0.00000
   Bi     0.00000   0.00000   7.81084  -0.00000  -0.00000  -0.00000
   Bi     1.93345   1.93345  10.35090  -0.00001   0.00001  -0.00000
   Bi     1.93345   1.93345   1.75692   0.00001  -0.00001   0.00000
   Bi     0.00000   3.86691   4.29699  -0.00000   0.00000   0.00008
   Bi     0.00000   3.86691   7.81084   0.00000  -0.00000   0.00008
   Bi     3.86691   0.00000   4.29699  -0.00000  -0.00000  -0.00008
   Bi     3.86691   0.00000   7.81084  -0.00000  -0.00000  -0.00008
   Bi     1.93345   5.80036  10.35090  -0.00001  -0.00001  -0.00000
   Bi     1.93345   5.80036   1.75692   0.00001   0.00001   0.00000
   Bi     5.80036   1.93345  10.35090   0.00001   0.00001   0.00000
   Bi     5.80036   1.93345   1.75692  -0.00001  -0.00001   0.00000
   Bi     3.86691   3.86691   4.29699  -0.00000   0.00000  -0.00000
   Bi     3.86691   3.86691   7.81084  -0.00000  -0.00000  -0.00000
   Bi     5.80036   5.80036  10.35090   0.00001  -0.00001   0.00000
   Bi     5.80036   5.80036   1.75692  -0.00001   0.00001   0.00000
   Se     0.00000   0.00000   0.00000  -0.00000  -0.00000  -0.00000
   Se     1.93345   1.93345   6.05391  -0.00000  -0.00000   0.00000
   Se     0.00000   3.86691   0.00000  -0.00000  -0.00000  -0.00002
   Se     3.86691   0.00000   0.00000  -0.00000  -0.00000   0.00002
   Se     1.93345   5.80036   6.05391  -0.00000  -0.00000   0.00000
   Se     5.80036   1.93345   6.05391  -0.00000  -0.00000   0.00000
   Se     3.86691   3.86691   0.00000  -0.00000  -0.00000  -0.00000
   Se     5.80036   5.80036   6.05391  -0.00000  -0.00000   0.00000
   O      0.00000   1.93345   3.02696  -0.00000  -0.02500  -0.00002
   O      0.00000   5.80036   9.08087   0.00000  -0.02500  -0.00002
   O      0.00000   5.80036   3.02696   0.00000   0.02500  -0.00002
   O      0.00000   1.93345   9.08087   0.00000   0.02500  -0.00002
   O      5.80036   0.00000   3.02696  -0.02500  -0.00000   0.00002
   O      1.93345   0.00000   9.08087  -0.02500   0.00000   0.00002
   O      1.93345   0.00000   3.02696   0.02500   0.00000   0.00002
   O      5.80036   0.00000   9.08087   0.02500  -0.00000   0.00002
   O      1.93345   3.86691   9.08087   0.02499   0.00000  -0.00016
   O      1.93345   3.86691   3.02696  -0.02499  -0.00000  -0.00016
   O      3.86691   1.93345   3.02696   0.00000   0.02499   0.00016
   O      3.86691   1.93345   9.08087   0.00000  -0.02499   0.00016
   O      3.86691   5.80036   3.02696  -0.00000  -0.02499   0.00016
   O      3.86691   5.80036   9.08087   0.00000   0.02499   0.00016
   O      5.80036   3.86691   9.08087  -0.02499   0.00000  -0.00016
   O      5.80036   3.86691   3.02696   0.02499   0.00000  -0.00016
PRIMCOORD   75
     40   1
   Bi     0.00000   0.00000   4.29699   0.00000   0.00000   0.00000
   Bi     0.00000   0.00000   7.81084   0.00000   0.00000   0.00000
   Bi     1.93345   1.93345  10.35090   0.00005  -0.00005   0.00000
   Bi     1.93345   1.93345   1.75692   0.00005  -0.00005   0.00000
   Bi     0.00000   3.86691   4.29699   0.00000   0.00000   0.00004
   Bi     0.00000   3.86691   7.81084   0.00000   0.00000  -0.00004
   Bi     3.86691   0.00000   4.29699  -0.00000   0.00000  -0.00004
   Bi     3.86691   0.00000   7.81084   0.00000   0.00000   0.00004
   Bi     1.93345   5.80036  10.35090   0.00005   0.00005   0.00000
   Bi     1.93345   5.80036   1.75692   0.00005   0.00005   0.00000
   Bi     5.80036   1.93345  10.35090  -0.00005  -0.00005   0.00000
   Bi     5.80036   1.93345   1.75692  -0.00005  -0.00005  -0.00000
   Bi     3.86691   3.86691   4.29699  -0.00000   0.00000   0.00000
   Bi     3.86691   3.86691   7.81084   0.00000   0.00000  -0.00000
   Bi     5.80036   5.80036  10.35090  -0.00005   0.00005   0.00000
   Bi     5.80036   5.80036   1.75692  -0.00005   0.00005   0.00000
   Se     0.00000   0.00000   0.00000   0.00000   0.00000   0.00000
   Se     1.93345   1.93345   6.05391   0.00002  -0.00002  -0.00000
   Se     0.00000   3.86691   0.00000   0.00000   0.00000   0.00000
   Se     3.86691   0.00000   0.00000   0.00000   0.00000   0.00000
   Se     1.93345   5.80036   6.05391   0.00002   0.00002  -0.00000
   Se     5.80036   1.93345   6.05391  -0.00002  -0.00002  -0.00000
   Se     3.86691   3.86691   0.00000   0.00000   0.00000   0.00000
   Se     5.80036   5.80036   6.05391  -0.00002   0.00002  -0.00000
   O      0.00000   1.93345   3.02696  -0.00000   0.02501  -0.00008
   O      0.00000   5.80036   9.08087   0.00000  -0.02501   0.00008
   O      0.00000   5.80036   3.02696   0.00000  -0.02501  -0.00008
   O      0.00000   1.93345   9.08087  -0.00000   0.02501   0.00008
   O      5.80036   0.00000   3.02696   0.02501  -0.00000   0.00008
   O      1.93345   0.00000   9.08087  -0.02501   0.00000  -0.00008
   O      1.93345   0.00000   3.02696  -0.02501  -0.00000   0.00008
   O      5.80036   0.00000   9.08087   0.02501  -0.00000  -0.00008
   O      1.93345   3.86691   9.08087   0.02499  -0.00000   0.00010
   O      1.93345   3.86691   3.02696   0.02499  -0.00000  -0.00010
   O      3.86691   1.93345   3.02696   0.00000  -0.02499   0.00010
   O      3.86691   1.93345   9.08087   0.00000  -0.02499  -0.00010
   O      3.86691   5.80036   3.02696  -0.00000   0.02499   0.00010
   O      3.86691   5.80036   9.08087  -0.00000   0.02499  -0.00010
   O      5.80036   3.86691   9.08087  -0.02499   0.00000   0.00010
   O      5.80036   3.86691   3.02696  -0.02499  -0.00000  -0.00010
PRIMCOORD   76
     40   1
   Bi     0.00000   0.00000   4.29699  -0.00000  -0.00000  -0.00000
   Bi     0.00000   0.00000   7.81084  -0.00000  -0.00000  -0.00000
   Bi     1.93345   1.93345  10.35090  -0.00000   0.00000  -0.00000
   Bi     1.93345   1.93345   1.75692  -0.00000   0.00000   0.00000
   Bi     0.00000   3.86691   4.29699  -0.00000  -0.00000   0.00000
   Bi     0.00000   3.86691   7.81084  -0.00000  -0.00000   0.00000
   Bi     3.86691   0.00000   4.29699   0.00000  -0.00000   0.00000
   Bi     3.86691   0.00000   7.81084  -0.00000  -0.00000   0.00000
   Bi     1.93345   5.80036  10.35090   0.00000   0.00000   0.00000
   Bi     1.93345   5.80036   1.75692   0.00000   0.00000   0.00000
   Bi     5.80036   1.93345  10.35090  -0.00000  -0.00000  -0.00000
   Bi     5.80036   1.93345   1.75692  -0.00000  -0.00000   0.00000
   Bi     3.86691   3.86691   4.29699  -0.00000  -0.00000  -0.00000
   Bi     3.86691   3.86691   7.81084  -0.00000  -0.00000   0.00000
   Bi     5.80036   5.80036  10.35090   0.00000  -0.00000  -0.00000
   Bi     5.80036   5.80036   1.75692   0.00000  -0.00000   0.00000
   Se     0.00000   0.00000   0.00000  -0.00000  -0.00000   0.00000
   Se     1.93345   1.93345   6.05391  -0.00000   0.00000   0.00000
   Se     0.00000   3.86691   0.00000  -0.00000  -0.00000   0.00000
   Se     3.86691   0.00000   0.00000  -0.00000  -0.00000  -0.00000
   Se     1.93345   5.80036   6.05391   0.00000   0.00000   0.00000
   Se     5.80036   1.93345   6.05391  -0.00000  -0.00000  -0.00000
   Se     3.86691   3.86691   0.00000  -0.00000  -0.00000   0.00000
   Se     5.80036   5.80036   6.05391   0.00000  -0.00000  -0.00000
   O      0.00000   1.93345   3.02696  -0.02500   0.00000  -0.00000
   O      0.00000   5.80036   9.08087   0.02500   0.00000   0.00000
   O      0.00000   5.80036   3.02696   0.02500   0.00000   0.00000
   O      0.00000   1.93345   9.08087  -0.02500   0.00000  -0.00000
   O      5.80036   0.00000   3.02696   0.00000  -0.02500  -0.00000
   O      1.93345   0.00000   9.08087   0.00000   0.02500  -0.00000
   O      1.93345   0.00000   3.02696   0.00000   0.02500   0.00000
   O      5.80036   0.00000   9.08087  -0.00000  -0.02500   0.00000
   O      1.93345   3.86691   9.08087  -0.00000  -0.02500  -0.00000
   O      1.93345   3.86691   3.02696   0.00000  -0.02500  -0.00000
   O      3.86691   1.93345   3.02696   0.02500   0.00000   0.00000
   O      3.86691   1.93345   9.08087   0.02500   0.00000  -0.00000
   O      3.86691   5.80036   3.02696  -0.02500   0.00000  -0.00000
   O      3.86691   5.80036   9.08087  -0.02500   0.00000   0.00000
   O      5.80036   3.86691   9.08087   0.00000   0.02500   0.00000
   O      5.80036   3.86691   3.02696   0.00000   0.02500  -0.00000
PRIMCOORD   77
     40   1
   Bi     0.00000   0.00000   4.29699   0.00113  -0.00044   0.00000
   Bi     0.00000   0.00000   7.81084   0.00113  -0.00044   0.00000
   Bi     1.93345   1.93345  10.35090   0.00127  -0.00055   0.00009
   Bi     1.93345   1.93345   1.75692   0.00127  -0.00055  -0.00009
   Bi     0.00000   3.86691   4.29699   0.00078  -0.00047   0.00000
   Bi     0.00000   3.86691   7.81084   0.00078  -0.00047   0.00000
   Bi     3.86691   0.00000   4.29699   0.00120  -0.00030   0.00000
   Bi     3.86691   0.00000   7.81084   0.00120  -0.00030   0.00000
   Bi     1.93345   5.80036  10.35090   0.00121  -0.00042   0.00020
   Bi     1.93345   5.80036   1.75692   0.00121  -0.00042  -0.00020
   Bi     5.80036   1.93345  10.35090   0.00121  -0.00042  -0.00020
   Bi     5.80036   1.93345   1.75692   0.00121  -0.00042   0.00020
   Bi     3.86691   3.86691   4.29699   0.00146  -0.00057   0.00000
   Bi     3.86691   3.86691   7.81084   0.00146  -0.00057   0.00000
   Bi     5.80036   5.80036  10.35090   0.00127  -0.00055  -0.00009
   Bi     5.80036   5.80036   1.75692   0.00127  -0.00055   0.00009
   Se     0.00000   0.00000   0.00000   0.00396  -0.00154   0.00000
   Se     1.93345   1.93345   6.05391   0.00311  -0.00127  -0.00000
   Se     0.00000   3.86691   0.00000   0.00307  -0.00087  -0.00000
   Se     3.86691   0.00000   0.00000   0.00223  -0.00119   0.00000
   Se     1.93345   5.80036   6.05391   0.00305  -0.00113  -0.00000
   Se     5.80036   1.93345   6.05391   0.00305  -0.00113  -0.00000
   Se     3.86691   3.86691   0.00000   0.00294  -0.00114   0.00000
   Se     5.80036   5.80036   6.05391   0.00311  -0.00127  -0.00000
   O      0.00000   1.93345   3.02696  -0.02183   0.00884  -0.00007
   O      0.00000   5.80036   9.08087  -0.02183   0.00884  -0.00007
   O      0.00000   5.80036   3.02696  -0.02183   0.00884   0.00007
   O      0.00000   1.93345   9.08087  -0.02183   0.00884   0.00007
   O      5.80036   0.00000   3.02696  -0.02276   0.00848  -0.00019
   O      1.93345   0.00000   9.08087  -0.02276   0.00848  -0.00019
   O      1.93345   0.00000   3.02696  -0.02276   0.00848   0.00019
   O      5.80036   0.00000   9.08087  -0.02276   0.00848   0.00019
   O      1.93345   3.86691   9.08087  -0.02385   0.00936   0.00182
   O      1.93345   3.86691   3.02696  -0.02385   0.00936  -0.00182
   O      3.86691   1.93345   3.02696  -0.02409   0.00926   0.00071
   O      3.86691   1.93345   9.08087  -0.02409   0.00926  -0.00071
   O      3.86691   5.80036   3.02696  -0.02409   0.00926  -0.00071
   O      3.86691   5.80036   9.08087  -0.02409   0.00926   0.00071
   O      5.80036   3.86691   9.08087  -0.02385   0.00936  -0.00182
   O      5.80036   3.86691   3.02696  -0.02385   0.00936   0.00182
PRIMCOORD   78
     40   1
   Bi     0.00000   0.00000   4.29699   0.00044   0.00113  -0.00000
   Bi     0.00000   0.00000   7.81084   0.00044   0.00113   0.00000
   Bi     1.93345   1.93345  10.35090   0.00042   0.00121   0.00020
   Bi     1.93345   1.93345   1.75692   0.00042   0.00121  -0.00020
   Bi     0.00000   3.86691   4.29699   0.00030   0.00120  -0.00000
   Bi     0.00000   3.86691   7.81084   0.00030   0.00120   0.00000
   Bi     3.86691   0.00000   4.29699   0.00047   0.00078   0.00000
   Bi     3.86691   0.00000   7.81084   0.00047   0.00078   0.00000
   Bi     1.93345   5.80036  10.35090   0.00055   0.00127  -0.00009
   Bi     1.93345   5.80036   1.75692   0.00055   0.00127   0.00009
   Bi     5.80036   1.93345  10.35090   0.00055   0.00127   0.00009
   Bi     5.80036   1.93345   1.75692   0.00055   0.00127  -0.00009
   Bi     3.86691   3.86691   4.29699   0.00057   0.00146  -0.00000
   Bi     3.86691   3.86691   7.81084   0.00057   0.00146  -0.00000
   Bi     5.80036   5.80036  10.35090   0.00042   0.00121  -0.00020
   Bi     5.80036   5.80036   1.75692   0.00042   0.00121   0.00020
   Se     0.00000   0.00000   0.00000   0.00154   0.00396   0.00000
   Se     1.93345   1.93345   6.05391   0.00113   0.00305  -0.00000
   Se     0.00000   3.86691   0.00000   0.00119   0.00223  -0.00000
   Se     3.86691   0.00000   0.00000   0.00087   0.00307  -0.00000
   Se     1.93345   5.80036   6.05391   0.00127   0.00311   0.00000
   Se     5.80036   1.93345   6.05391   0.00127   0.00311   0.00000
   Se     3.86691   3.86691   0.00000   0.00114   0.00294  -0.00000
   Se     5.80036   5.80036   6.05391   0.00113   0.00305   0.00000
   O      0.00000   1.93345   3.02696  -0.00848  -0.02276   0.00019
   O      0.00000   5.80036   9.08087  -0.00848  -0.02276   0.00019
   O      0.00000   5.80036   3.02696  -0.00848  -0.02276  -0.00019
   O      0.00000   1.93345   9.08087  -0.00848  -0.02276  -0.00019
   O      5.80036   0.00000   3.02696  -0.00884  -0.02183  -0.00007
   O      1.93345   0.00000   9.08087  -0.00884  -0.02183  -0.00007
   O      1.93345   0.00000   3.02696  -0.00884  -0.02183   0.00007
   O      5.80036   0.00000   9.08087  -0.00884  -0.02183   0.00007
   O      1.93345   3.86691   9.08087  -0.00926  -0.02409   0.00071
   O      1.93345   3.86691   3.02696  -0.00926  -0.02409  -0.00071
   O      3.86691   1.93345   3.02696  -0.00936  -0.02385  -0.00182
   O      3.86691   1.93345   9.08087  -0.00936  -0.02385   0.00182
   O      3.86691   5.80036   3.02696  -0.00936  -0.02385   0.00182
   O      3.86691   5.80036   9.08087  -0.00936  -0.02385  -0.00182
   O      5.80036   3.86691   9.08087  -0.00926  -0.02409  -0.00071
   O      5.80036   3.86691   3.02696  -0.00926  -0.02409   0.00071
PRIMCOORD   79
     40   1
   Bi     0.00000   0.00000   4.29699   0.00147   0.00010   0.00000
   Bi     0.00000   0.00000   7.81084  -0.00147  -0.00010   0.00000
   Bi     1.93345   1.93345  10.35090  -0.00165  -0.00020   0.00002
   Bi     1.93345   1.93345   1.75692   0.00165   0.00020   0.00002
   Bi     0.00000   3.86691   4.29699   0.00165   0.00011   0.00000
   Bi     0.00000   3.86691   7.81084  -0.00165  -0.00011   0.00000
   Bi     3.86691   0.00000   4.29699   0.00148   0.00012   0.00000
   Bi     3.86691   0.00000   7.81084  -0.00148  -0.00012   0.00000
   Bi     1.93345   5.80036  10.35090  -0.00163  -0.00003   0.00002
   Bi     1.93345   5.80036   1.75692   0.00163   0.00003   0.00002
   Bi     5.80036   1.93345  10.35090  -0.00163  -0.00003  -0.00002
   Bi     5.80036   1.93345   1.75692   0.00163   0.00003  -0.00002
   Bi     3.86691   3.86691   4.29699   0.00159   0.00011   0.00000
   Bi     3.86691   3.86691   7.81084  -0.00159  -0.00011   0.00000
   Bi     5.80036   5.80036  10.35090  -0.00165  -0.00020  -0.00002
   Bi     5.80036   5.80036   1.75692   0.00165   0.00020  -0.00002
   Se     0.00000   0.00000   0.00000   0.00000  -0.00000   0.00000
   Se     1.93345   1.93345   6.05391   0.00000   0.00000   0.00010
   Se     0.00000   3.86691   0.00000   0.00000   0.00000   0.00000
   Se     3.86691   0.00000   0.00000   0.00000  -0.00000  -0.00000
   Se     1.93345   5.80036   6.05391   0.00000   0.00000   0.00009
   Se     5.80036   1.93345   6.05391   0.00000   0.00000  -0.00009
   Se     3.86691   3.86691   0.00000   0.00000   0.00000   0.00000
   Se     5.80036   5.80036   6.05391   0.00000  -0.00000  -0.00010
   O      0.00000   1.93345   3.02696  -0.02408  -0.00172  -0.00063
   O      0.00000   5.80036   9.08087   0.02408   0.00172   0.00063
   O      0.00000   5.80036   3.02696  -0.02408  -0.00172   0.00063
   O      0.00000   1.93345   9.08087   0.02408   0.00172  -0.00063
   O      5.80036   0.00000   3.02696  -0.02413  -0.00171   0.00884
   O      1.93345   0.00000   9.08087   0.02413   0.00171  -0.00884
   O      1.93345   0.00000   3.02696  -0.02413  -0.00171  -0.00884
   O      5.80036   0.00000   9.08087   0.02413   0.00171   0.00884
   O      1.93345   3.86691   9.08087   0.02403   0.00170   0.00933
   O      1.93345   3.86691   3.02696  -0.02403  -0.00170   0.00933
   O      3.86691   1.93345   3.02696  -0.02392  -0.00171   0.00066
   O      3.86691   1.93345   9.08087   0.02392   0.00171   0.00066
   O      3.86691   5.80036   3.02696  -0.02392  -0.00171  -0.00066
   O      3.86691   5.80036   9.08087   0.02392   0.00171  -0.00066
   O      5.80036   3.86691   9.08087   0.02403   0.00170  -0.00933
   O      5.80036   3.86691   3.02696  -0.02403  -0.00170  -0.00933
PRIMCOORD   80
     40   1
   Bi     0.00000   0.00000   4.29699   0.00010  -0.00147  -0.00000
   Bi     0.00000   0.00000   7.81084  -0.00010   0.00147   0.00000
   Bi     1.93345   1.93345  10.35090  -0.00003   0.00163  -0.00002
   Bi     1.93345   1.93345   1.75692   0.00003  -0.00163  -0.00002
   Bi     0.00000   3.86691   4.29699   0.00012  -0.00148  -0.00000
   Bi     0.00000   3.86691   7.81084  -0.00012   0.00148   0.00000
   Bi     3.86691   0.00000   4.29699   0.00011  -0.00165  -0.00000
   Bi     3.86691   0.00000   7.81084  -0.00011   0.00165  -0.00000
   Bi     1.93345   5.80036  10.35090  -0.00020   0.00165   0.00002
   Bi     1.93345   5.80036   1.75692   0.00020  -0.00165   0.00002
   Bi     5.80036   1.93345  10.35090  -0.00020   0.00165  -0.00002
   Bi     5.80036   1.93345   1.75692   0.00020  -0.00165  -0.00002
   Bi     3.86691   3.86691   4.29699   0.00011  -0.00159  -0.00000
   Bi     3.86691   3.86691   7.81084  -0.00011   0.00159  -0.00000
   Bi     5.80036   5.80036  10.35090  -0.00003   0.00163   0.00002
   Bi     5.80036   5.80036   1.75692   0.00003  -0.00163   0.00002
   Se     0.00000   0.00000   0.00000  -0.00000  -0.00000  -0.00000
   Se     1.93345   1.93345   6.05391  -0.00000  -0.00000  -0.00009
   Se     0.00000   3.86691   0.00000  -0.00000  -0.00000  -0.00000
   Se     3.86691   0.00000   0.00000  -0.00000  -0.00000   0.00000
   Se     1.93345   5.80036   6.05391  -0.00000  -0.00000   0.00010
   Se     5.80036   1.93345   6.05391  -0.00000  -0.00000  -0.00010
   Se     3.86691   3.86691   0.00000  -0.00000  -0.00000  -0.00000
   Se     5.80036   5.80036   6.05391  -0.00000  -0.00000   0.00009
   O      0.00000   1.93345   3.02696  -0.00171   0.02413   0.00884
   O      0.00000   5.80036   9.08087   0.00171  -0.02413  -0.00884
   O      0.00000   5.80036   3.02696  -0.00171   0.02413  -0.00884
   O      0.00000   1.93345   9.08087   0.00171  -0.02413   0.00884
   O      5.80036   0.00000   3.02696  -0.00172   0.02408   0.00063
   O      1.93345   0.00000   9.08087   0.00172  -0.02408  -0.00063
   O      1.93345   0.00000   3.02696  -0.00172   0.02408  -0.00063
   O      5.80036   0.00000   9.08087   0.00172  -0.02408   0.00063
   O      1.93345   3.86691   9.08087   0.00171  -0.02392   0.00066
   O      1.93345   3.86691   3.02696  -0.00171   0.02392   0.00066
   O      3.86691   1.93345   3.02696  -0.00170   0.02403  -0.00933
   O      3.86691   1.93345   9.08087   0.00170  -0.02403  -0.00933
   O      3.86691   5.80036   3.02696  -0.00170   0.02403   0.00933
   O      3.86691   5.80036   9.08087   0.00170  -0.02403   0.00933
   O      5.80036   3.86691   9.08087   0.00171  -0.02392  -0.00066
   O      5.80036   3.86691   3.02696  -0.00171   0.02392  -0.00066
PRIMCOORD   81
     40   1
   Bi     0.00000   0.00000   4.29699  -0.00060   0.00001  -0.00000
   Bi     0.00000   0.00000   7.81084  -0.00060   0.00001  -0.00000
   Bi     1.93345   1.93345  10.35090   0.00007  -0.00048  -0.00015
   Bi     1.93345   1.93345   1.75692   0.00007  -0.00048   0.00015
   Bi     0.00000   3.86691   4.29699   0.00059  -0.00001  -0.00000
   Bi     0.00000   3.86691   7.81084   0.00059  -0.00001   0.00000
   Bi     3.86691   0.00000   4.29699   0.00062  -0.00001  -0.00000
   Bi     3.86691   0.00000   7.81084   0.00062  -0.00001   0.00000
   Bi     1.93345   5.80036  10.35090   0.00005   0.00048  -0.00015
   Bi     1.93345   5.80036   1.75692   0.00005   0.00048   0.00015
   Bi     5.80036   1.93345  10.35090   0.00005   0.00048   0.00015
   Bi     5.80036   1.93345   1.75692   0.00005   0.00048  -0.00015
   Bi     3.86691   3.86691   4.29699  -0.00048   0.00001   0.00000
   Bi     3.86691   3.86691   7.81084  -0.00048   0.00001   0.00000
   Bi     5.80036   5.80036  10.35090   0.00007  -0.00048   0.00015
   Bi     5.80036   5.80036   1.75692   0.00007  -0.00048  -0.00015
   Se     0.00000   0.00000   0.00000  -0.00145   0.00002   0.00000
   Se     1.93345   1.93345   6.05391   0.00003  -0.00105   0.00000
   Se     0.00000   3.86691   0.00000   0.00130  -0.00002  -0.00000
   Se     3.86691   0.00000   0.00000   0.00164  -0.00002   0.00000
   Se     1.93345   5.80036   6.05391  -0.00000   0.00105   0.00000
   Se     5.80036   1.93345   6.05391  -0.00000   0.00105   0.00000
   Se     3.86691   3.86691   0.00000  -0.00113   0.00002  -0.00000
   Se     5.80036   5.80036   6.05391   0.00003  -0.00105   0.00000
   O      0.00000   1.93345   3.02696  -0.00024   0.00001   0.00053
   O      0.00000   5.80036   9.08087  -0.00024   0.00001   0.00053
   O      0.00000   5.80036   3.02696  -0.00024   0.00001  -0.00053
   O      0.00000   1.93345   9.08087  -0.00024   0.00001  -0.00053
   O      5.80036   0.00000   3.02696  -0.00085   0.00000   0.03615
   O      1.93345   0.00000   9.08087  -0.00085   0.00000   0.03615
   O      1.93345   0.00000   3.02696  -0.00085   0.00000  -0.03615
   O      5.80036   0.00000   9.08087  -0.00085   0.00000  -0.03615
   O      1.93345   3.86691   9.08087  -0.00069   0.00002  -0.03444
   O      1.93345   3.86691   3.02696  -0.00069   0.00002   0.03444
   O      3.86691   1.93345   3.02696  -0.00119   0.00001  -0.00051
   O      3.86691   1.93345   9.08087  -0.00119   0.00001   0.00051
   O      3.86691   5.80036   3.02696  -0.00119   0.00001   0.00051
   O      3.86691   5.80036   9.08087  -0.00119   0.00001  -0.00051
   O      5.80036   3.86691   9.08087  -0.00069   0.00002   0.03444
   O      5.80036   3.86691   3.02696  -0.00069   0.00002  -0.03444
PRIMCOORD   82
     40   1
   Bi     0.00000   0.00000   4.29699  -0.00001  -0.00060  -0.00000
   Bi     0.00000   0.00000   7.81084  -0.00001  -0.00060  -0.00000
   Bi     1.93345   1.93345  10.35090  -0.00048   0.00005  -0.00015
   Bi     1.93345   1.93345   1.75692  -0.00048   0.00005   0.00015
   Bi     0.00000   3.86691   4.29699   0.00001   0.00062  -0.00000
   Bi     0.00000   3.86691   7.81084   0.00001   0.00062  -0.00000
   Bi     3.86691   0.00000   4.29699   0.00001   0.00059   0.00000
   Bi     3.86691   0.00000   7.81084   0.00001   0.00059  -0.00000
   Bi     1.93345   5.80036  10.35090   0.00048   0.00007   0.00015
   Bi     1.93345   5.80036   1.75692   0.00048   0.00007  -0.00015
   Bi     5.80036   1.93345  10.35090   0.00048   0.00007  -0.00015
   Bi     5.80036   1.93345   1.75692   0.00048   0.00007   0.00015
   Bi     3.86691   3.86691   4.29699  -0.00001  -0.00048   0.00000
   Bi     3.86691   3.86691   7.81084  -0.00001  -0.00048   0.00000
   Bi     5.80036   5.80036  10.35090  -0.00048   0.00005   0.00015
   Bi     5.80036   5.80036   1.75692  -0.00048   0.00005  -0.00015
   Se     0.00000   0.00000   0.00000  -0.00002  -0.00145   0.00000
   Se     1.93345   1.93345   6.05391  -0.00105  -0.00000   0.00000
   Se     0.00000   3.86691   0.00000   0.00002   0.00164  -0.00000
   Se     3.86691   0.00000   0.00000   0.00002   0.00130   0.00000
   Se     1.93345   5.80036   6.05391   0.00105   0.00003   0.00000
   Se     5.80036   1.93345   6.05391   0.00105   0.00003  -0.00000
   Se     3.86691   3.86691   0.00000  -0.00002  -0.00113  -0.00000
   Se     5.80036   5.80036   6.05391  -0.00105  -0.00000   0.00000
   O      0.00000   1.93345   3.02696  -0.00000  -0.00085  -0.03615
   O      0.00000   5.80036   9.08087  -0.00000  -0.00085  -0.03615
   O      0.00000   5.80036   3.02696  -0.00000  -0.00085   0.03615
   O      0.00000   1.93345   9.08087  -0.00000  -0.00085   0.03615
   O      5.80036   0.00000   3.02696  -0.00001  -0.00024   0.00053
   O      1.93345   0.00000   9.08087  -0.00001  -0.00024   0.00053
   O      1.93345   0.00000   3.02696  -0.00001  -0.00024  -0.00053
   O      5.80036   0.00000   9.08087  -0.00001  -0.00024  -0.00053
   O      1.93345   3.86691   9.08087  -0.00001  -0.00119  -0.00051
   O      1.93345   3.86691   3.02696  -0.00001  -0.00119   0.00051
   O      3.86691   1.93345   3.02696  -0.00002  -0.00069   0.03444
   O      3.86691   1.93345   9.08087  -0.00002  -0.00069  -0.03444
   O      3.86691   5.80036   3.02696  -0.00002  -0.00069  -0.03444
   O      3.86691   5.80036   9.08087  -0.00002  -0.00069   0.03444
   O      5.80036   3.86691   9.08087  -0.00001  -0.00119   0.00051
   O      5.80036   3.86691   3.02696  -0.00001  -0.00119  -0.00051
PRIMCOORD   83
     40   1
   Bi     0.00000   0.00000   4.29699  -0.00105  -0.00000   0.00000
   Bi     0.00000   0.00000   7.81084   0.00105   0.00000   0.00000
   Bi     1.93345   1.93345  10.35090   0.00030   0.00053  -0.00001
   Bi     1.93345   1.93345   1.75692  -0.00030  -0.00053  -0.00001
   Bi     0.00000   3.86691   4.29699   0.00044   0.00000   0.00000
   Bi     0.00000   3.86691   7.81084  -0.00044  -0.00000  -0.00000
   Bi     3.86691   0.00000   4.29699   0.00040   0.00000  -0.00000
   Bi     3.86691   0.00000   7.81084  -0.00040  -0.00000  -0.00000
   Bi     1.93345   5.80036  10.35090   0.00030  -0.00053  -0.00001
   Bi     1.93345   5.80036   1.75692  -0.00030   0.00053  -0.00001
   Bi     5.80036   1.93345  10.35090   0.00030  -0.00053   0.00001
   Bi     5.80036   1.93345   1.75692  -0.00030   0.00053   0.00001
   Bi     3.86691   3.86691   4.29699  -0.00098  -0.00000  -0.00000
   Bi     3.86691   3.86691   7.81084   0.00098   0.00000  -0.00000
   Bi     5.80036   5.80036  10.35090   0.00030   0.00053   0.00001
   Bi     5.80036   5.80036   1.75692  -0.00030  -0.00053   0.00001
   Se     0.00000   0.00000   0.00000  -0.00000  -0.00000  -0.00000
   Se     1.93345   1.93345   6.05391   0.00000  -0.00000  -0.00000
   Se     0.00000   3.86691   0.00000   0.00000   0.00000  -0.00000
   Se     3.86691   0.00000   0.00000   0.00000   0.00000   0.00000
   Se     1.93345   5.80036   6.05391   0.00000   0.00000  -0.00000
   Se     5.80036   1.93345   6.05391   0.00000   0.00000   0.00000
   Se     3.86691   3.86691   0.00000  -0.00000  -0.00000   0.00000
   Se     5.80036   5.80036   6.05391  -0.00000  -0.00000   0.00000
   O      0.00000   1.93345   3.02696   0.00572   0.00001  -0.00004
   O      0.00000   5.80036   9.08087  -0.00572  -0.00001   0.00004
   O      0.00000   5.80036   3.02696   0.00572   0.00001   0.00004
   O      0.00000   1.93345   9.08087  -0.00572  -0.00001  -0.00004
   O      5.80036   0.00000   3.02696   0.00716   0.00001   0.03438
   O      1.93345   0.00000   9.08087  -0.00716  -0.00001  -0.03438
   O      1.93345   0.00000   3.02696   0.00716   0.00001  -0.03438
   O      5.80036   0.00000   9.08087  -0.00716  -0.00001   0.03438
   O      1.93345   3.86691   9.08087  -0.00623  -0.00001   0.03407
   O      1.93345   3.86691   3.02696   0.00623   0.00001   0.03407
   O      3.86691   1.93345   3.02696   0.00568   0.00001   0.00004
   O      3.86691   1.93345   9.08087  -0.00568  -0.00001   0.00004
   O      3.86691   5.80036   3.02696   0.00568   0.00001  -0.00004
   O      3.86691   5.80036   9.08087  -0.00568  -0.00001  -0.00004
   O      5.80036   3.86691   9.08087  -0.00623  -0.00001  -0.03407
   O      5.80036   3.86691   3.02696   0.00623   0.00001  -0.03407
PRIMCOORD   84
     40   1
   Bi     0.00000   0.00000   4.29699   0.00000  -0.00105   0.00000
   Bi     0.00000   0.00000   7.81084  -0.00000   0.00105  -0.00000
   Bi     1.93345   1.93345  10.35090   0.00053   0.00030  -0.00001
   Bi     1.93345   1.93345   1.75692  -0.00053  -0.00030  -0.00001
   Bi     0.00000   3.86691   4.29699  -0.00000   0.00040   0.00000
   Bi     0.00000   3.86691   7.81084   0.00000  -0.00040  -0.00000
   Bi     3.86691   0.00000   4.29699  -0.00000   0.00044   0.00000
   Bi     3.86691   0.00000   7.81084   0.00000  -0.00044   0.00000
   Bi     1.93345   5.80036  10.35090  -0.00053   0.00030   0.00001
   Bi     1.93345   5.80036   1.75692   0.00053  -0.00030   0.00001
   Bi     5.80036   1.93345  10.35090  -0.00053   0.00030  -0.00001
   Bi     5.80036   1.93345   1.75692   0.00053  -0.00030  -0.00001
   Bi     3.86691   3.86691   4.29699   0.00000  -0.00098   0.00000
   Bi     3.86691   3.86691   7.81084  -0.00000   0.00098   0.00000
   Bi     5.80036   5.80036  10.35090   0.00053   0.00030   0.00001
   Bi     5.80036   5.80036   1.75692  -0.00053  -0.00030   0.00001
   Se     0.00000   0.00000   0.00000   0.00000   0.00000   0.00000
   Se     1.93345   1.93345   6.05391   0.00000   0.00000  -0.00000
   Se     0.00000   3.86691   0.00000  -0.00000  -0.00000   0.00000
   Se     3.86691   0.00000   0.00000  -0.00000  -0.00000  -0.00000
   Se     1.93345   5.80036   6.05391  -0.00000  -0.00000   0.00000
   Se     5.80036   1.93345   6.05391  -0.00000  -0.00000  -0.00000
   Se     3.86691   3.86691   0.00000   0.00000   0.00000  -0.00000
   Se     5.80036   5.80036   6.05391   0.00000   0.00000   0.00000
   O      0.00000   1.93345   3.02696  -0.00001   0.00716  -0.03438
   O      0.00000   5.80036   9.08087   0.00001  -0.00716   0.03438
   O      0.00000   5.80036   3.02696  -0.00001   0.00716   0.03438
   O      0.00000   1.93345   9.08087   0.00001  -0.00716  -0.03438
   O      5.80036   0.00000   3.02696  -0.00001   0.00572  -0.00004
   O      1.93345   0.00000   9.08087   0.00001  -0.00572   0.00004
   O      1.93345   0.00000   3.02696  -0.00001   0.00572   0.00004
   O      5.80036   0.00000   9.08087   0.00001  -0.00572  -0.00004
   O      1.93345   3.86691   9.08087   0.00001  -0.00568  -0.00004
   O      1.93345   3.86691   3.02696  -0.00001   0.00568  -0.00004
   O      3.86691   1.93345   3.02696  -0.00001   0.00623   0.03407
   O      3.86691   1.93345   9.08087   0.00001  -0.00623   0.03407
   O      3.86691   5.80036   3.02696  -0.00001   0.00623  -0.03407
   O      3.86691   5.80036   9.08087   0.00001  -0.00623  -0.03407
   O      5.80036   3.86691   9.08087   0.00001  -0.00568   0.00004
   O      5.80036   3.86691   3.02696  -0.00001   0.00568   0.00004
PRIMCOORD   85
     40   1
   Bi     0.00000   0.00000   4.29699  -0.00036  -0.00107  -0.00000
   Bi     0.00000   0.00000   7.81084  -0.00036  -0.00107   0.00000
   Bi     1.93345   1.93345  10.35090  -0.00005  -0.00002  -0.00118
   Bi     1.93345   1.93345   1.75692  -0.00005  -0.00002   0.00118
   Bi     0.00000   3.86691   4.29699  -0.00036   0.00077   0.00000
   Bi     0.00000   3.86691   7.81084  -0.00036   0.00077   0.00000
   Bi     3.86691   0.00000   4.29699   0.00026  -0.00106  -0.00000
   Bi     3.86691   0.00000   7.81084   0.00026  -0.00106  -0.00000
   Bi     1.93345   5.80036  10.35090   0.00004   0.00001   0.00058
   Bi     1.93345   5.80036   1.75692   0.00004   0.00001  -0.00058
   Bi     5.80036   1.93345  10.35090   0.00004   0.00001  -0.00058
   Bi     5.80036   1.93345   1.75692   0.00004   0.00001   0.00058
   Bi     3.86691   3.86691   4.29699   0.00037   0.00109   0.00000
   Bi     3.86691   3.86691   7.81084   0.00037   0.00109  -0.00000
   Bi     5.80036   5.80036  10.35090  -0.00005  -0.00002   0.00118
   Bi     5.80036   5.80036   1.75692  -0.00005  -0.00002  -0.00118
   Se     0.00000   0.00000   0.00000   0.00143   0.00423   0.00000
   Se     1.93345   1.93345   6.05391  -0.00029  -0.00022  -0.00000
   Se     0.00000   3.86691   0.00000   0.00155  -0.00480  -0.00000
   Se     3.86691   0.00000   0.00000  -0.00162   0.00459   0.00000
   Se     1.93345   5.80036   6.05391   0.00019  -0.00006   0.00000
   Se     5.80036   1.93345   6.05391   0.00019  -0.00006  -0.00000
   Se     3.86691   3.86691   0.00000  -0.00154  -0.00454   0.00000
   Se     5.80036   5.80036   6.05391  -0.00029  -0.00022  -0.00000
   O      0.00000   1.93345   3.02696   0.00216   0.00297  -0.03189
   O      0.00000   5.80036   9.08087   0.00216   0.00297  -0.03189
   O      0.00000   5.80036   3.02696   0.00216   0.00297   0.03189
   O      0.00000   1.93345   9.08087   0.00216   0.00297   0.03189
   O      5.80036   0.00000   3.02696   0.00100   0.00639   0.01079
   O      1.93345   0.00000   9.08087   0.00100   0.00639   0.01079
   O      1.93345   0.00000   3.02696   0.00100   0.00639  -0.01079
   O      5.80036   0.00000   9.08087   0.00100   0.00639  -0.01079
   O      1.93345   3.86691   9.08087  -0.00044  -0.00477   0.01136
   O      1.93345   3.86691   3.02696  -0.00044  -0.00477  -0.01136
   O      3.86691   1.93345   3.02696  -0.00161  -0.00130  -0.03359
   O      3.86691   1.93345   9.08087  -0.00161  -0.00130   0.03359
   O      3.86691   5.80036   3.02696  -0.00161  -0.00130   0.03359
   O      3.86691   5.80036   9.08087  -0.00161  -0.00130  -0.03359
   O      5.80036   3.86691   9.08087  -0.00044  -0.00477  -0.01136
   O      5.80036   3.86691   3.02696  -0.00044  -0.00477   0.01136
PRIMCOORD   86
     40   1
   Bi     0.00000   0.00000   4.29699  -0.00107   0.00036  -0.00000
   Bi     0.00000   0.00000   7.81084  -0.00107   0.00036   0.00000
   Bi     1.93345   1.93345  10.35090   0.00001  -0.00004  -0.00058
   Bi     1.93345   1.93345   1.75692   0.00001  -0.00004   0.00058
   Bi     0.00000   3.86691   4.29699  -0.00106  -0.00026  -0.00000
   Bi     0.00000   3.86691   7.81084  -0.00106  -0.00026  -0.00000
   Bi     3.86691   0.00000   4.29699   0.00077   0.00036   0.00000
   Bi     3.86691   0.00000   7.81084   0.00077   0.00036   0.00000
   Bi     1.93345   5.80036  10.35090  -0.00002   0.00005  -0.00118
   Bi     1.93345   5.80036   1.75692  -0.00002   0.00005   0.00118
   Bi     5.80036   1.93345  10.35090  -0.00002   0.00005   0.00118
   Bi     5.80036   1.93345   1.75692  -0.00002   0.00005  -0.00118
   Bi     3.86691   3.86691   4.29699   0.00109  -0.00037   0.00000
   Bi     3.86691   3.86691   7.81084   0.00109  -0.00037  -0.00000
   Bi     5.80036   5.80036  10.35090   0.00001  -0.00004   0.00058
   Bi     5.80036   5.80036   1.75692   0.00001  -0.00004  -0.00058
   Se     0.00000   0.00000   0.00000   0.00423  -0.00143  -0.00000
   Se     1.93345   1.93345   6.05391  -0.00006  -0.00019   0.00000
   Se     0.00000   3.86691   0.00000   0.00459   0.00162   0.00000
   Se     3.86691   0.00000   0.00000  -0.00480  -0.00155   0.00000
   Se     1.93345   5.80036   6.05391  -0.00022   0.00029   0.00000
   Se     5.80036   1.93345   6.05391  -0.00022   0.00029   0.00000
   Se     3.86691   3.86691   0.00000  -0.00454   0.00154   0.00000
   Se     5.80036   5.80036   6.05391  -0.00006  -0.00019   0.00000
   O      0.00000   1.93345   3.02696   0.00639  -0.00100   0.01079
   O      0.00000   5.80036   9.08087   0.00639  -0.00100   0.01079
   O      0.00000   5.80036   3.02696   0.00639  -0.00100  -0.01079
   O      0.00000   1.93345   9.08087   0.00639  -0.00100  -0.01079
   O      5.80036   0.00000   3.02696   0.00297  -0.00216   0.03189
   O      1.93345   0.00000   9.08087   0.00297  -0.00216   0.03189
   O      1.93345   0.00000   3.02696   0.00297  -0.00216  -0.03189
   O      5.80036   0.00000   9.08087   0.00297  -0.00216  -0.03189
   O      1.93345   3.86691   9.08087  -0.00130   0.00161   0.03359
   O      1.93345   3.86691   3.02696  -0.00130   0.00161  -0.03359
   O      3.86691   1.93345   3.02696  -0.00477   0.00044   0.01136
   O      3.86691   1.93345   9.08087  -0.00477   0.00044  -0.01136
   O      3.86691   5.80036   3.02696  -0.00477   0.00044  -0.01136
   O      3.86691   5.80036   9.08087  -0.00477   0.00044   0.01136
   O      5.80036   3.86691   9.08087  -0.00130   0.00161  -0.03359
   O      5.80036   3.86691   3.02696  -0.00130   0.00161   0.03359
PRIMCOORD   87
     40   1
   Bi     0.00000   0.00000   4.29699  -0.00000   0.00000   0.00151
   Bi     0.00000   0.00000   7.81084  -0.00000   0.00000  -0.00151
   Bi     1.93345   1.93345  10.35090  -0.00066  -0.00066  -0.00001
   Bi     1.93345   1.93345   1.75692  -0.00066  -0.00066   0.00001
   Bi     0.00000   3.86691   4.29699  -0.00000   0.00000   0.00005
   Bi     0.00000   3.86691   7.81084  -0.00000  -0.00000  -0.00005
   Bi     3.86691   0.00000   4.29699   0.00000  -0.00000   0.00005
   Bi     3.86691   0.00000   7.81084   0.00000   0.00000  -0.00005
   Bi     1.93345   5.80036  10.35090  -0.00066   0.00066  -0.00001
   Bi     1.93345   5.80036   1.75692  -0.00066   0.00066   0.00001
   Bi     5.80036   1.93345  10.35090   0.00066  -0.00066  -0.00001
   Bi     5.80036   1.93345   1.75692   0.00066  -0.00066   0.00001
   Bi     3.86691   3.86691   4.29699   0.00000  -0.00000  -0.00144
   Bi     3.86691   3.86691   7.81084   0.00000  -0.00000   0.00144
   Bi     5.80036   5.80036  10.35090   0.00066   0.00066  -0.00001
   Bi     5.80036   5.80036   1.75692   0.00066   0.00066   0.00001
   Se     0.00000   0.00000   0.00000   0.00000  -0.00000  -0.00000
   Se     1.93345   1.93345   6.05391   0.00303   0.00303   0.00000
   Se     0.00000   3.86691   0.00000   0.00000   0.00000  -0.00000
   Se     3.86691   0.00000   0.00000  -0.00000  -0.00000   0.00000
   Se     1.93345   5.80036   6.05391   0.00303  -0.00303   0.00000
   Se     5.80036   1.93345   6.05391  -0.00303   0.00303  -0.00000
   Se     3.86691   3.86691   0.00000  -0.00000   0.00000   0.00000
   Se     5.80036   5.80036   6.05391  -0.00303  -0.00303  -0.00000
   O      0.00000   1.93345   3.02696   0.00000   0.00242  -0.02488
   O      0.00000   5.80036   9.08087   0.00000  -0.00242   0.02488
   O      0.00000   5.80036   3.02696   0.00000  -0.00242  -0.02488
   O      0.00000   1.93345   9.08087   0.00000   0.00242   0.02488
   O      5.80036   0.00000   3.02696  -0.00242  -0.00000  -0.02488
   O      1.93345   0.00000   9.08087   0.00242   0.00000   0.02488
   O      1.93345   0.00000   3.02696   0.00242  -0.00000  -0.02488
   O      5.80036   0.00000   9.08087  -0.00242   0.00000   0.02488
   O      1.93345   3.86691   9.08087   0.00214   0.00000  -0.02469
   O      1.93345   3.86691   3.02696   0.00214  -0.00000   0.02469
   O      3.86691   1.93345   3.02696  -0.00000   0.00214   0.02469
   O      3.86691   1.93345   9.08087  -0.00000   0.00214  -0.02469
   O      3.86691   5.80036   3.02696  -0.00000  -0.00214   0.02469
   O      3.86691   5.80036   9.08087  -0.00000  -0.00214  -0.02469
   O      5.80036   3.86691   9.08087  -0.00214   0.00000  -0.02469
   O      5.80036   3.86691   3.02696  -0.00214   0.00000   0.02469
PRIMCOORD   88
     40   1
   Bi     0.00000   0.00000   4.29699   0.00000  -0.00000   0.00000
   Bi     0.00000   0.00000   7.81084  -0.00000  -0.00000  -0.00000
   Bi     1.93345   1.93345  10.35090  -0.00077   0.00077  -0.00000
   Bi     1.93345   1.93345   1.75692  -0.00077   0.00077  -0.00000
   Bi     0.00000   3.86691   4.29699   0.00000   0.00000   0.00137
   Bi     0.00000   3.86691   7.81084   0.00000  -0.00000  -0.00137
   Bi     3.86691   0.00000   4.29699  -0.00000  -0.00000  -0.00137
   Bi     3.86691   0.00000   7.81084   0.00000   0.00000   0.00137
   Bi     1.93345   5.80036  10.35090  -0.00077  -0.00077  -0.00000
   Bi     1.93345   5.80036   1.75692  -0.00077  -0.00077  -0.00000
   Bi     5.80036   1.93345  10.35090   0.00077   0.00077   0.00000
   Bi     5.80036   1.93345   1.75692   0.00077   0.00077   0.00000
   Bi     3.86691   3.86691   4.29699  -0.00000   0.00000  -0.00000
   Bi     3.86691   3.86691   7.81084  -0.00000  -0.00000   0.00000
   Bi     5.80036   5.80036  10.35090   0.00077  -0.00077  -0.00000
   Bi     5.80036   5.80036   1.75692   0.00077  -0.00077  -0.00000
   Se     0.00000   0.00000   0.00000  -0.00000   0.00000  -0.00000
   Se     1.93345   1.93345   6.05391   0.00326  -0.00326   0.00000
   Se     0.00000   3.86691   0.00000  -0.00000  -0.00000  -0.00000
   Se     3.86691   0.00000   0.00000   0.00000   0.00000   0.00000
   Se     1.93345   5.80036   6.05391   0.00326   0.00326   0.00000
   Se     5.80036   1.93345   6.05391  -0.00326  -0.00326  -0.00000
   Se     3.86691   3.86691   0.00000   0.00000  -0.00000   0.00000
   Se     5.80036   5.80036   6.05391  -0.00326   0.00326  -0.00000
   O      0.00000   1.93345   3.02696  -0.00000  -0.00303  -0.02433
   O      0.00000   5.80036   9.08087  -0.00000   0.00303   0.02433
   O      0.00000   5.80036   3.02696   0.00000   0.00303  -0.02433
   O      0.00000   1.93345   9.08087  -0.00000  -0.00303   0.02433
   O      5.80036   0.00000   3.02696  -0.00303  -0.00000   0.02433
   O      1.93345   0.00000   9.08087   0.00303   0.00000  -0.02433
   O      1.93345   0.00000   3.02696   0.00303  -0.00000   0.02433
   O      5.80036   0.00000   9.08087  -0.00303   0.00000  -0.02433
   O      1.93345   3.86691   9.08087   0.00286   0.00000   0.02506
   O      1.93345   3.86691   3.02696   0.00286  -0.00000  -0.02506
   O      3.86691   1.93345   3.02696  -0.00000  -0.00286   0.02506
   O      3.86691   1.93345   9.08087   0.00000  -0.00286  -0.02506
   O      3.86691   5.80036   3.02696  -0.00000   0.00286   0.02506
   O      3.86691   5.80036   9.08087   0.00000   0.00286  -0.02506
   O      5.80036   3.86691   9.08087  -0.00286  -0.00000   0.02506
   O      5.80036   3.86691   3.02696  -0.00286  -0.00000  -0.02506
PRIMCOORD   89
     40   1
   Bi     0.00000   0.00000   4.29699   0.00053   0.00029  -0.00000
   Bi     0.00000   0.00000   7.81084  -0.00053  -0.00029   0.00000
   Bi     1.93345   1.93345  10.35090   0.00005   0.00007  -0.00163
   Bi     1.93345   1.93345   1.75692  -0.00005  -0.00007  -0.00163
   Bi     0.00000   3.86691   4.29699   0.00036  -0.00027   0.00000
   Bi     0.00000   3.86691   7.81084  -0.00036   0.00027   0.00000
   Bi     3.86691   0.00000   4.29699  -0.00049   0.00020  -0.00000
   Bi     3.86691   0.00000   7.81084   0.00049  -0.00020  -0.00000
   Bi     1.93345   5.80036  10.35090  -0.00003  -0.00006  -0.00046
   Bi     1.93345   5.80036   1.75692   0.00003   0.00006  -0.00046
   Bi     5.80036   1.93345  10.35090  -0.00003  -0.00006   0.00046
   Bi     5.80036   1.93345   1.75692   0.00003   0.00006   0.00046
   Bi     3.86691   3.86691   4.29699  -0.00037  -0.00021   0.00000
   Bi     3.86691   3.86691   7.81084   0.00037   0.00021  -0.00000
   Bi     5.80036   5.80036  10.35090   0.00005   0.00007   0.00163
   Bi     5.80036   5.80036   1.75692  -0.00005  -0.00007   0.00163
   Se     0.00000   0.00000   0.00000  -0.00000  -0.00000  -0.00000
   Se     1.93345   1.93345   6.05391  -0.00000  -0.00000   0.00089
   Se     0.00000   3.86691   0.00000  -0.00000   0.00000   0.00000
   Se     3.86691   0.00000   0.00000   0.00000  -0.00000  -0.00000
   Se     1.93345   5.80036   6.05391  -0.00000   0.00000   0.00025
   Se     5.80036   1.93345   6.05391   0.00000  -0.00000  -0.00025
   Se     3.86691   3.86691   0.00000  -0.00000   0.00000  -0.00000
   Se     5.80036   5.80036   6.05391   0.00000   0.00000  -0.00089
   O      0.00000   1.93345   3.02696   0.00325  -0.00037   0.01705
   O      0.00000   5.80036   9.08087  -0.00325   0.00037  -0.01705
   O      0.00000   5.80036   3.02696   0.00325  -0.00037  -0.01705
   O      0.00000   1.93345   9.08087  -0.00325   0.00037   0.01705
   O      5.80036   0.00000   3.02696  -0.00066   0.00181  -0.03062
   O      1.93345   0.00000   9.08087   0.00066  -0.00181   0.03062
   O      1.93345   0.00000   3.02696  -0.00066   0.00181   0.03062
   O      5.80036   0.00000   9.08087   0.00066  -0.00181  -0.03062
   O      1.93345   3.86691   9.08087  -0.00078   0.00150   0.03080
   O      1.93345   3.86691   3.02696   0.00078  -0.00150   0.03080
   O      3.86691   1.93345   3.02696  -0.00270   0.00043   0.01716
   O      3.86691   1.93345   9.08087   0.00270  -0.00043   0.01716
   O      3.86691   5.80036   3.02696  -0.00270   0.00043  -0.01716
   O      3.86691   5.80036   9.08087   0.00270  -0.00043  -0.01716
   O      5.80036   3.86691   9.08087  -0.00078   0.00150  -0.03080
   O      5.80036   3.86691   3.02696   0.00078  -0.00150  -0.03080
PRIMCOORD   90
     40   1
   Bi     0.00000   0.00000   4.29699   0.00029  -0.00053  -0.00000
   Bi     0.00000   0.00000   7.81084  -0.00029   0.00053  -0.00000
   Bi     1.93345   1.93345  10.35090  -0.00006   0.00003   0.00046
   Bi     1.93345   1.93345   1.75692   0.00006  -0.00003   0.00046
   Bi     0.00000   3.86691   4.29699   0.00020   0.00049  -0.00000
   Bi     0.00000   3.86691   7.81084  -0.00020  -0.00049   0.00000
   Bi     3.86691   0.00000   4.29699  -0.00027  -0.00036   0.00000
   Bi     3.86691   0.00000   7.81084   0.00027   0.00036  -0.00000
   Bi     1.93345   5.80036  10.35090   0.00007  -0.00005  -0.00163
   Bi     1.93345   5.80036   1.75692  -0.00007   0.00005  -0.00163
   Bi     5.80036   1.93345  10.35090   0.00007  -0.00005   0.00163
   Bi     5.80036   1.93345   1.75692  -0.00007   0.00005   0.00163
   Bi     3.86691   3.86691   4.29699  -0.00021   0.00037   0.00000
   Bi     3.86691   3.86691   7.81084   0.00021  -0.00037  -0.00000
   Bi     5.80036   5.80036  10.35090  -0.00006   0.00003  -0.00046
   Bi     5.80036   5.80036   1.75692   0.00006  -0.00003  -0.00046
   Se     0.00000   0.00000   0.00000   0.00000  -0.00000   0.00000
   Se     1.93345   1.93345   6.05391  -0.00000  -0.00000  -0.00025
   Se     0.00000   3.86691   0.00000   0.00000   0.00000  -0.00000
   Se     3.86691   0.00000   0.00000  -0.00000  -0.00000  -0.00000
   Se     1.93345   5.80036   6.05391  -0.00000   0.00000   0.00089
   Se     5.80036   1.93345   6.05391   0.00000  -0.00000  -0.00089
   Se     3.86691   3.86691   0.00000  -0.00000   0.00000  -0.00000
   Se     5.80036   5.80036   6.05391   0.00000   0.00000   0.00025
   O      0.00000   1.93345   3.02696   0.00181   0.00066  -0.03062
   O      0.00000   5.80036   9.08087  -0.00181  -0.00066   0.03062
   O      0.00000   5.80036   3.02696   0.00181   0.00066   0.03062
   O      0.00000   1.93345   9.08087  -0.00181  -0.00066  -0.03062
   O      5.80036   0.00000   3.02696  -0.00037  -0.00325  -0.01705
   O      1.93345   0.00000   9.08087   0.00037   0.00325   0.01705
   O      1.93345   0.00000   3.02696  -0.00037  -0.00325   0.01705
   O      5.80036   0.00000   9.08087   0.00037   0.00325  -0.01705
   O      1.93345   3.86691   9.08087  -0.00043  -0.00270   0.01716
   O      1.93345   3.86691   3.02696   0.00043   0.00270   0.01716
   O      3.86691   1.93345   3.02696  -0.00150  -0.00078  -0.03080
   O      3.86691   1.93345   9.08087   0.00150   0.00078  -0.03080
   O      3.86691   5.80036   3.02696  -0.00150  -0.00078   0.03080
   O      3.86691   5.80036   9.08087   0.00150   0.00078   0.03080
   O      5.80036   3.86691   9.08087  -0.00043  -0.00270  -0.01716
   O      5.80036   3.86691   3.02696   0.00043   0.00270  -0.01716
PRIMCOORD   91
     40   1
   Bi     0.00000   0.00000   4.29699   0.00000   0.00000  -0.00150
   Bi     0.00000   0.00000   7.81084   0.00000  -0.00000  -0.00150
   Bi     1.93345   1.93345  10.35090  -0.00039  -0.00039   0.00006
   Bi     1.93345   1.93345   1.75692   0.00039   0.00039   0.00006
   Bi     0.00000   3.86691   4.29699  -0.00000   0.00000   0.00006
   Bi     0.00000   3.86691   7.81084  -0.00000   0.00000   0.00006
   Bi     3.86691   0.00000   4.29699   0.00000  -0.00000   0.00006
   Bi     3.86691   0.00000   7.81084   0.00000  -0.00000   0.00006
   Bi     1.93345   5.80036  10.35090  -0.00039   0.00039   0.00006
   Bi     1.93345   5.80036   1.75692   0.00039  -0.00039   0.00006
   Bi     5.80036   1.93345  10.35090   0.00039  -0.00039   0.00006
   Bi     5.80036   1.93345   1.75692  -0.00039   0.00039   0.00006
   Bi     3.86691   3.86691   4.29699  -0.00000  -0.00000   0.00162
   Bi     3.86691   3.86691   7.81084  -0.00000  -0.00000   0.00162
   Bi     5.80036   5.80036  10.35090   0.00039   0.00039   0.00006
   Bi     5.80036   5.80036   1.75692  -0.00039  -0.00039   0.00006
   Se     0.00000   0.00000   0.00000   0.00000   0.00000   0.00096
   Se     1.93345   1.93345   6.05391   0.00000   0.00000   0.00010
   Se     0.00000   3.86691   0.00000  -0.00000  -0.00000   0.00006
   Se     3.86691   0.00000   0.00000   0.00000   0.00000   0.00006
   Se     1.93345   5.80036   6.05391   0.00000  -0.00000   0.00010
   Se     5.80036   1.93345   6.05391  -0.00000   0.00000   0.00010
   Se     3.86691   3.86691   0.00000  -0.00000  -0.00000  -0.00076
   Se     5.80036   5.80036   6.05391  -0.00000  -0.00000   0.00010
   O      0.00000   1.93345   3.02696  -0.00000   0.00205   0.02388
   O      0.00000   5.80036   9.08087  -0.00000   0.00205   0.02388
   O      0.00000   5.80036   3.02696   0.00000  -0.00205   0.02388
   O      0.00000   1.93345   9.08087   0.00000  -0.00205   0.02388
   O      5.80036   0.00000   3.02696  -0.00205  -0.00000   0.02388
   O      1.93345   0.00000   9.08087  -0.00205   0.00000   0.02388
   O      1.93345   0.00000   3.02696   0.00205  -0.00000   0.02388
   O      5.80036   0.00000   9.08087   0.00205  -0.00000   0.02388
   O      1.93345   3.86691   9.08087  -0.00167  -0.00000  -0.02590
   O      1.93345   3.86691   3.02696   0.00167   0.00000  -0.02590
   O      3.86691   1.93345   3.02696  -0.00000   0.00167  -0.02590
   O      3.86691   1.93345   9.08087  -0.00000  -0.00167  -0.02590
   O      3.86691   5.80036   3.02696   0.00000  -0.00167  -0.02590
   O      3.86691   5.80036   9.08087  -0.00000   0.00167  -0.02590
   O      5.80036   3.86691   9.08087   0.00167   0.00000  -0.02590
   O      5.80036   3.86691   3.02696  -0.00167  -0.00000  -0.02590
PRIMCOORD   92
     40   1
   Bi     0.00000   0.00000   4.29699  -0.00000  -0.00000  -0.00000
   Bi     0.00000   0.00000   7.81084  -0.00000  -0.00000  -0.00000
   Bi     1.93345   1.93345  10.35090  -0.00038   0.00038   0.00000
   Bi     1.93345   1.93345   1.75692   0.00038  -0.00038   0.00000
   Bi     0.00000   3.86691   4.29699  -0.00000   0.00000  -0.00166
   Bi     0.00000   3.86691   7.81084   0.00000   0.00000  -0.00166
   Bi     3.86691   0.00000   4.29699   0.00000  -0.00000   0.00166
   Bi     3.86691   0.00000   7.81084  -0.00000  -0.00000   0.00166
   Bi     1.93345   5.80036  10.35090  -0.00038  -0.00038   0.00000
   Bi     1.93345   5.80036   1.75692   0.00038   0.00038   0.00000
   Bi     5.80036   1.93345  10.35090   0.00038   0.00038  -0.00000
   Bi     5.80036   1.93345   1.75692  -0.00038  -0.00038   0.00000
   Bi     3.86691   3.86691   4.29699   0.00000   0.00000   0.00000
   Bi     3.86691   3.86691   7.81084   0.00000   0.00000   0.00000
   Bi     5.80036   5.80036  10.35090   0.00038  -0.00038   0.00000
   Bi     5.80036   5.80036   1.75692  -0.00038   0.00038   0.00000
   Se     0.00000   0.00000   0.00000  -0.00000   0.00000   0.00000
   Se     1.93345   1.93345   6.05391   0.00000   0.00000   0.00000
   Se     0.00000   3.86691   0.00000  -0.00000  -0.00000   0.00035
   Se     3.86691   0.00000   0.00000  -0.00000   0.00000  -0.00035
   Se     1.93345   5.80036   6.05391   0.00000  -0.00000   0.00000
   Se     5.80036   1.93345   6.05391  -0.00000   0.00000   0.00000
   Se     3.86691   3.86691   0.00000   0.00000  -0.00000  -0.00000
   Se     5.80036   5.80036   6.05391  -0.00000  -0.00000   0.00000
   O      0.00000   1.93345   3.02696   0.00000  -0.00248   0.02699
   O      0.00000   5.80036   9.08087   0.00000  -0.00248   0.02699
   O      0.00000   5.80036   3.02696   0.00000   0.00248   0.02699
   O      0.00000   1.93345   9.08087  -0.00000   0.00248   0.02699
   O      5.80036   0.00000   3.02696  -0.00248  -0.00000  -0.02699
   O      1.93345   0.00000   9.08087  -0.00248  -0.00000  -0.02699
   O      1.93345   0.00000   3.02696   0.00248   0.00000  -0.02699
   O      5.80036   0.00000   9.08087   0.00248   0.00000  -0.02699
   O      1.93345   3.86691   9.08087  -0.00229  -0.00000   0.02255
   O      1.93345   3.86691   3.02696   0.00229  -0.00000   0.02255
   O      3.86691   1.93345   3.02696   0.00000  -0.00229  -0.02255
   O      3.86691   1.93345   9.08087   0.00000   0.00229  -0.02255
   O      3.86691   5.80036   3.02696   0.00000   0.00229  -0.02255
   O      3.86691   5.80036   9.08087   0.00000  -0.00229  -0.02255
   O      5.80036   3.86691   9.08087   0.00229   0.00000   0.02255
   O      5.80036   3.86691   3.02696  -0.00229  -0.00000   0.02255
PRIMCOORD   93
     40   1
   Bi     0.00000   0.00000   4.29699  -0.00000   0.00000   0.00000
   Bi     0.00000   0.00000   7.81084  -0.00000  -0.00000  -0.00000
   Bi     1.93345   1.93345  10.35090   0.00004  -0.00004   0.00000
   Bi     1.93345   1.93345   1.75692  -0.00004   0.00004   0.00000
   Bi     0.00000   3.86691   4.29699  -0.00000  -0.00000   0.00007
   Bi     0.00000   3.86691   7.81084   0.00000   0.00000   0.00007
   Bi     3.86691   0.00000   4.29699   0.00000   0.00000  -0.00007
   Bi     3.86691   0.00000   7.81084  -0.00000  -0.00000  -0.00007
   Bi     1.93345   5.80036  10.35090   0.00004   0.00004   0.00000
   Bi     1.93345   5.80036   1.75692  -0.00004  -0.00004   0.00000
   Bi     5.80036   1.93345  10.35090  -0.00004  -0.00004  -0.00000
   Bi     5.80036   1.93345   1.75692   0.00004   0.00004  -0.00000
   Bi     3.86691   3.86691   4.29699   0.00000   0.00000   0.00000
   Bi     3.86691   3.86691   7.81084   0.00000   0.00000   0.00000
   Bi     5.80036   5.80036  10.35090  -0.00004   0.00004  -0.00000
   Bi     5.80036   5.80036   1.75692   0.00004  -0.00004  -0.00000
   Se     0.00000   0.00000   0.00000   0.00000   0.00000  -0.00000
   Se     1.93345   1.93345   6.05391  -0.00000   0.00000  -0.00000
   Se     0.00000   3.86691   0.00000   0.00000  -0.00000  -0.00006
   Se     3.86691   0.00000   0.00000  -0.00000   0.00000   0.00006
   Se     1.93345   5.80036   6.05391  -0.00000  -0.00000  -0.00000
   Se     5.80036   1.93345   6.05391   0.00000   0.00000  -0.00000
   Se     3.86691   3.86691   0.00000  -0.00000   0.00000  -0.00000
   Se     5.80036   5.80036   6.05391   0.00000  -0.00000  -0.00000
   O      0.00000   1.93345   3.02696   0.00000   0.00021   0.02271
   O      0.00000   5.80036   9.08087   0.00000   0.00021   0.02271
   O      0.00000   5.80036   3.02696   0.00000  -0.00021   0.02271
   O      0.00000   1.93345   9.08087   0.00000  -0.00021   0.02271
   O      5.80036   0.00000   3.02696   0.00021   0.00000  -0.02271
   O      1.93345   0.00000   9.08087   0.00021   0.00000  -0.02271
   O      1.93345   0.00000   3.02696  -0.00021  -0.00000  -0.02271
   O      5.80036   0.00000   9.08087  -0.00021  -0.00000  -0.02271
   O      1.93345   3.86691   9.08087   0.00005   0.00000  -0.02710
   O      1.93345   3.86691   3.02696  -0.00005   0.00000  -0.02710
   O      3.86691   1.93345   3.02696  -0.00000   0.00005   0.02710
   O      3.86691   1.93345   9.08087  -0.00000  -0.00005   0.02710
   O      3.86691   5.80036   3.02696  -0.00000  -0.00005   0.02710
   O      3.86691   5.80036   9.08087  -0.00000   0.00005   0.02710
   O      5.80036   3.86691   9.08087  -0.00005  -0.00000  -0.02710
   O      5.80036   3.86691   3.02696   0.00005   0.00000  -0.02710
PRIMCOORD   94
     40   1
   Bi     0.00000   0.00000   4.29699   0.00000  -0.00000   0.00000
   Bi     0.00000   0.00000   7.81084   0.00000  -0.00000   0.00000
   Bi     1.93345   1.93345  10.35090  -0.00003   0.00003   0.00000
   Bi     1.93345   1.93345   1.75692  -0.00003   0.00003   0.00000
   Bi     0.00000   3.86691   4.29699  -0.00000  -0.00000   0.00003
   Bi     0.00000   3.86691   7.81084   0.00000  -0.00000  -0.00003
   Bi     3.86691   0.00000   4.29699   0.00000   0.00000  -0.00003
   Bi     3.86691   0.00000   7.81084  -0.00000   0.00000   0.00003
   Bi     1.93345   5.80036  10.35090  -0.00003  -0.00003   0.00000
   Bi     1.93345   5.80036   1.75692  -0.00003  -0.00003   0.00000
   Bi     5.80036   1.93345  10.35090   0.00003   0.00003   0.00000
   Bi     5.80036   1.93345   1.75692   0.00003   0.00003  -0.00000
   Bi     3.86691   3.86691   4.29699  -0.00000   0.00000   0.00000
   Bi     3.86691   3.86691   7.81084  -0.00000   0.00000   0.00000
   Bi     5.80036   5.80036  10.35090   0.00003  -0.00003   0.00000
   Bi     5.80036   5.80036   1.75692   0.00003  -0.00003  -0.00000
   Se     0.00000   0.00000   0.00000   0.00000  -0.00000   0.00000
   Se     1.93345   1.93345   6.05391   0.00005  -0.00005   0.00000
   Se     0.00000   3.86691   0.00000  -0.00000  -0.00000   0.00000
   Se     3.86691   0.00000   0.00000   0.00000   0.00000   0.00000
   Se     1.93345   5.80036   6.05391   0.00005   0.00005   0.00000
   Se     5.80036   1.93345   6.05391  -0.00005  -0.00005   0.00000
   Se     3.86691   3.86691   0.00000  -0.00000   0.00000   0.00000
   Se     5.80036   5.80036   6.05391  -0.00005   0.00005   0.00000
   O      0.00000   1.93345   3.02696  -0.00000   0.00014  -0.02535
   O      0.00000   5.80036   9.08087  -0.00000  -0.00014   0.02535
   O      0.00000   5.80036   3.02696  -0.00000  -0.00014  -0.02535
   O      0.00000   1.93345   9.08087  -0.00000   0.00014   0.02535
   O      5.80036   0.00000   3.02696   0.00014   0.00000   0.02535
   O      1.93345   0.00000   9.08087  -0.00014   0.00000  -0.02535
   O      1.93345   0.00000   3.02696  -0.00014  -0.00000   0.02535
   O      5.80036   0.00000   9.08087   0.00014  -0.00000  -0.02535
   O      1.93345   3.86691   9.08087  -0.00012   0.00000  -0.02465
   O      1.93345   3.86691   3.02696  -0.00012  -0.00000   0.02465
   O      3.86691   1.93345   3.02696   0.00000   0.00012  -0.02465
   O      3.86691   1.93345   9.08087   0.00000   0.00012   0.02465
   O      3.86691   5.80036   3.02696   0.00000  -0.00012  -0.02465
   O      3.86691   5.80036   9.08087   0.00000  -0.00012   0.02465
   O      5.80036   3.86691   9.08087   0.00012   0.00000  -0.02465
   O      5.80036   3.86691   3.02696   0.00012   0.00000   0.02465
PRIMCOORD   95
     40   1
   Bi     0.00000   0.00000   4.29699   0.00000  -0.00000  -0.00000
   Bi     0.00000   0.00000   7.81084   0.00000  -0.00000  -0.00000
   Bi     1.93345   1.93345  10.35090   0.00038   0.00038  -0.00000
   Bi     1.93345   1.93345   1.75692  -0.00038  -0.00038  -0.00000
   Bi     0.00000   3.86691   4.29699  -0.00000   0.00000   0.00000
   Bi     0.00000   3.86691   7.81084   0.00000  -0.00000  -0.00000
   Bi     3.86691   0.00000   4.29699   0.00000  -0.00000   0.00000
   Bi     3.86691   0.00000   7.81084   0.00000   0.00000  -0.00000
   Bi     1.93345   5.80036  10.35090  -0.00038   0.00038   0.00000
   Bi     1.93345   5.80036   1.75692   0.00038  -0.00038   0.00000
   Bi     5.80036   1.93345  10.35090   0.00038  -0.00038   0.00000
   Bi     5.80036   1.93345   1.75692  -0.00038   0.00038   0.00000
   Bi     3.86691   3.86691   4.29699  -0.00000   0.00000   0.00000
   Bi     3.86691   3.86691   7.81084  -0.00000   0.00000   0.00000
   Bi     5.80036   5.80036  10.35090  -0.00038  -0.00038  -0.00000
   Bi     5.80036   5.80036   1.75692   0.00038   0.00038  -0.00000
   Se     0.00000   0.00000   0.00000   0.00000  -0.00000   0.00000
   Se     1.93345   1.93345   6.05391   0.00000   0.00000  -0.00000
   Se     0.00000   3.86691   0.00000  -0.00000  -0.00000   0.00000
   Se     3.86691   0.00000   0.00000  -0.00000   0.00000  -0.00000
   Se     1.93345   5.80036   6.05391  -0.00000  -0.00000   0.00000
   Se     5.80036   1.93345   6.05391   0.00000  -0.00000   0.00000
   Se     3.86691   3.86691   0.00000   0.00000   0.00000   0.00000
   Se     5.80036   5.80036   6.05391  -0.00000  -0.00000  -0.00000
   O      0.00000   1.93345   3.02696   0.02500  -0.00000  -0.00000
   O      0.00000   5.80036   9.08087   0.02500   0.00000   0.00000
   O      0.00000   5.80036   3.02696  -0.02500  -0.00000   0.00000
   O      0.00000   1.93345   9.08087  -0.02500   0.00000  -0.00000
   O      5.80036   0.00000   3.02696  -0.00000  -0.02500   0.00000
   O      1.93345   0.00000   9.08087  -0.00000  -0.02500  -0.00000
   O      1.93345   0.00000   3.02696  -0.00000   0.02500  -0.00000
   O      5.80036   0.00000   9.08087  -0.00000   0.02500   0.00000
   O      1.93345   3.86691   9.08087   0.00000  -0.02500  -0.00000
   O      1.93345   3.86691   3.02696   0.00000   0.02500  -0.00000
   O      3.86691   1.93345   3.02696   0.02500   0.00000   0.00000
   O      3.86691   1.93345   9.08087  -0.02500  -0.00000  -0.00000
   O      3.86691   5.80036   3.02696  -0.02500   0.00000   0.00000
   O      3.86691   5.80036   9.08087   0.02500  -0.00000   0.00000
   O      5.80036   3.86691   9.08087   0.00000   0.02500  -0.00000
   O      5.80036   3.86691   3.02696   0.00000  -0.02500   0.00000
PRIMCOORD   96
     40   1
   Bi     0.00000   0.00000   4.29699  -0.00054   0.00002  -0.00000
   Bi     0.00000   0.00000   7.81084   0.00054  -0.00002  -0.00000
   Bi     1.93345   1.93345  10.35090  -0.00000  -0.00000  -0.00002
   Bi     1.93345   1.93345   1.75692   0.00000   0.00000  -0.00002
   Bi     0.00000   3.86691   4.29699   0.00071   0.00003  -0.00000
   Bi     0.00000   3.86691   7.81084  -0.00071  -0.00003  -0.00000
   Bi     3.86691   0.00000   4.29699  -0.00072  -0.00003   0.00000
   Bi     3.86691   0.00000   7.81084   0.00072   0.00003   0.00000
   Bi     1.93345   5.80036  10.35090  -0.00000   0.00000  -0.00002
   Bi     1.93345   5.80036   1.75692   0.00000  -0.00000  -0.00002
   Bi     5.80036   1.93345  10.35090  -0.00000   0.00000   0.00002
   Bi     5.80036   1.93345   1.75692   0.00000  -0.00000   0.00002
   Bi     3.86691   3.86691   4.29699   0.00066  -0.00003  -0.00000
   Bi     3.86691   3.86691   7.81084  -0.00066   0.00003   0.00000
   Bi     5.80036   5.80036  10.35090  -0.00000  -0.00000   0.00002
   Bi     5.80036   5.80036   1.75692   0.00000   0.00000   0.00002
   Se     0.00000   0.00000   0.00000   0.00000   0.00000   0.00000
   Se     1.93345   1.93345   6.05391   0.00000   0.00000  -0.00002
   Se     0.00000   3.86691   0.00000  -0.00000   0.00000   0.00000
   Se     3.86691   0.00000   0.00000   0.00000  -0.00000   0.00000
   Se     1.93345   5.80036   6.05391   0.00000  -0.00000  -0.00002
   Se     5.80036   1.93345   6.05391  -0.00000   0.00000   0.00002
   Se     3.86691   3.86691   0.00000  -0.00000  -0.00000   0.00000
   Se     5.80036   5.80036   6.05391  -0.00000   0.00000   0.00002
   O      0.00000   1.93345   3.02696  -0.00040  -0.00148  -0.00005
   O      0.00000   5.80036   9.08087   0.00040   0.00148   0.00005
   O      0.00000   5.80036   3.02696  -0.00040  -0.00148   0.00005
   O      0.00000   1.93345   9.08087   0.00040   0.00148  -0.00005
   O      5.80036   0.00000   3.02696   0.03526   0.00002  -0.00128
   O      1.93345   0.00000   9.08087  -0.03526  -0.00002   0.00128
   O      1.93345   0.00000   3.02696   0.03526   0.00002   0.00128
   O      5.80036   0.00000   9.08087  -0.03526  -0.00002  -0.00128
   O      1.93345   3.86691   9.08087   0.03535   0.00001   0.00040
   O      1.93345   3.86691   3.02696  -0.03535  -0.00001   0.00040
   O      3.86691   1.93345   3.02696   0.00012   0.00148  -0.00002
   O      3.86691   1.93345   9.08087  -0.00012  -0.00148  -0.00002
   O      3.86691   5.80036   3.02696   0.00012   0.00148   0.00002
   O      3.86691   5.80036   9.08087  -0.00012  -0.00148   0.00002
   O      5.80036   3.86691   9.08087   0.03535   0.00001  -0.00040
   O      5.80036   3.86691   3.02696  -0.03535  -0.00001  -0.00040
PRIMCOORD   97
     40   1
   Bi     0.00000   0.00000   4.29699   0.00002   0.00054   0.00000
   Bi     0.00000   0.00000   7.81084  -0.00002  -0.00054   0.00000
   Bi     1.93345   1.93345  10.35090   0.00000   0.00000   0.00002
   Bi     1.93345   1.93345   1.75692  -0.00000  -0.00000   0.00002
   Bi     0.00000   3.86691   4.29699  -0.00003   0.00072   0.00000
   Bi     0.00000   3.86691   7.81084   0.00003  -0.00072   0.00000
   Bi     3.86691   0.00000   4.29699   0.00003  -0.00071   0.00000
   Bi     3.86691   0.00000   7.81084  -0.00003   0.00071   0.00000
   Bi     1.93345   5.80036  10.35090  -0.00000   0.00000  -0.00002
   Bi     1.93345   5.80036   1.75692   0.00000  -0.00000  -0.00002
   Bi     5.80036   1.93345  10.35090  -0.00000   0.00000   0.00002
   Bi     5.80036   1.93345   1.75692   0.00000  -0.00000   0.00002
   Bi     3.86691   3.86691   4.29699  -0.00003  -0.00066   0.00000
   Bi     3.86691   3.86691   7.81084   0.00003   0.00066  -0.00000
   Bi     5.80036   5.80036  10.35090   0.00000   0.00000  -0.00002
   Bi     5.80036   5.80036   1.75692  -0.00000  -0.00000  -0.00002
   Se     0.00000   0.00000   0.00000  -0.00000  -0.00000   0.00000
   Se     1.93345   1.93345   6.05391  -0.00000  -0.00000   0.00002
   Se     0.00000   3.86691   0.00000  -0.00000  -0.00000   0.00000
   Se     3.86691   0.00000   0.00000   0.00000   0.00000  -0.00000
   Se     1.93345   5.80036   6.05391   0.00000  -0.00000  -0.00002
   Se     5.80036   1.93345   6.05391  -0.00000   0.00000   0.00002
   Se     3.86691   3.86691   0.00000   0.00000   0.00000   0.00000
   Se     5.80036   5.80036   6.05391   0.00000   0.00000  -0.00002
   O      0.00000   1.93345   3.02696   0.00002  -0.03526  -0.00128
   O      0.00000   5.80036   9.08087  -0.00002   0.03526   0.00128
   O      0.00000   5.80036   3.02696   0.00002  -0.03526   0.00128
   O      0.00000   1.93345   9.08087  -0.00002   0.03526  -0.00128
   O      5.80036   0.00000   3.02696  -0.00148   0.00040   0.00005
   O      1.93345   0.00000   9.08087   0.00148  -0.00040  -0.00005
   O      1.93345   0.00000   3.02696  -0.00148   0.00040  -0.00005
   O      5.80036   0.00000   9.08087   0.00148  -0.00040   0.00005
   O      1.93345   3.86691   9.08087  -0.00148   0.00012  -0.00002
   O      1.93345   3.86691   3.02696   0.00148  -0.00012  -0.00002
   O      3.86691   1.93345   3.02696  -0.00001   0.03535  -0.00040
   O      3.86691   1.93345   9.08087   0.00001  -0.03535  -0.00040
   O      3.86691   5.80036   3.02696  -0.00001   0.03535   0.00040
   O      3.86691   5.80036   9.08087   0.00001  -0.03535   0.00040
   O      5.80036   3.86691   9.08087  -0.00148   0.00012   0.00002
   O      5.80036   3.86691   3.02696   0.00148  -0.00012   0.00002
PRIMCOORD   98
     40   1
   Bi     0.00000   0.00000   4.29699   0.00000  -0.00000  -0.00000
   Bi     0.00000   0.00000   7.81084   0.00000  -0.00000   0.00000
   Bi     1.93345   1.93345  10.35090   0.00049   0.00049   0.00002
   Bi     1.93345   1.93345   1.75692   0.00049   0.00049  -0.00002
   Bi     0.00000   3.86691   4.29699  -0.00000  -0.00000  -0.00000
   Bi     0.00000   3.86691   7.81084  -0.00000  -0.00000   0.00000
   Bi     3.86691   0.00000   4.29699   0.00000   0.00000   0.00000
   Bi     3.86691   0.00000   7.81084   0.00000   0.00000   0.00000
   Bi     1.93345   5.80036  10.35090  -0.00049   0.00049  -0.00002
   Bi     1.93345   5.80036   1.75692  -0.00049   0.00049   0.00002
   Bi     5.80036   1.93345  10.35090   0.00049  -0.00049  -0.00002
   Bi     5.80036   1.93345   1.75692   0.00049  -0.00049   0.00002
   Bi     3.86691   3.86691   4.29699  -0.00000   0.00000  -0.00000
   Bi     3.86691   3.86691   7.81084  -0.00000   0.00000   0.00000
   Bi     5.80036   5.80036  10.35090  -0.00049  -0.00049   0.00002
   Bi     5.80036   5.80036   1.75692  -0.00049  -0.00049  -0.00002
   Se     0.00000   0.00000   0.00000   0.00000  -0.00000  -0.00000
   Se     1.93345   1.93345   6.05391   0.00061   0.00061  -0.00000
   Se     0.00000   3.86691   0.00000  -0.00000  -0.00000   0.00000
   Se     3.86691   0.00000   0.00000   0.00000   0.00000   0.00000
   Se     1.93345   5.80036   6.05391  -0.00061   0.00061   0.00000
   Se     5.80036   1.93345   6.05391   0.00061  -0.00061   0.00000
   Se     3.86691   3.86691   0.00000  -0.00000   0.00000  -0.00000
   Se     5.80036   5.80036   6.05391  -0.00061  -0.00061   0.00000
   O      0.00000   1.93345   3.02696  -0.02498   0.00000   0.00000
   O      0.00000   5.80036   9.08087   0.02498   0.00000   0.00000
   O      0.00000   5.80036   3.02696   0.02498   0.00000  -0.00000
   O      0.00000   1.93345   9.08087  -0.02498   0.00000  -0.00000
   O      5.80036   0.00000   3.02696  -0.00000   0.02498   0.00000
   O      1.93345   0.00000   9.08087  -0.00000  -0.02498   0.00000
   O      1.93345   0.00000   3.02696  -0.00000  -0.02498  -0.00000
   O      5.80036   0.00000   9.08087  -0.00000   0.02498  -0.00000
   O      1.93345   3.86691   9.08087   0.00000  -0.02500   0.00000
   O      1.93345   3.86691   3.02696   0.00000  -0.02500  -0.00000
   O      3.86691   1.93345   3.02696  -0.02500  -0.00000   0.00000
   O      3.86691   1.93345   9.08087  -0.02500  -0.00000  -0.00000
   O      3.86691   5.80036   3.02696   0.02500  -0.00000  -0.00000
   O      3.86691   5.80036   9.08087   0.02500  -0.00000   0.00000
   O      5.80036   3.86691   9.08087   0.00000   0.02500   0.00000
   O      5.80036   3.86691   3.02696   0.00000   0.02500   0.00000
PRIMCOORD   99
     40   1
   Bi     0.00000   0.00000   4.29699  -0.00005   0.00079   0.00000
   Bi     0.00000   0.00000   7.81084  -0.00005   0.00079  -0.00000
   Bi     1.93345   1.93345  10.35090  -0.00003   0.00006  -0.00004
   Bi     1.93345   1.93345   1.75692  -0.00003   0.00006   0.00004
   Bi     0.00000   3.86691   4.29699   0.00004   0.00054   0.00000
   Bi     0.00000   3.86691   7.81084   0.00004   0.00054  -0.00000
   Bi     3.86691   0.00000   4.29699  -0.00003  -0.00061  -0.00000
   Bi     3.86691   0.00000   7.81084  -0.00003  -0.00061   0.00000
   Bi     1.93345   5.80036  10.35090   0.00003   0.00006   0.00004
   Bi     1.93345   5.80036   1.75692   0.00003   0.00006  -0.00004
   Bi     5.80036   1.93345  10.35090   0.00003   0.00006  -0.00004
   Bi     5.80036   1.93345   1.75692   0.00003   0.00006   0.00004
   Bi     3.86691   3.86691   4.29699   0.00004  -0.00075   0.00000
   Bi     3.86691   3.86691   7.81084   0.00004  -0.00075  -0.00000
   Bi     5.80036   5.80036  10.35090  -0.00003   0.00006   0.00004
   Bi     5.80036   5.80036   1.75692  -0.00003   0.00006  -0.00004
   Se     0.00000   0.00000   0.00000  -0.00005   0.00086  -0.00000
   Se     1.93345   1.93345   6.05391   0.00003   0.00030   0.00000
   Se     0.00000   3.86691   0.00000   0.00007   0.00045   0.00000
   Se     3.86691   0.00000   0.00000  -0.00003  -0.00116  -0.00000
   Se     1.93345   5.80036   6.05391  -0.00007   0.00031  -0.00000
   Se     5.80036   1.93345   6.05391  -0.00007   0.00031  -0.00000
   Se     3.86691   3.86691   0.00000   0.00006  -0.00106   0.00000
   Se     5.80036   5.80036   6.05391   0.00003   0.00030  -0.00000
   O      0.00000   1.93345   3.02696   0.00024  -0.03632  -0.00303
   O      0.00000   5.80036   9.08087   0.00024  -0.03632  -0.00303
   O      0.00000   5.80036   3.02696   0.00024  -0.03632   0.00303
   O      0.00000   1.93345   9.08087   0.00024  -0.03632   0.00303
   O      5.80036   0.00000   3.02696   0.00218  -0.00404  -0.00018
   O      1.93345   0.00000   9.08087   0.00218  -0.00404  -0.00018
   O      1.93345   0.00000   3.02696   0.00218  -0.00404   0.00018
   O      5.80036   0.00000   9.08087   0.00218  -0.00404   0.00018
   O      1.93345   3.86691   9.08087  -0.00199   0.00542  -0.00019
   O      1.93345   3.86691   3.02696  -0.00199   0.00542   0.00019
   O      3.86691   1.93345   3.02696  -0.00032   0.03324  -0.00321
   O      3.86691   1.93345   9.08087  -0.00032   0.03324   0.00321
   O      3.86691   5.80036   3.02696  -0.00032   0.03324   0.00321
   O      3.86691   5.80036   9.08087  -0.00032   0.03324  -0.00321
   O      5.80036   3.86691   9.08087  -0.00199   0.00542   0.00019
   O      5.80036   3.86691   3.02696  -0.00199   0.00542  -0.00019
PRIMCOORD  100
     40   1
   Bi     0.00000   0.00000   4.29699   0.00079   0.00005   0.00000
   Bi     0.00000   0.00000   7.81084   0.00079   0.00005   0.00000
   Bi     1.93345   1.93345  10.35090   0.00006  -0.00003  -0.00004
   Bi     1.93345   1.93345   1.75692   0.00006  -0.00003   0.00004
   Bi     0.00000   3.86691   4.29699  -0.00061   0.00003  -0.00000
   Bi     0.00000   3.86691   7.81084  -0.00061   0.00003  -0.00000
   Bi     3.86691   0.00000   4.29699   0.00054  -0.00004   0.00000
   Bi     3.86691   0.00000   7.81084   0.00054  -0.00004   0.00000
   Bi     1.93345   5.80036  10.35090   0.00006   0.00003  -0.00004
   Bi     1.93345   5.80036   1.75692   0.00006   0.00003   0.00004
   Bi     5.80036   1.93345  10.35090   0.00006   0.00003   0.00004
   Bi     5.80036   1.93345   1.75692   0.00006   0.00003  -0.00004
   Bi     3.86691   3.86691   4.29699  -0.00075  -0.00004  -0.00000
   Bi     3.86691   3.86691   7.81084  -0.00075  -0.00004  -0.00000
   Bi     5.80036   5.80036  10.35090   0.00006  -0.00003   0.00004
   Bi     5.80036   5.80036   1.75692   0.00006  -0.00003  -0.00004
   Se     0.00000   0.00000   0.00000   0.00086   0.00005  -0.00000
   Se     1.93345   1.93345   6.05391   0.00031   0.00007  -0.00000
   Se     0.00000   3.86691   0.00000  -0.00116   0.00003   0.00000
   Se     3.86691   0.00000   0.00000   0.00045  -0.00007  -0.00000
   Se     1.93345   5.80036   6.05391   0.00030  -0.00003  -0.00000
   Se     5.80036   1.93345   6.05391   0.00030  -0.00003  -0.00000
   Se     3.86691   3.86691   0.00000  -0.00106  -0.00006  -0.00000
   Se     5.80036   5.80036   6.05391   0.00031   0.00007  -0.00000
   O      0.00000   1.93345   3.02696  -0.00404  -0.00218  -0.00018
   O      0.00000   5.80036   9.08087  -0.00404  -0.00218  -0.00018
   O      0.00000   5.80036   3.02696  -0.00404  -0.00218   0.00018
   O      0.00000   1.93345   9.08087  -0.00404  -0.00218   0.00018
   O      5.80036   0.00000   3.02696  -0.03632  -0.00024   0.00303
   O      1.93345   0.00000   9.08087  -0.03632  -0.00024   0.00303
   O      1.93345   0.00000   3.02696  -0.03632  -0.00024  -0.00303
   O      5.80036   0.00000   9.08087  -0.03632  -0.00024  -0.00303
   O      1.93345   3.86691   9.08087   0.03324   0.00032   0.00321
   O      1.93345   3.86691   3.02696   0.03324   0.00032  -0.00321
   O      3.86691   1.93345   3.02696   0.00542   0.00199  -0.00019
   O      3.86691   1.93345   9.08087   0.00542   0.00199   0.00019
   O      3.86691   5.80036   3.02696   0.00542   0.00199   0.00019
   O      3.86691   5.80036   9.08087   0.00542   0.00199  -0.00019
   O      5.80036   3.86691   9.08087   0.03324   0.00032  -0.00321
   O      5.80036   3.86691   3.02696   0.03324   0.00032   0.00321
PRIMCOORD  101
     40   1
   Bi     0.00000   0.00000   4.29699  -0.00000  -0.00000   0.00000
   Bi     0.00000   0.00000   7.81084   0.00000  -0.00000  -0.00000
   Bi     1.93345   1.93345  10.35090   0.00040  -0.00040   0.00000
   Bi     1.93345   1.93345   1.75692  -0.00040   0.00040  -0.00000
   Bi     0.00000   3.86691   4.29699   0.00000  -0.00000   0.00000
   Bi     0.00000   3.86691   7.81084  -0.00000  -0.00000  -0.00000
   Bi     3.86691   0.00000   4.29699   0.00000   0.00000   0.00000
   Bi     3.86691   0.00000   7.81084  -0.00000   0.00000  -0.00000
   Bi     1.93345   5.80036  10.35090  -0.00040  -0.00040   0.00000
   Bi     1.93345   5.80036   1.75692   0.00040   0.00040  -0.00000
   Bi     5.80036   1.93345  10.35090   0.00040   0.00040   0.00000
   Bi     5.80036   1.93345   1.75692  -0.00040  -0.00040   0.00000
   Bi     3.86691   3.86691   4.29699   0.00000   0.00000   0.00000
   Bi     3.86691   3.86691   7.81084   0.00000   0.00000  -0.00000
   Bi     5.80036   5.80036  10.35090  -0.00040   0.00040   0.00000
   Bi     5.80036   5.80036   1.75692   0.00040  -0.00040   0.00000
   Se     0.00000   0.00000   0.00000   0.00000  -0.00000   0.00000
   Se     1.93345   1.93345   6.05391  -0.00000   0.00000  -0.00000
   Se     0.00000   3.86691   0.00000  -0.00000  -0.00000   0.00000
   Se     3.86691   0.00000   0.00000  -0.00000   0.00000  -0.00000
   Se     1.93345   5.80036   6.05391  -0.00000   0.00000   0.00000
   Se     5.80036   1.93345   6.05391   0.00000  -0.00000  -0.00000
   Se     3.86691   3.86691   0.00000   0.00000   0.00000  -0.00000
   Se     5.80036   5.80036   6.05391  -0.00000  -0.00000   0.00000
   O      0.00000   1.93345   3.02696   0.02500   0.00000   0.00000
   O      0.00000   5.80036   9.08087   0.02500   0.00000   0.00000
   O      0.00000   5.80036   3.02696  -0.02500   0.00000  -0.00000
   O      0.00000   1.93345   9.08087  -0.02500   0.00000  -0.00000
   O      5.80036   0.00000   3.02696  -0.00000   0.02500  -0.00000
   O      1.93345   0.00000   9.08087  -0.00000   0.02500   0.00000
   O      1.93345   0.00000   3.02696   0.00000  -0.02500  -0.00000
   O      5.80036   0.00000   9.08087  -0.00000  -0.02500   0.00000
   O      1.93345   3.86691   9.08087   0.00000   0.02499   0.00000
   O      1.93345   3.86691   3.02696   0.00000  -0.02499   0.00000
   O      3.86691   1.93345   3.02696   0.02499  -0.00000   0.00000
   O      3.86691   1.93345   9.08087  -0.02499  -0.00000  -0.00000
   O      3.86691   5.80036   3.02696  -0.02499  -0.00000  -0.00000
   O      3.86691   5.80036   9.08087   0.02499  -0.00000  -0.00000
   O      5.80036   3.86691   9.08087   0.00000  -0.02499   0.00000
   O      5.80036   3.86691   3.02696   0.00000   0.02499  -0.00000
PRIMCOORD  102
     40   1
   Bi     0.00000   0.00000   4.29699   0.00000  -0.00000   0.00123
   Bi     0.00000   0.00000   7.81084   0.00000   0.00000   0.00123
   Bi     1.93345   1.93345  10.35090  -0.00001  -0.00001   0.00119
   Bi     1.93345   1.93345   1.75692   0.00001   0.00001   0.00119
   Bi     0.00000   3.86691   4.29699   0.00000   0.00000   0.00116
   Bi     0.00000   3.86691   7.81084   0.00000  -0.00000   0.00116
   Bi     3.86691   0.00000   4.29699  -0.00000  -0.00000   0.00116
   Bi     3.86691   0.00000   7.81084  -0.00000  -0.00000   0.00116
   Bi     1.93345   5.80036  10.35090  -0.00001   0.00001   0.00119
   Bi     1.93345   5.80036   1.75692   0.00001  -0.00001   0.00119
   Bi     5.80036   1.93345  10.35090   0.00001  -0.00001   0.00119
   Bi     5.80036   1.93345   1.75692  -0.00001   0.00001   0.00119
   Bi     3.86691   3.86691   4.29699  -0.00000   0.00000   0.00113
   Bi     3.86691   3.86691   7.81084  -0.00000  -0.00000   0.00113
   Bi     5.80036   5.80036  10.35090   0.00001   0.00001   0.00119
   Bi     5.80036   5.80036   1.75692  -0.00001  -0.00001   0.00119
   Se     0.00000   0.00000   0.00000  -0.00000   0.00000   0.00378
   Se     1.93345   1.93345   6.05391   0.00000   0.00000   0.00392
   Se     0.00000   3.86691   0.00000  -0.00000   0.00000   0.00368
   Se     3.86691   0.00000   0.00000   0.00000   0.00000   0.00368
   Se     1.93345   5.80036   6.05391   0.00000  -0.00000   0.00392
   Se     5.80036   1.93345   6.05391  -0.00000  -0.00000   0.00392
   Se     3.86691   3.86691   0.00000   0.00000  -0.00000   0.00346
   Se     5.80036   5.80036   6.05391  -0.00000  -0.00000   0.00392
   O      0.00000   1.93345   3.02696  -0.00000  -0.00131  -0.02574
   O      0.00000   5.80036   9.08087  -0.00000  -0.00131  -0.02574
   O      0.00000   5.80036   3.02696   0.00000   0.00131  -0.02574
   O      0.00000   1.93345   9.08087  -0.00000   0.00131  -0.02574
   O      5.80036   0.00000   3.02696   0.00131  -0.00000  -0.02574
   O      1.93345   0.00000   9.08087   0.00131  -0.00000  -0.02574
   O      1.93345   0.00000   3.02696  -0.00131   0.00000  -0.02574
   O      5.80036   0.00000   9.08087  -0.00131  -0.00000  -0.02574
   O      1.93345   3.86691   9.08087   0.00140   0.00000  -0.02380
   O      1.93345   3.86691   3.02696  -0.00140   0.00000  -0.02380
   O      3.86691   1.93345   3.02696  -0.00000  -0.00140  -0.02380
   O      3.86691   1.93345   9.08087   0.00000   0.00140  -0.02380
   O      3.86691   5.80036   3.02696   0.00000   0.00140  -0.02380
   O      3.86691   5.80036   9.08087   0.00000  -0.00140  -0.02380
   O      5.80036   3.86691   9.08087  -0.00140  -0.00000  -0.02380
   O      5.80036   3.86691   3.02696   0.00140  -0.00000  -0.02380
PRIMCOORD  103
     40   1
   Bi     0.00000   0.00000   4.29699   0.00000  -0.00000  -0.00000
   Bi     0.00000   0.00000   7.81084  -0.00000  -0.00000   0.00000
   Bi     1.93345   1.93345  10.35090  -0.00050   0.00050   0.00000
   Bi     1.93345   1.93345   1.75692  -0.00050   0.00050  -0.00000
   Bi     0.00000   3.86691   4.29699   0.00000   0.00000   0.00000
   Bi     0.00000   3.86691   7.81084  -0.00000   0.00000   0.00000
   Bi     3.86691   0.00000   4.29699   0.00000  -0.00000  -0.00000
   Bi     3.86691   0.00000   7.81084   0.00000  -0.00000   0.00000
   Bi     1.93345   5.80036  10.35090   0.00050   0.00050   0.00000
   Bi     1.93345   5.80036   1.75692   0.00050   0.00050   0.00000
   Bi     5.80036   1.93345  10.35090  -0.00050  -0.00050   0.00000
   Bi     5.80036   1.93345   1.75692  -0.00050  -0.00050   0.00000
   Bi     3.86691   3.86691   4.29699   0.00000   0.00000   0.00000
   Bi     3.86691   3.86691   7.81084  -0.00000   0.00000   0.00000
   Bi     5.80036   5.80036  10.35090   0.00050  -0.00050   0.00000
   Bi     5.80036   5.80036   1.75692   0.00050  -0.00050   0.00000
   Se     0.00000   0.00000   0.00000   0.00000   0.00000   0.00000
   Se     1.93345   1.93345   6.05391  -0.00014   0.00014   0.00000
   Se     0.00000   3.86691   0.00000   0.00000  -0.00000   0.00000
   Se     3.86691   0.00000   0.00000  -0.00000   0.00000   0.00000
   Se     1.93345   5.80036   6.05391   0.00014   0.00014   0.00000
   Se     5.80036   1.93345   6.05391  -0.00014  -0.00014   0.00000
   Se     3.86691   3.86691   0.00000  -0.00000  -0.00000   0.00000
   Se     5.80036   5.80036   6.05391   0.00014  -0.00014   0.00000
   O      0.00000   1.93345   3.02696   0.02500  -0.00000   0.00000
   O      0.00000   5.80036   9.08087  -0.02500   0.00000   0.00000
   O      0.00000   5.80036   3.02696  -0.02500  -0.00000  -0.00000
   O      0.00000   1.93345   9.08087   0.02500   0.00000  -0.00000
   O      5.80036   0.00000   3.02696  -0.00000   0.02500  -0.00000
   O      1.93345   0.00000   9.08087  -0.00000  -0.02500  -0.00000
   O      1.93345   0.00000   3.02696  -0.00000  -0.02500  -0.00000
   O      5.80036   0.00000   9.08087  -0.00000   0.02500  -0.00000
   O      1.93345   3.86691   9.08087   0.00000  -0.02499  -0.00000
   O      1.93345   3.86691   3.02696   0.00000  -0.02499  -0.00000
   O      3.86691   1.93345   3.02696   0.02499   0.00000   0.00000
   O      3.86691   1.93345   9.08087   0.02499  -0.00000  -0.00000
   O      3.86691   5.80036   3.02696  -0.02499   0.00000  -0.00000
   O      3.86691   5.80036   9.08087  -0.02499  -0.00000   0.00000
   O      5.80036   3.86691   9.08087   0.00000   0.02499  -0.00000
   O      5.80036   3.86691   3.02696   0.00000   0.02499  -0.00000
PRIMCOORD  104
     40   1
   Bi     0.00000   0.00000   4.29699   0.00001   0.00081   0.00000
   Bi     0.00000   0.00000   7.81084   0.00001   0.00081  -0.00000
   Bi     1.93345   1.93345  10.35090  -0.00010   0.00005  -0.00013
   Bi     1.93345   1.93345   1.75692  -0.00010   0.00005   0.00013
   Bi     0.00000   3.86691   4.29699   0.00001  -0.00091  -0.00000
   Bi     0.00000   3.86691   7.81084   0.00001  -0.00091  -0.00000
   Bi     3.86691   0.00000   4.29699  -0.00001   0.00109  -0.00000
   Bi     3.86691   0.00000   7.81084  -0.00001   0.00109  -0.00000
   Bi     1.93345   5.80036  10.35090   0.00010   0.00005   0.00012
   Bi     1.93345   5.80036   1.75692   0.00010   0.00005  -0.00012
   Bi     5.80036   1.93345  10.35090   0.00010   0.00005  -0.00012
   Bi     5.80036   1.93345   1.75692   0.00010   0.00005   0.00012
   Bi     3.86691   3.86691   4.29699  -0.00001  -0.00080  -0.00000
   Bi     3.86691   3.86691   7.81084  -0.00001  -0.00080  -0.00000
   Bi     5.80036   5.80036  10.35090  -0.00010   0.00005   0.00013
   Bi     5.80036   5.80036   1.75692  -0.00010   0.00005  -0.00013
   Se     0.00000   0.00000   0.00000  -0.00003  -0.00208  -0.00000
   Se     1.93345   1.93345   6.05391   0.00030  -0.00000  -0.00000
   Se     0.00000   3.86691   0.00000  -0.00003   0.00214  -0.00000
   Se     3.86691   0.00000   0.00000   0.00003  -0.00266   0.00000
   Se     1.93345   5.80036   6.05391  -0.00030  -0.00001   0.00000
   Se     5.80036   1.93345   6.05391  -0.00030  -0.00001   0.00000
   Se     3.86691   3.86691   0.00000   0.00004   0.00295  -0.00000
   Se     5.80036   5.80036   6.05391   0.00030  -0.00000   0.00000
   O      0.00000   1.93345   3.02696  -0.00045   0.00514  -0.00698
   O      0.00000   5.80036   9.08087  -0.00045   0.00514  -0.00698
   O      0.00000   5.80036   3.02696  -0.00045   0.00514   0.00698
   O      0.00000   1.93345   9.08087  -0.00045   0.00514   0.00698
   O      5.80036   0.00000   3.02696   0.00006  -0.03561   0.00009
   O      1.93345   0.00000   9.08087   0.00006  -0.03561   0.00009
   O      1.93345   0.00000   3.02696   0.00006  -0.03561  -0.00009
   O      5.80036   0.00000   9.08087   0.00006  -0.03561  -0.00009
   O      1.93345   3.86691   9.08087  -0.00007   0.03285   0.00008
   O      1.93345   3.86691   3.02696  -0.00007   0.03285  -0.00008
   O      3.86691   1.93345   3.02696   0.00041  -0.00531  -0.00641
   O      3.86691   1.93345   9.08087   0.00041  -0.00531   0.00641
   O      3.86691   5.80036   3.02696   0.00041  -0.00531   0.00641
   O      3.86691   5.80036   9.08087   0.00041  -0.00531  -0.00641
   O      5.80036   3.86691   9.08087  -0.00007   0.03285  -0.00008
   O      5.80036   3.86691   3.02696  -0.00007   0.03285   0.00008
PRIMCOORD  105
     40   1
   Bi     0.00000   0.00000   4.29699  -0.00081   0.00001   0.00000
   Bi     0.00000   0.00000   7.81084  -0.00081   0.00001   0.00000
   Bi     1.93345   1.93345  10.35090  -0.00005   0.00010   0.00012
   Bi     1.93345   1.93345   1.75692  -0.00005   0.00010  -0.00012
   Bi     0.00000   3.86691   4.29699  -0.00109  -0.00001   0.00000
   Bi     0.00000   3.86691   7.81084  -0.00109  -0.00001   0.00000
   Bi     3.86691   0.00000   4.29699   0.00091   0.00001   0.00000
   Bi     3.86691   0.00000   7.81084   0.00091   0.00001   0.00000
   Bi     1.93345   5.80036  10.35090  -0.00005  -0.00010   0.00013
   Bi     1.93345   5.80036   1.75692  -0.00005  -0.00010  -0.00013
   Bi     5.80036   1.93345  10.35090  -0.00005  -0.00010  -0.00013
   Bi     5.80036   1.93345   1.75692  -0.00005  -0.00010   0.00013
   Bi     3.86691   3.86691   4.29699   0.00080  -0.00001  -0.00000
   Bi     3.86691   3.86691   7.81084   0.00080  -0.00001   0.00000
   Bi     5.80036   5.80036  10.35090  -0.00005   0.00010  -0.00012
   Bi     5.80036   5.80036   1.75692  -0.00005   0.00010   0.00012
   Se     0.00000   0.00000   0.00000   0.00208  -0.00003   0.00000
   Se     1.93345   1.93345   6.05391   0.00001  -0.00030   0.00000
   Se     0.00000   3.86691   0.00000   0.00266   0.00003   0.00000
   Se     3.86691   0.00000   0.00000  -0.00214  -0.00003   0.00000
   Se     1.93345   5.80036   6.05391   0.00000   0.00030   0.00000
   Se     5.80036   1.93345   6.05391   0.00000   0.00030   0.00000
   Se     3.86691   3.86691   0.00000  -0.00295   0.00004   0.00000
   Se     5.80036   5.80036   6.05391   0.00001  -0.00030   0.00000
   O      0.00000   1.93345   3.02696   0.03561   0.00006  -0.00009
   O      0.00000   5.80036   9.08087   0.03561   0.00006  -0.00009
   O      0.00000   5.80036   3.02696   0.03561   0.00006   0.00009
   O      0.00000   1.93345   9.08087   0.03561   0.00006   0.00009
   O      5.80036   0.00000   3.02696  -0.00514  -0.00045  -0.00698
   O      1.93345   0.00000   9.08087  -0.00514  -0.00045  -0.00698
   O      1.93345   0.00000   3.02696  -0.00514  -0.00045   0.00698
   O      5.80036   0.00000   9.08087  -0.00514  -0.00045   0.00698
   O      1.93345   3.86691   9.08087   0.00531   0.00041  -0.00641
   O      1.93345   3.86691   3.02696   0.00531   0.00041   0.00641
   O      3.86691   1.93345   3.02696  -0.03285  -0.00007  -0.00008
   O      3.86691   1.93345   9.08087  -0.03285  -0.00007   0.00008
   O      3.86691   5.80036   3.02696  -0.03285  -0.00007   0.00008
   O      3.86691   5.80036   9.08087  -0.03285  -0.00007  -0.00008
   O      5.80036   3.86691   9.08087   0.00531   0.00041   0.00641
   O      5.80036   3.86691   3.02696   0.00531   0.00041  -0.00641
PRIMCOORD  106
     40   1
   Bi     0.00000   0.00000   4.29699  -0.00000   0.00000   0.00000
   Bi     0.00000   0.00000   7.81084  -0.00000   0.00000  -0.00000
   Bi     1.93345   1.93345  10.35090  -0.00062   0.00062  -0.00000
   Bi     1.93345   1.93345   1.75692  -0.00062   0.00062   0.00000
   Bi     0.00000   3.86691   4.29699  -0.00000  -0.00000  -0.00015
   Bi     0.00000   3.86691   7.81084  -0.00000  -0.00000   0.00015
   Bi     3.86691   0.00000   4.29699   0.00000   0.00000   0.00015
   Bi     3.86691   0.00000   7.81084   0.00000   0.00000  -0.00015
   Bi     1.93345   5.80036  10.35090  -0.00062  -0.00062  -0.00000
   Bi     1.93345   5.80036   1.75692  -0.00062  -0.00062   0.00000
   Bi     5.80036   1.93345  10.35090   0.00062   0.00062   0.00000
   Bi     5.80036   1.93345   1.75692   0.00062   0.00062   0.00000
   Bi     3.86691   3.86691   4.29699   0.00000  -0.00000  -0.00000
   Bi     3.86691   3.86691   7.81084   0.00000  -0.00000   0.00000
   Bi     5.80036   5.80036  10.35090   0.00062  -0.00062  -0.00000
   Bi     5.80036   5.80036   1.75692   0.00062  -0.00062   0.00000
   Se     0.00000   0.00000   0.00000   0.00000  -0.00000  -0.00000
   Se     1.93345   1.93345   6.05391   0.00193  -0.00193  -0.00000
   Se     0.00000   3.86691   0.00000   0.00000   0.00000  -0.00000
   Se     3.86691   0.00000   0.00000  -0.00000  -0.00000  -0.00000
   Se     1.93345   5.80036   6.05391   0.00193   0.00193  -0.00000
   Se     5.80036   1.93345   6.05391  -0.00193  -0.00193  -0.00000
   Se     3.86691   3.86691   0.00000  -0.00000   0.00000  -0.00000
   Se     5.80036   5.80036   6.05391  -0.00193   0.00193  -0.00000
   O      0.00000   1.93345   3.02696   0.00000  -0.02463   0.00364
   O      0.00000   5.80036   9.08087   0.00000   0.02463  -0.00364
   O      0.00000   5.80036   3.02696   0.00000   0.02463   0.00364
   O      0.00000   1.93345   9.08087   0.00000  -0.02463  -0.00364
   O      5.80036   0.00000   3.02696  -0.02463  -0.00000  -0.00364
   O      1.93345   0.00000   9.08087   0.02463  -0.00000   0.00364
   O      1.93345   0.00000   3.02696   0.02463   0.00000  -0.00364
   O      5.80036   0.00000   9.08087  -0.02463  -0.00000   0.00364
   O      1.93345   3.86691   9.08087   0.02470   0.00000  -0.00396
   O      1.93345   3.86691   3.02696   0.02470   0.00000   0.00396
   O      3.86691   1.93345   3.02696  -0.00000  -0.02470  -0.00396
   O      3.86691   1.93345   9.08087  -0.00000  -0.02470   0.00396
   O      3.86691   5.80036   3.02696  -0.00000   0.02470  -0.00396
   O      3.86691   5.80036   9.08087  -0.00000   0.02470   0.00396
   O      5.80036   3.86691   9.08087  -0.02470   0.00000  -0.00396
   O      5.80036   3.86691   3.02696  -0.02470   0.00000   0.00396
PRIMCOORD  107
     40   1
   Bi     0.00000   0.00000   4.29699  -0.00000   0.00000  -0.00018
   Bi     0.00000   0.00000   7.81084  -0.00000   0.00000   0.00018
   Bi     1.93345   1.93345  10.35090  -0.00066  -0.00066   0.00003
   Bi     1.93345   1.93345   1.75692  -0.00066  -0.00066  -0.00003
   Bi     0.00000   3.86691   4.29699  -0.00000  -0.00000  -0.00006
   Bi     0.00000   3.86691   7.81084  -0.00000  -0.00000   0.00006
   Bi     3.86691   0.00000   4.29699   0.00000   0.00000  -0.00006
   Bi     3.86691   0.00000   7.81084   0.00000   0.00000   0.00006
   Bi     1.93345   5.80036  10.35090  -0.00066   0.00066   0.00003
   Bi     1.93345   5.80036   1.75692  -0.00066   0.00066  -0.00003
   Bi     5.80036   1.93345  10.35090   0.00066  -0.00066   0.00003
   Bi     5.80036   1.93345   1.75692   0.00066  -0.00066  -0.00003
   Bi     3.86691   3.86691   4.29699   0.00000  -0.00000   0.00013
   Bi     3.86691   3.86691   7.81084   0.00000  -0.00000  -0.00013
   Bi     5.80036   5.80036  10.35090   0.00066   0.00066   0.00003
   Bi     5.80036   5.80036   1.75692   0.00066   0.00066  -0.00003
   Se     0.00000   0.00000   0.00000   0.00000  -0.00000  -0.00000
   Se     1.93345   1.93345   6.05391   0.00202   0.00202  -0.00000
   Se     0.00000   3.86691   0.00000   0.00000   0.00000  -0.00000
   Se     3.86691   0.00000   0.00000  -0.00000  -0.00000  -0.00000
   Se     1.93345   5.80036   6.05391   0.00202  -0.00202  -0.00000
   Se     5.80036   1.93345   6.05391  -0.00202   0.00202  -0.00000
   Se     3.86691   3.86691   0.00000  -0.00000   0.00000  -0.00000
   Se     5.80036   5.80036   6.05391  -0.00202  -0.00202  -0.00000
   O      0.00000   1.93345   3.02696   0.00000   0.02497   0.00330
   O      0.00000   5.80036   9.08087   0.00000  -0.02497  -0.00330
   O      0.00000   5.80036   3.02696   0.00000  -0.02497   0.00330
   O      0.00000   1.93345   9.08087   0.00000   0.02497  -0.00330
   O      5.80036   0.00000   3.02696  -0.02497  -0.00000   0.00330
   O      1.93345   0.00000   9.08087   0.02497  -0.00000  -0.00330
   O      1.93345   0.00000   3.02696   0.02497  -0.00000   0.00330
   O      5.80036   0.00000   9.08087  -0.02497  -0.00000  -0.00330
   O      1.93345   3.86691   9.08087   0.02454   0.00000   0.00287
   O      1.93345   3.86691   3.02696   0.02454   0.00000  -0.00287
   O      3.86691   1.93345   3.02696   0.00000   0.02454  -0.00287
   O      3.86691   1.93345   9.08087  -0.00000   0.02454   0.00287
   O      3.86691   5.80036   3.02696  -0.00000  -0.02454  -0.00287
   O      3.86691   5.80036   9.08087  -0.00000  -0.02454   0.00287
   O      5.80036   3.86691   9.08087  -0.02454   0.00000   0.00287
   O      5.80036   3.86691   3.02696  -0.02454   0.00000  -0.00287
PRIMCOORD  108
     40   1
   Bi     0.00000   0.00000   4.29699  -0.00090   0.00003  -0.00000
   Bi     0.00000   0.00000   7.81084   0.00090  -0.00003  -0.00000
   Bi     1.93345   1.93345  10.35090   0.00001  -0.00004   0.00023
   Bi     1.93345   1.93345   1.75692  -0.00001   0.00004   0.00023
   Bi     0.00000   3.86691   4.29699  -0.00090  -0.00003  -0.00000
   Bi     0.00000   3.86691   7.81084   0.00090   0.00003  -0.00000
   Bi     3.86691   0.00000   4.29699   0.00099   0.00003  -0.00000
   Bi     3.86691   0.00000   7.81084  -0.00099  -0.00003  -0.00000
   Bi     1.93345   5.80036  10.35090   0.00001   0.00004   0.00024
   Bi     1.93345   5.80036   1.75692  -0.00001  -0.00004   0.00024
   Bi     5.80036   1.93345  10.35090   0.00001   0.00004  -0.00024
   Bi     5.80036   1.93345   1.75692  -0.00001  -0.00004  -0.00024
   Bi     3.86691   3.86691   4.29699   0.00088  -0.00003   0.00000
   Bi     3.86691   3.86691   7.81084  -0.00088   0.00003   0.00000
   Bi     5.80036   5.80036  10.35090   0.00001  -0.00004  -0.00023
   Bi     5.80036   5.80036   1.75692  -0.00001   0.00004  -0.00023
   Se     0.00000   0.00000   0.00000   0.00000   0.00000  -0.00000
   Se     1.93345   1.93345   6.05391   0.00000   0.00000  -0.00058
   Se     0.00000   3.86691   0.00000  -0.00000  -0.00000  -0.00000
   Se     3.86691   0.00000   0.00000   0.00000   0.00000  -0.00000
   Se     1.93345   5.80036   6.05391   0.00000  -0.00000  -0.00061
   Se     5.80036   1.93345   6.05391  -0.00000   0.00000   0.00061
   Se     3.86691   3.86691   0.00000   0.00000  -0.00000  -0.00000
   Se     5.80036   5.80036   6.05391  -0.00000  -0.00000   0.00058
   O      0.00000   1.93345   3.02696   0.03428  -0.00003   0.00009
   O      0.00000   5.80036   9.08087  -0.03428   0.00003  -0.00009
   O      0.00000   5.80036   3.02696   0.03428  -0.00003  -0.00009
   O      0.00000   1.93345   9.08087  -0.03428   0.00003   0.00009
   O      5.80036   0.00000   3.02696   0.00108  -0.00098   0.00306
   O      1.93345   0.00000   9.08087  -0.00108   0.00098  -0.00306
   O      1.93345   0.00000   3.02696   0.00108  -0.00098  -0.00306
   O      5.80036   0.00000   9.08087  -0.00108   0.00098   0.00306
   O      1.93345   3.86691   9.08087  -0.00037  -0.00104  -0.00312
   O      1.93345   3.86691   3.02696   0.00037   0.00104  -0.00312
   O      3.86691   1.93345   3.02696  -0.03606  -0.00001   0.00009
   O      3.86691   1.93345   9.08087   0.03606   0.00001   0.00009
   O      3.86691   5.80036   3.02696  -0.03606  -0.00001  -0.00009
   O      3.86691   5.80036   9.08087   0.03606   0.00001  -0.00009
   O      5.80036   3.86691   9.08087  -0.00037  -0.00104   0.00312
   O      5.80036   3.86691   3.02696   0.00037   0.00104   0.00312
PRIMCOORD  109
     40   1
   Bi     0.00000   0.00000   4.29699  -0.00003  -0.00090  -0.00000
   Bi     0.00000   0.00000   7.81084   0.00003   0.00090   0.00000
   Bi     1.93345   1.93345  10.35090  -0.00004   0.00001   0.00024
   Bi     1.93345   1.93345   1.75692   0.00004  -0.00001   0.00024
   Bi     0.00000   3.86691   4.29699  -0.00003   0.00099  -0.00000
   Bi     0.00000   3.86691   7.81084   0.00003  -0.00099   0.00000
   Bi     3.86691   0.00000   4.29699   0.00003  -0.00090  -0.00000
   Bi     3.86691   0.00000   7.81084  -0.00003   0.00090   0.00000
   Bi     1.93345   5.80036  10.35090   0.00004   0.00001  -0.00023
   Bi     1.93345   5.80036   1.75692  -0.00004  -0.00001  -0.00023
   Bi     5.80036   1.93345  10.35090   0.00004   0.00001   0.00023
   Bi     5.80036   1.93345   1.75692  -0.00004  -0.00001   0.00023
   Bi     3.86691   3.86691   4.29699   0.00003   0.00088  -0.00000
   Bi     3.86691   3.86691   7.81084  -0.00003  -0.00088  -0.00000
   Bi     5.80036   5.80036  10.35090  -0.00004   0.00001  -0.00024
   Bi     5.80036   5.80036   1.75692   0.00004  -0.00001  -0.00024
   Se     0.00000   0.00000   0.00000   0.00000   0.00000  -0.00000
   Se     1.93345   1.93345   6.05391  -0.00000   0.00000  -0.00061
   Se     0.00000   3.86691   0.00000   0.00000  -0.00000  -0.00000
   Se     3.86691   0.00000   0.00000  -0.00000   0.00000  -0.00000
   Se     1.93345   5.80036   6.05391  -0.00000   0.00000   0.00058
   Se     5.80036   1.93345   6.05391   0.00000   0.00000  -0.00058
   Se     3.86691   3.86691   0.00000  -0.00000  -0.00000  -0.00000
   Se     5.80036   5.80036   6.05391   0.00000   0.00000   0.00061
   O      0.00000   1.93345   3.02696   0.00098   0.00108  -0.00306
   O      0.00000   5.80036   9.08087  -0.00098  -0.00108   0.00306
   O      0.00000   5.80036   3.02696   0.00098   0.00108   0.00306
   O      0.00000   1.93345   9.08087  -0.00098  -0.00108  -0.00306
   O      5.80036   0.00000   3.02696   0.00003   0.03428   0.00009
   O      1.93345   0.00000   9.08087  -0.00003  -0.03428  -0.00009
   O      1.93345   0.00000   3.02696   0.00003   0.03428  -0.00009
   O      5.80036   0.00000   9.08087  -0.00003  -0.03428   0.00009
   O      1.93345   3.86691   9.08087  -0.00001   0.03606  -0.00009
   O      1.93345   3.86691   3.02696   0.00001  -0.03606  -0.00009
   O      3.86691   1.93345   3.02696  -0.00104   0.00037  -0.00312
   O      3.86691   1.93345   9.08087   0.00104  -0.00037  -0.00312
   O      3.86691   5.80036   3.02696  -0.00104   0.00037   0.00312
   O      3.86691   5.80036   9.08087   0.00104  -0.00037   0.00312
   O      5.80036   3.86691   9.08087  -0.00001   0.03606   0.00009
   O      5.80036   3.86691   3.02696   0.00001  -0.03606   0.00009
PRIMCOORD  110
     40   1
   Bi     0.00000   0.00000   4.29699   0.00000   0.00000  -0.00037
   Bi     0.00000   0.00000   7.81084  -0.00000  -0.00000  -0.00037
   Bi     1.93345   1.93345  10.35090  -0.00066  -0.00066  -0.00004
   Bi     1.93345   1.93345   1.75692   0.00066   0.00066  -0.00004
   Bi     0.00000   3.86691   4.29699   0.00000  -0.00000  -0.00005
   Bi     0.00000   3.86691   7.81084  -0.00000   0.00000  -0.00005
   Bi     3.86691   0.00000   4.29699  -0.00000   0.00000  -0.00005
   Bi     3.86691   0.00000   7.81084   0.00000  -0.00000  -0.00005
   Bi     1.93345   5.80036  10.35090  -0.00066   0.00066  -0.00004
   Bi     1.93345   5.80036   1.75692   0.00066  -0.00066  -0.00004
   Bi     5.80036   1.93345  10.35090   0.00066  -0.00066  -0.00004
   Bi     5.80036   1.93345   1.75692  -0.00066   0.00066  -0.00004
   Bi     3.86691   3.86691   4.29699  -0.00000  -0.00000   0.00030
   Bi     3.86691   3.86691   7.81084   0.00000   0.00000   0.00030
   Bi     5.80036   5.80036  10.35090   0.00066   0.00066  -0.00004
   Bi     5.80036   5.80036   1.75692  -0.00066  -0.00066  -0.00004
   Se     0.00000   0.00000   0.00000  -0.00000  -0.00000   0.00054
   Se     1.93345   1.93345   6.05391  -0.00000   0.00000  -0.00027
   Se     0.00000   3.86691   0.00000  -0.00000   0.00000  -0.00020
   Se     3.86691   0.00000   0.00000  -0.00000  -0.00000  -0.00020
   Se     1.93345   5.80036   6.05391  -0.00000  -0.00000  -0.00027
   Se     5.80036   1.93345   6.05391   0.00000   0.00000  -0.00027
   Se     3.86691   3.86691   0.00000  -0.00000  -0.00000  -0.00101
   Se     5.80036   5.80036   6.05391   0.00000  -0.00000  -0.00027
   O      0.00000   1.93345   3.02696  -0.00000  -0.02496   0.00287
   O      0.00000   5.80036   9.08087   0.00000  -0.02496   0.00287
   O      0.00000   5.80036   3.02696  -0.00000   0.02496   0.00287
   O      0.00000   1.93345   9.08087   0.00000   0.02496   0.00287
   O      5.80036   0.00000   3.02696   0.02496  -0.00000   0.00287
   O      1.93345   0.00000   9.08087   0.02496   0.00000   0.00287
   O      1.93345   0.00000   3.02696  -0.02496  -0.00000   0.00287
   O      5.80036   0.00000   9.08087  -0.02496   0.00000   0.00287
   O      1.93345   3.86691   9.08087   0.02484   0.00000  -0.00051
   O      1.93345   3.86691   3.02696  -0.02484   0.00000  -0.00051
   O      3.86691   1.93345   3.02696   0.00000  -0.02484  -0.00051
   O      3.86691   1.93345   9.08087  -0.00000   0.02484  -0.00051
   O      3.86691   5.80036   3.02696   0.00000   0.02484  -0.00051
   O      3.86691   5.80036   9.08087  -0.00000  -0.02484  -0.00051
   O      5.80036   3.86691   9.08087  -0.02484  -0.00000  -0.00051
   O      5.80036   3.86691   3.02696   0.02484  -0.00000  -0.00051
PRIMCOORD  111
     40   1
   Bi     0.00000   0.00000   4.29699   0.00000   0.00000   0.00000
   Bi     0.00000   0.00000   7.81084  -0.00000  -0.00000   0.00000
   Bi     1.93345   1.93345  10.35090  -0.00066   0.00066  -0.00000
   Bi     1.93345   1.93345   1.75692   0.00066  -0.00066   0.00000
   Bi     0.00000   3.86691   4.29699   0.00000  -0.00000  -0.00037
   Bi     0.00000   3.86691   7.81084  -0.00000  -0.00000  -0.00037
   Bi     3.86691   0.00000   4.29699  -0.00000  -0.00000   0.00037
   Bi     3.86691   0.00000   7.81084   0.00000   0.00000   0.00037
   Bi     1.93345   5.80036  10.35090  -0.00066  -0.00066  -0.00000
   Bi     1.93345   5.80036   1.75692   0.00066   0.00066   0.00000
   Bi     5.80036   1.93345  10.35090   0.00066   0.00066   0.00000
   Bi     5.80036   1.93345   1.75692  -0.00066  -0.00066   0.00000
   Bi     3.86691   3.86691   4.29699  -0.00000   0.00000  -0.00000
   Bi     3.86691   3.86691   7.81084   0.00000   0.00000  -0.00000
   Bi     5.80036   5.80036  10.35090   0.00066  -0.00066   0.00000
   Bi     5.80036   5.80036   1.75692  -0.00066   0.00066  -0.00000
   Se     0.00000   0.00000   0.00000   0.00000  -0.00000  -0.00000
   Se     1.93345   1.93345   6.05391  -0.00000   0.00000   0.00000
   Se     0.00000   3.86691   0.00000   0.00000  -0.00000   0.00094
   Se     3.86691   0.00000   0.00000   0.00000  -0.00000  -0.00094
   Se     1.93345   5.80036   6.05391  -0.00000  -0.00000   0.00000
   Se     5.80036   1.93345   6.05391  -0.00000   0.00000   0.00000
   Se     3.86691   3.86691   0.00000   0.00000  -0.00000   0.00000
   Se     5.80036   5.80036   6.05391  -0.00000  -0.00000   0.00000
   O      0.00000   1.93345   3.02696  -0.00000   0.02488   0.00225
   O      0.00000   5.80036   9.08087  -0.00000   0.02488   0.00225
   O      0.00000   5.80036   3.02696  -0.00000  -0.02488   0.00225
   O      0.00000   1.93345   9.08087  -0.00000  -0.02488   0.00225
   O      5.80036   0.00000   3.02696   0.02488   0.00000  -0.00225
   O      1.93345   0.00000   9.08087   0.02488   0.00000  -0.00225
   O      1.93345   0.00000   3.02696  -0.02488   0.00000  -0.00225
   O      5.80036   0.00000   9.08087  -0.02488   0.00000  -0.00225
   O      1.93345   3.86691   9.08087   0.02491   0.00000   0.00209
   O      1.93345   3.86691   3.02696  -0.02491   0.00000   0.00209
   O      3.86691   1.93345   3.02696   0.00000   0.02491  -0.00209
   O      3.86691   1.93345   9.08087  -0.00000  -0.02491  -0.00209
   O      3.86691   5.80036   3.02696   0.00000  -0.02491  -0.00209
   O      3.86691   5.80036   9.08087  -0.00000   0.02491  -0.00209
   O      5.80036   3.86691   9.08087  -0.02491   0.00000   0.00209
   O      5.80036   3.86691   3.02696   0.02491   0.00000   0.00209
PRIMCOORD  112
     40   1
   Bi     0.00000   0.00000   4.29699   0.00002   0.00012   0.00000
   Bi     0.00000   0.00000   7.81084  -0.00002  -0.00012  -0.00000
   Bi     1.93345   1.93345  10.35090   0.00008   0.00020   0.00003
   Bi     1.93345   1.93345   1.75692  -0.00008  -0.00020   0.00003
   Bi     0.00000   3.86691   4.29699   0.00003   0.00024   0.00000
   Bi     0.00000   3.86691   7.81084  -0.00003  -0.00024  -0.00000
   Bi     3.86691   0.00000   4.29699   0.00004   0.00019   0.00000
   Bi     3.86691   0.00000   7.81084  -0.00004  -0.00019  -0.00000
   Bi     1.93345   5.80036  10.35090  -0.00001   0.00019  -0.00002
   Bi     1.93345   5.80036   1.75692   0.00001  -0.00019  -0.00002
   Bi     5.80036   1.93345  10.35090  -0.00001   0.00019   0.00002
   Bi     5.80036   1.93345   1.75692   0.00001  -0.00019   0.00002
   Bi     3.86691   3.86691   4.29699   0.00003   0.00020  -0.00000
   Bi     3.86691   3.86691   7.81084  -0.00003  -0.00020  -0.00000
   Bi     5.80036   5.80036  10.35090   0.00008   0.00020  -0.00003
   Bi     5.80036   5.80036   1.75692  -0.00008  -0.00020  -0.00003
   Se     0.00000   0.00000   0.00000   0.00000  -0.00000  -0.00000
   Se     1.93345   1.93345   6.05391  -0.00000   0.00000   0.00002
   Se     0.00000   3.86691   0.00000  -0.00000  -0.00000  -0.00000
   Se     3.86691   0.00000   0.00000   0.00000  -0.00000   0.00000
   Se     1.93345   5.80036   6.05391   0.00000   0.00000  -0.00001
   Se     5.80036   1.93345   6.05391   0.00000   0.00000   0.00001
   Se     3.86691   3.86691   0.00000   0.00000  -0.00000   0.00000
   Se     5.80036   5.80036   6.05391  -0.00000   0.00000  -0.00002
   O      0.00000   1.93345   3.02696   0.00422  -0.02442  -0.00091
   O      0.00000   5.80036   9.08087  -0.00422   0.02442   0.00091
   O      0.00000   5.80036   3.02696   0.00422  -0.02442   0.00091
   O      0.00000   1.93345   9.08087  -0.00422   0.02442  -0.00091
   O      5.80036   0.00000   3.02696  -0.00398   0.02590   0.00015
   O      1.93345   0.00000   9.08087   0.00398  -0.02590  -0.00015
   O      1.93345   0.00000   3.02696  -0.00398   0.02590  -0.00015
   O      5.80036   0.00000   9.08087   0.00398  -0.02590   0.00015
   O      1.93345   3.86691   9.08087   0.00400  -0.02371   0.00006
   O      1.93345   3.86691   3.02696  -0.00400   0.02371   0.00006
   O      3.86691   1.93345   3.02696   0.00386  -0.02459   0.00038
   O      3.86691   1.93345   9.08087  -0.00386   0.02459   0.00038
   O      3.86691   5.80036   3.02696   0.00386  -0.02459  -0.00038
   O      3.86691   5.80036   9.08087  -0.00386   0.02459  -0.00038
   O      5.80036   3.86691   9.08087   0.00400  -0.02371  -0.00006
   O      5.80036   3.86691   3.02696  -0.00400   0.02371  -0.00006
PRIMCOORD  113
     40   1
   Bi     0.00000   0.00000   4.29699  -0.00012   0.00002  -0.00000
   Bi     0.00000   0.00000   7.81084   0.00012  -0.00002  -0.00000
   Bi     1.93345   1.93345  10.35090  -0.00019  -0.00001  -0.00002
   Bi     1.93345   1.93345   1.75692   0.00019   0.00001  -0.00002
   Bi     0.00000   3.86691   4.29699  -0.00019   0.00004   0.00000
   Bi     0.00000   3.86691   7.81084   0.00019  -0.00004  -0.00000
   Bi     3.86691   0.00000   4.29699  -0.00024   0.00003   0.00000
   Bi     3.86691   0.00000   7.81084   0.00024  -0.00003   0.00000
   Bi     1.93345   5.80036  10.35090  -0.00020   0.00008  -0.00003
   Bi     1.93345   5.80036   1.75692   0.00020  -0.00008  -0.00003
   Bi     5.80036   1.93345  10.35090  -0.00020   0.00008   0.00003
   Bi     5.80036   1.93345   1.75692   0.00020  -0.00008   0.00003
   Bi     3.86691   3.86691   4.29699  -0.00020   0.00003   0.00000
   Bi     3.86691   3.86691   7.81084   0.00020  -0.00003  -0.00000
   Bi     5.80036   5.80036  10.35090  -0.00019  -0.00001   0.00002
   Bi     5.80036   5.80036   1.75692   0.00019   0.00001   0.00002
   Se     0.00000   0.00000   0.00000   0.00000   0.00000   0.00000
   Se     1.93345   1.93345   6.05391  -0.00000  -0.00000  -0.00001
   Se     0.00000   3.86691   0.00000   0.00000  -0.00000  -0.00000
   Se     3.86691   0.00000   0.00000   0.00000   0.00000  -0.00000
   Se     1.93345   5.80036   6.05391  -0.00000   0.00000  -0.00002
   Se     5.80036   1.93345   6.05391  -0.00000  -0.00000   0.00002
   Se     3.86691   3.86691   0.00000   0.00000  -0.00000  -0.00000
   Se     5.80036   5.80036   6.05391  -0.00000   0.00000   0.00001
   O      0.00000   1.93345   3.02696  -0.02590  -0.00398  -0.00015
   O      0.00000   5.80036   9.08087   0.02590   0.00398   0.00015
   O      0.00000   5.80036   3.02696  -0.02590  -0.00398   0.00015
   O      0.00000   1.93345   9.08087   0.02590   0.00398  -0.00015
   O      5.80036   0.00000   3.02696   0.02442   0.00422  -0.00091
   O      1.93345   0.00000   9.08087  -0.02442  -0.00422   0.00091
   O      1.93345   0.00000   3.02696   0.02442   0.00422   0.00091
   O      5.80036   0.00000   9.08087  -0.02442  -0.00422  -0.00091
   O      1.93345   3.86691   9.08087  -0.02459  -0.00386  -0.00038
   O      1.93345   3.86691   3.02696   0.02459   0.00386  -0.00038
   O      3.86691   1.93345   3.02696  -0.02371  -0.00400   0.00006
   O      3.86691   1.93345   9.08087   0.02371   0.00400   0.00006
   O      3.86691   5.80036   3.02696  -0.02371  -0.00400  -0.00006
   O      3.86691   5.80036   9.08087   0.02371   0.00400  -0.00006
   O      5.80036   3.86691   9.08087  -0.02459  -0.00386   0.00038
   O      5.80036   3.86691   3.02696   0.02459   0.00386   0.00038
PRIMCOORD  114
     40   1
   Bi     0.00000   0.00000   4.29699   0.00017   0.00000   0.00000
   Bi     0.00000   0.00000   7.81084   0.00017   0.00000   0.00000
   Bi     1.93345   1.93345  10.35090  -0.00015  -0.00004   0.00006
   Bi     1.93345   1.93345   1.75692  -0.00015  -0.00004  -0.00006
   Bi     0.00000   3.86691   4.29699   0.00009   0.00000   0.00000
   Bi     0.00000   3.86691   7.81084   0.00009   0.00000   0.00000
   Bi     3.86691   0.00000   4.29699   0.00008   0.00000   0.00000
   Bi     3.86691   0.00000   7.81084   0.00008   0.00000   0.00000
   Bi     1.93345   5.80036  10.35090  -0.00015   0.00003   0.00006
   Bi     1.93345   5.80036   1.75692  -0.00015   0.00003  -0.00006
   Bi     5.80036   1.93345  10.35090  -0.00015   0.00003  -0.00006
   Bi     5.80036   1.93345   1.75692  -0.00015   0.00003   0.00006
   Bi     3.86691   3.86691   4.29699   0.00021   0.00000   0.00000
   Bi     3.86691   3.86691   7.81084   0.00021   0.00000   0.00000
   Bi     5.80036   5.80036  10.35090  -0.00015  -0.00004  -0.00006
   Bi     5.80036   5.80036   1.75692  -0.00015  -0.00004   0.00006
   Se     0.00000   0.00000   0.00000  -0.00089  -0.00001  -0.00000
   Se     1.93345   1.93345   6.05391   0.00091  -0.00006   0.00000
   Se     0.00000   3.86691   0.00000  -0.00103  -0.00001   0.00000
   Se     3.86691   0.00000   0.00000  -0.00110  -0.00001   0.00000
   Se     1.93345   5.80036   6.05391   0.00091   0.00008   0.00000
   Se     5.80036   1.93345   6.05391   0.00091   0.00008   0.00000
   Se     3.86691   3.86691   0.00000  -0.00098  -0.00001   0.00000
   Se     5.80036   5.80036   6.05391   0.00091  -0.00006   0.00000
   O      0.00000   1.93345   3.02696   0.02443  -0.00021  -0.00000
   O      0.00000   5.80036   9.08087   0.02443  -0.00021  -0.00000
   O      0.00000   5.80036   3.02696   0.02443  -0.00021   0.00000
   O      0.00000   1.93345   9.08087   0.02443  -0.00021   0.00000
   O      5.80036   0.00000   3.02696  -0.02306   0.00022   0.00002
   O      1.93345   0.00000   9.08087  -0.02306   0.00022   0.00002
   O      1.93345   0.00000   3.02696  -0.02306   0.00022  -0.00002
   O      5.80036   0.00000   9.08087  -0.02306   0.00022  -0.00002
   O      1.93345   3.86691   9.08087  -0.02650   0.00023   0.00002
   O      1.93345   3.86691   3.02696  -0.02650   0.00023  -0.00002
   O      3.86691   1.93345   3.02696   0.02583  -0.00024  -0.00000
   O      3.86691   1.93345   9.08087   0.02583  -0.00024   0.00000
   O      3.86691   5.80036   3.02696   0.02583  -0.00024   0.00000
   O      3.86691   5.80036   9.08087   0.02583  -0.00024  -0.00000
   O      5.80036   3.86691   9.08087  -0.02650   0.00023  -0.00002
   O      5.80036   3.86691   3.02696  -0.02650   0.00023   0.00002
PRIMCOORD  115
     40   1
   Bi     0.00000   0.00000   4.29699   0.00000  -0.00017  -0.00000
   Bi     0.00000   0.00000   7.81084   0.00000  -0.00017  -0.00000
   Bi     1.93345   1.93345  10.35090   0.00003   0.00015  -0.00006
   Bi     1.93345   1.93345   1.75692   0.00003   0.00015   0.00006
   Bi     0.00000   3.86691   4.29699   0.00000  -0.00008  -0.00000
   Bi     0.00000   3.86691   7.81084   0.00000  -0.00008  -0.00000
   Bi     3.86691   0.00000   4.29699   0.00000  -0.00009   0.00000
   Bi     3.86691   0.00000   7.81084   0.00000  -0.00009  -0.00000
   Bi     1.93345   5.80036  10.35090  -0.00004   0.00015   0.00006
   Bi     1.93345   5.80036   1.75692  -0.00004   0.00015  -0.00006
   Bi     5.80036   1.93345  10.35090  -0.00004   0.00015  -0.00006
   Bi     5.80036   1.93345   1.75692  -0.00004   0.00015   0.00006
   Bi     3.86691   3.86691   4.29699   0.00000  -0.00021   0.00000
   Bi     3.86691   3.86691   7.81084   0.00000  -0.00021  -0.00000
   Bi     5.80036   5.80036  10.35090   0.00003   0.00015   0.00006
   Bi     5.80036   5.80036   1.75692   0.00003   0.00015  -0.00006
   Se     0.00000   0.00000   0.00000  -0.00001   0.00089  -0.00000
   Se     1.93345   1.93345   6.05391   0.00008  -0.00091  -0.00000
   Se     0.00000   3.86691   0.00000  -0.00001   0.00110  -0.00000
   Se     3.86691   0.00000   0.00000  -0.00001   0.00103  -0.00000
   Se     1.93345   5.80036   6.05391  -0.00006  -0.00091   0.00000
   Se     5.80036   1.93345   6.05391  -0.00006  -0.00091   0.00000
   Se     3.86691   3.86691   0.00000  -0.00001   0.00098  -0.00000
   Se     5.80036   5.80036   6.05391   0.00008  -0.00091   0.00000
   O      0.00000   1.93345   3.02696   0.00022   0.02306   0.00002
   O      0.00000   5.80036   9.08087   0.00022   0.02306   0.00002
   O      0.00000   5.80036   3.02696   0.00022   0.02306  -0.00002
   O      0.00000   1.93345   9.08087   0.00022   0.02306  -0.00002
   O      5.80036   0.00000   3.02696  -0.00021  -0.02443   0.00000
   O      1.93345   0.00000   9.08087  -0.00021  -0.02443   0.00000
   O      1.93345   0.00000   3.02696  -0.00021  -0.02443  -0.00000
   O      5.80036   0.00000   9.08087  -0.00021  -0.02443  -0.00000
   O      1.93345   3.86691   9.08087  -0.00024  -0.02583   0.00000
   O      1.93345   3.86691   3.02696  -0.00024  -0.02583  -0.00000
   O      3.86691   1.93345   3.02696   0.00023   0.02650   0.00002
   O      3.86691   1.93345   9.08087   0.00023   0.02650  -0.00002
   O      3.86691   5.80036   3.02696   0.00023   0.02650  -0.00002
   O      3.86691   5.80036   9.08087   0.00023   0.02650   0.00002
   O      5.80036   3.86691   9.08087  -0.00024  -0.02583  -0.00000
   O      5.80036   3.86691   3.02696  -0.00024  -0.02583   0.00000
PRIMCOORD  116
     40   1
   Bi     0.00000   0.00000   4.29699  -0.00000  -0.00000   0.00000
   Bi     0.00000   0.00000   7.81084  -0.00000  -0.00000   0.00000
   Bi     1.93345   1.93345  10.35090  -0.00000  -0.00000   0.00032
   Bi     1.93345   1.93345   1.75692   0.00000   0.00000   0.00032
   Bi     0.00000   3.86691   4.29699   0.00000   0.00000  -0.00000
   Bi     0.00000   3.86691   7.81084   0.00000  -0.00000   0.00000
   Bi     3.86691   0.00000   4.29699  -0.00000   0.00000   0.00000
   Bi     3.86691   0.00000   7.81084   0.00000  -0.00000   0.00000
   Bi     1.93345   5.80036  10.35090   0.00000  -0.00000  -0.00032
   Bi     1.93345   5.80036   1.75692  -0.00000   0.00000  -0.00032
   Bi     5.80036   1.93345  10.35090  -0.00000   0.00000  -0.00032
   Bi     5.80036   1.93345   1.75692   0.00000  -0.00000  -0.00032
   Bi     3.86691   3.86691   4.29699  -0.00000  -0.00000   0.00000
   Bi     3.86691   3.86691   7.81084  -0.00000  -0.00000   0.00000
   Bi     5.80036   5.80036  10.35090   0.00000   0.00000   0.00032
   Bi     5.80036   5.80036   1.75692  -0.00000  -0.00000   0.00032
   Se     0.00000   0.00000   0.00000   0.00000   0.00000   0.00000
   Se     1.93345   1.93345   6.05391   0.00000   0.00000  -0.00046
   Se     0.00000   3.86691   0.00000   0.00000   0.00000   0.00000
   Se     3.86691   0.00000   0.00000   0.00000   0.00000   0.00000
   Se     1.93345   5.80036   6.05391   0.00000  -0.00000   0.00046
   Se     5.80036   1.93345   6.05391  -0.00000  -0.00000   0.00046
   Se     3.86691   3.86691   0.00000   0.00000   0.00000   0.00000
   Se     5.80036   5.80036   6.05391   0.00000   0.00000  -0.00046
   O      0.00000   1.93345   3.02696   0.02500   0.00000  -0.00000
   O      0.00000   5.80036   9.08087   0.02500   0.00000   0.00000
   O      0.00000   5.80036   3.02696  -0.02500  -0.00000   0.00000
   O      0.00000   1.93345   9.08087  -0.02500   0.00000   0.00000
   O      5.80036   0.00000   3.02696   0.00000  -0.02500   0.00000
   O      1.93345   0.00000   9.08087  -0.00000  -0.02500   0.00000
   O      1.93345   0.00000   3.02696   0.00000   0.02500   0.00000
   O      5.80036   0.00000   9.08087   0.00000   0.02500  -0.00000
   O      1.93345   3.86691   9.08087   0.00000   0.02500  -0.00000
   O      1.93345   3.86691   3.02696  -0.00000  -0.02500  -0.00000
   O      3.86691   1.93345   3.02696  -0.02500  -0.00000  -0.00000
   O      3.86691   1.93345   9.08087   0.02500   0.00000   0.00000
   O      3.86691   5.80036   3.02696   0.02500   0.00000   0.00000
   O      3.86691   5.80036   9.08087  -0.02500   0.00000   0.00000
   O      5.80036   3.86691   9.08087   0.00000  -0.02500   0.00000
   O      5.80036   3.86691   3.02696   0.00000   0.02500  -0.00000
PRIMCOORD  117
     40   1
   Bi     0.00000   0.00000   4.29699  -0.00000   0.00000  -0.00048
   Bi     0.00000   0.00000   7.81084  -0.00000  -0.00000  -0.00048
   Bi     1.93345   1.93345  10.35090  -0.00000  -0.00000   0.00000
   Bi     1.93345   1.93345   1.75692   0.00000   0.00000   0.00000
   Bi     0.00000   3.86691   4.29699  -0.00000   0.00000   0.00043
   Bi     0.00000   3.86691   7.81084  -0.00000   0.00000   0.00043
   Bi     3.86691   0.00000   4.29699  -0.00000   0.00000   0.00043
   Bi     3.86691   0.00000   7.81084   0.00000  -0.00000   0.00043
   Bi     1.93345   5.80036  10.35090  -0.00000   0.00000   0.00000
   Bi     1.93345   5.80036   1.75692   0.00000  -0.00000   0.00000
   Bi     5.80036   1.93345  10.35090   0.00000  -0.00000   0.00000
   Bi     5.80036   1.93345   1.75692  -0.00000   0.00000   0.00000
   Bi     3.86691   3.86691   4.29699  -0.00000   0.00000  -0.00044
   Bi     3.86691   3.86691   7.81084   0.00000  -0.00000  -0.00044
   Bi     5.80036   5.80036  10.35090   0.00000   0.00000   0.00000
   Bi     5.80036   5.80036   1.75692  -0.00000  -0.00000   0.00000
   Se     0.00000   0.00000   0.00000   0.00000  -0.00000   0.00126
   Se     1.93345   1.93345   6.05391   0.00000   0.00000   0.00005
   Se     0.00000   3.86691   0.00000   0.00000  -0.00000  -0.00118
   Se     3.86691   0.00000   0.00000  -0.00000   0.00000  -0.00118
   Se     1.93345   5.80036   6.05391   0.00000  -0.00000   0.00005
   Se     5.80036   1.93345   6.05391   0.00000   0.00000   0.00005
   Se     3.86691   3.86691   0.00000  -0.00000   0.00000   0.00134
   Se     5.80036   5.80036   6.05391   0.00000  -0.00000   0.00005
   O      0.00000   1.93345   3.02696  -0.00000  -0.02492   0.00013
   O      0.00000   5.80036   9.08087   0.00000  -0.02492   0.00013
   O      0.00000   5.80036   3.02696   0.00000   0.02492   0.00013
   O      0.00000   1.93345   9.08087  -0.00000   0.02492   0.00013
   O      5.80036   0.00000   3.02696   0.02492   0.00000   0.00013
   O      1.93345   0.00000   9.08087   0.02492  -0.00000   0.00013
   O      1.93345   0.00000   3.02696  -0.02492   0.00000   0.00013
   O      5.80036   0.00000   9.08087  -0.02492   0.00000   0.00013
   O      1.93345   3.86691   9.08087  -0.02506   0.00000  -0.00023
   O      1.93345   3.86691   3.02696   0.02506   0.00000  -0.00023
   O      3.86691   1.93345   3.02696   0.00000   0.02506  -0.00023
   O      3.86691   1.93345   9.08087   0.00000  -0.02506  -0.00023
   O      3.86691   5.80036   3.02696   0.00000  -0.02506  -0.00023
   O      3.86691   5.80036   9.08087  -0.00000   0.02506  -0.00023
   O      5.80036   3.86691   9.08087   0.02506  -0.00000  -0.00023
   O      5.80036   3.86691   3.02696  -0.02506   0.00000  -0.00023
PRIMCOORD  118
     40   1
   Bi     0.00000   0.00000   4.29699   0.00000   0.00000  -0.00000
   Bi     0.00000   0.00000   7.81084  -0.00000  -0.00000   0.00000
   Bi     1.93345   1.93345  10.35090   0.00000   0.00000  -0.00088
   Bi     1.93345   1.93345   1.75692   0.00000   0.00000   0.00088
   Bi     0.00000   3.86691   4.29699   0.00000  -0.00000   0.00000
   Bi     0.00000   3.86691   7.81084  -0.00000   0.00000  -0.00000
   Bi     3.86691   0.00000   4.29699   0.00000   0.00000   0.00000
   Bi     3.86691   0.00000   7.81084   0.00000  -0.00000  -0.00000
   Bi     1.93345   5.80036  10.35090  -0.00000   0.00000   0.00088
   Bi     1.93345   5.80036   1.75692  -0.00000   0.00000  -0.00088
   Bi     5.80036   1.93345  10.35090   0.00000  -0.00000   0.00088
   Bi     5.80036   1.93345   1.75692   0.00000  -0.00000  -0.00088
   Bi     3.86691   3.86691   4.29699   0.00000  -0.00000  -0.00000
   Bi     3.86691   3.86691   7.81084  -0.00000   0.00000   0.00000
   Bi     5.80036   5.80036  10.35090  -0.00000  -0.00000  -0.00088
   Bi     5.80036   5.80036   1.75692  -0.00000  -0.00000   0.00088
   Se     0.00000   0.00000   0.00000  -0.00000  -0.00000  -0.00000
   Se     1.93345   1.93345   6.05391   0.00000   0.00000   0.00000
   Se     0.00000   3.86691   0.00000  -0.00000   0.00000  -0.00000
   Se     3.86691   0.00000   0.00000   0.00000  -0.00000  -0.00000
   Se     1.93345   5.80036   6.05391  -0.00000   0.00000   0.00000
   Se     5.80036   1.93345   6.05391   0.00000  -0.00000   0.00000
   Se     3.86691   3.86691   0.00000   0.00000   0.00000  -0.00000
   Se     5.80036   5.80036   6.05391  -0.00000  -0.00000   0.00000
   O      0.00000   1.93345   3.02696   0.02500  -0.00000   0.00000
   O      0.00000   5.80036   9.08087  -0.02500   0.00000   0.00000
   O      0.00000   5.80036   3.02696  -0.02500   0.00000   0.00000
   O      0.00000   1.93345   9.08087   0.02500  -0.00000   0.00000
   O      5.80036   0.00000   3.02696   0.00000  -0.02500  -0.00000
   O      1.93345   0.00000   9.08087   0.00000   0.02500  -0.00000
   O      1.93345   0.00000   3.02696  -0.00000   0.02500  -0.00000
   O      5.80036   0.00000   9.08087   0.00000  -0.02500   0.00000
   O      1.93345   3.86691   9.08087   0.00000  -0.02499  -0.00000
   O      1.93345   3.86691   3.02696   0.00000  -0.02499   0.00000
   O      3.86691   1.93345   3.02696  -0.02499   0.00000   0.00000
   O      3.86691   1.93345   9.08087  -0.02499   0.00000   0.00000
   O      3.86691   5.80036   3.02696   0.02499  -0.00000   0.00000
   O      3.86691   5.80036   9.08087   0.02499  -0.00000   0.00000
   O      5.80036   3.86691   9.08087  -0.00000   0.02499  -0.00000
   O      5.80036   3.86691   3.02696  -0.00000   0.02499  -0.00000
PRIMCOORD  119
     40   1
   Bi     0.00000   0.00000   4.29699  -0.00000  -0.00000   0.00078
   Bi     0.00000   0.00000   7.81084   0.00000   0.00000  -0.00078
   Bi     1.93345   1.93345  10.35090  -0.00001  -0.00001  -0.00005
   Bi     1.93345   1.93345   1.75692  -0.00001  -0.00001   0.00005
   Bi     0.00000   3.86691   4.29699   0.00000   0.00000  -0.00072
   Bi     0.00000   3.86691   7.81084   0.00000  -0.00000   0.00072
   Bi     3.86691   0.00000   4.29699  -0.00000  -0.00000  -0.00072
   Bi     3.86691   0.00000   7.81084  -0.00000   0.00000   0.00072
   Bi     1.93345   5.80036  10.35090  -0.00001   0.00001  -0.00005
   Bi     1.93345   5.80036   1.75692  -0.00001   0.00001   0.00005
   Bi     5.80036   1.93345  10.35090   0.00001  -0.00001  -0.00005
   Bi     5.80036   1.93345   1.75692   0.00001  -0.00001   0.00005
   Bi     3.86691   3.86691   4.29699  -0.00000   0.00000   0.00082
   Bi     3.86691   3.86691   7.81084  -0.00000   0.00000  -0.00082
   Bi     5.80036   5.80036  10.35090   0.00001   0.00001  -0.00005
   Bi     5.80036   5.80036   1.75692   0.00001   0.00001   0.00005
   Se     0.00000   0.00000   0.00000  -0.00000   0.00000   0.00000
   Se     1.93345   1.93345   6.05391  -0.00003  -0.00003   0.00000
   Se     0.00000   3.86691   0.00000  -0.00000   0.00000  -0.00000
   Se     3.86691   0.00000   0.00000   0.00000   0.00000  -0.00000
   Se     1.93345   5.80036   6.05391  -0.00003   0.00003   0.00000
   Se     5.80036   1.93345   6.05391   0.00003  -0.00003   0.00000
   Se     3.86691   3.86691   0.00000   0.00000   0.00000   0.00000
   Se     5.80036   5.80036   6.05391   0.00003   0.00003   0.00000
   O      0.00000   1.93345   3.02696   0.00000   0.02476  -0.00042
   O      0.00000   5.80036   9.08087  -0.00000  -0.02476   0.00042
   O      0.00000   5.80036   3.02696  -0.00000  -0.02476  -0.00042
   O      0.00000   1.93345   9.08087   0.00000   0.02476   0.00042
   O      5.80036   0.00000   3.02696  -0.02476  -0.00000  -0.00042
   O      1.93345   0.00000   9.08087   0.02476   0.00000   0.00042
   O      1.93345   0.00000   3.02696   0.02476   0.00000  -0.00042
   O      5.80036   0.00000   9.08087  -0.02476  -0.00000   0.00042
   O      1.93345   3.86691   9.08087  -0.02521  -0.00000   0.00064
   O      1.93345   3.86691   3.02696  -0.02521  -0.00000  -0.00064
   O      3.86691   1.93345   3.02696  -0.00000  -0.02521  -0.00064
   O      3.86691   1.93345   9.08087  -0.00000  -0.02521   0.00064
   O      3.86691   5.80036   3.02696   0.00000   0.02521  -0.00064
   O      3.86691   5.80036   9.08087   0.00000   0.02521   0.00064
   O      5.80036   3.86691   9.08087   0.02521   0.00000   0.00064
   O      5.80036   3.86691   3.02696   0.02521   0.00000  -0.00064
PRIMCOORD  120
     40   1
   Bi     0.00000   0.00000   4.29699  -0.00000   0.00000  -0.00183
   Bi     0.00000   0.00000   7.81084  -0.00000   0.00000   0.00183
   Bi     1.93345   1.93345  10.35090  -0.00002  -0.00002   0.00185
   Bi     1.93345   1.93345   1.75692  -0.00002  -0.00002  -0.00185
   Bi     0.00000   3.86691   4.29699  -0.00000   0.00000  -0.00189
   Bi     0.00000   3.86691   7.81084  -0.00000   0.00000   0.00189
   Bi     3.86691   0.00000   4.29699   0.00000   0.00000  -0.00189
   Bi     3.86691   0.00000   7.81084   0.00000   0.00000   0.00189
   Bi     1.93345   5.80036  10.35090  -0.00002   0.00002   0.00185
   Bi     1.93345   5.80036   1.75692  -0.00002   0.00002  -0.00185
   Bi     5.80036   1.93345  10.35090   0.00002  -0.00002   0.00185
   Bi     5.80036   1.93345   1.75692   0.00002  -0.00002  -0.00185
   Bi     3.86691   3.86691   4.29699   0.00000  -0.00000  -0.00183
   Bi     3.86691   3.86691   7.81084   0.00000   0.00000   0.00183
   Bi     5.80036   5.80036  10.35090   0.00002   0.00002   0.00185
   Bi     5.80036   5.80036   1.75692   0.00002   0.00002  -0.00185
   Se     0.00000   0.00000   0.00000   0.00000  -0.00000  -0.00000
   Se     1.93345   1.93345   6.05391  -0.00003  -0.00003  -0.00000
   Se     0.00000   3.86691   0.00000   0.00000   0.00000  -0.00000
   Se     3.86691   0.00000   0.00000  -0.00000  -0.00000  -0.00000
   Se     1.93345   5.80036   6.05391  -0.00003   0.00003  -0.00000
   Se     5.80036   1.93345   6.05391   0.00003  -0.00003  -0.00000
   Se     3.86691   3.86691   0.00000  -0.00000   0.00000  -0.00000
   Se     5.80036   5.80036   6.05391   0.00003   0.00003  -0.00000
   O      0.00000   1.93345   3.02696   0.00000   0.00033   0.02478
   O      0.00000   5.80036   9.08087  -0.00000  -0.00033  -0.02478
   O      0.00000   5.80036   3.02696  -0.00000  -0.00033   0.02478
   O      0.00000   1.93345   9.08087   0.00000   0.00033  -0.02478
   O      5.80036   0.00000   3.02696  -0.00033  -0.00000   0.02478
   O      1.93345   0.00000   9.08087   0.00033   0.00000  -0.02478
   O      1.93345   0.00000   3.02696   0.00033   0.00000   0.02478
   O      5.80036   0.00000   9.08087  -0.00033  -0.00000  -0.02478
   O      1.93345   3.86691   9.08087  -0.00081  -0.00000  -0.02507
   O      1.93345   3.86691   3.02696  -0.00081  -0.00000   0.02507
   O      3.86691   1.93345   3.02696  -0.00000  -0.00081   0.02507
   O      3.86691   1.93345   9.08087  -0.00000  -0.00081  -0.02507
   O      3.86691   5.80036   3.02696   0.00000   0.00081   0.02507
   O      3.86691   5.80036   9.08087   0.00000   0.00081  -0.02507
   O      5.80036   3.86691   9.08087   0.00081   0.00000  -0.02507
   O      5.80036   3.86691   3.02696   0.00081   0.00000   0.02507
