Attaching 13047 to 1057505.pbshpc
Attaching 7066 to 1057505.pbshpc
Attaching 19993 to 1057505.pbshpc
Attaching 11530 to 1057505.pbshpc
Attaching 15280 to 1057505.pbshpc
Attaching 26820 to 1057505.pbshpc
Attaching 3097 to 1057505.pbshpc

     Program PWSCF v.7.3.1 starts on 18Sep2026 at  8:25:11 

     This program is part of the open-source Quantum ESPRESSO suite
     for quantum simulation of materials; please cite
         "P. Giannozzi et al., J. Phys.:Condens. Matter 21 395502 (2009);
         "P. Giannozzi et al., J. Phys.:Condens. Matter 29 465901 (2017);
         "P. Giannozzi et al., J. Chem. Phys. 152 154105 (2020);
          URL http://www.quantum-espresso.org", 
     in publications or presentations arising from this work. More details at
     http://www.quantum-espresso.org/quote

     Parallel version (MPI & OpenMP), running on      64 processor cores
     Number of MPI processes:                64
     Threads/MPI process:                     1

     MPI processes distributed on     8 nodes
     49629 MiB available memory on the printing compute node when the environment starts
 
     Waiting for input...
     Reading input from standard input

     Current dimensions of program PWSCF are:
     Max number of different atomic species (ntypx) = 10
     Max number of k-points (npk) =  40000
     Max angular momentum in pseudopotentials (lmaxx) =  4

     IMPORTANT: XC functional enforced from input :
     Exchange-correlation= LDA
                           (   1   1   0   0   0   0   0)
     Any further DFT definition will be discarded
     Please, verify this is what you really want

     Message from routine setup:
     using ibrav=0 with symmetry is DISCOURAGED, use correct ibrav instead
 
     K-points division:     npool     =       2
     R & G space division:  proc/nbgrp/npool/nimage =      32
     Subspace diagonalization in iterative solution of the eigenvalue problem:
     one sub-group per band group will be used
     scalapack distributed-memory algorithm (size of sub-group:  2*  2 procs)

 
     Parallelization info
     --------------------
     sticks:   dense  smooth     PW     G-vecs:    dense   smooth      PW
     Min         139     124     33                10889     9126    1293
     Max         141     125     34                10894     9131    1300
     Sum        4477    3985   1085               348561   292119   41525
 
     Using Slab Decomposition
 


     bravais-lattice index     =            0
     lattice parameter (alat)  =      14.4170  a.u.
     unit-cell volume          =    4650.3612 (a.u.)^3
     number of atoms/cell      =           39
     number of atomic types    =            3
     number of electrons       =       448.00
     number of Kohn-Sham states=          224
     kinetic-energy cutoff     =      60.0000  Ry
     charge density cutoff     =     270.0000  Ry
     scf convergence threshold =      1.0E-12
     mixing beta               =       0.4000
     number of iterations used =            8  plain     mixing
     Exchange-correlation= LDA
                           (   1   1   0   0   0   0   0)

     celldm(1)=  14.416968  celldm(2)=   0.000000  celldm(3)=   0.000000
     celldm(4)=   0.000000  celldm(5)=   0.000000  celldm(6)=   0.000000

     crystal axes: (cart. coord. in units of alat)
               a(1) = (   1.000000   0.000000   0.000000 )  
               a(2) = (   0.000000   1.000000   0.000000 )  
               a(3) = (   0.000000   0.000000   1.551904 )  

     reciprocal axes: (cart. coord. in units 2 pi/alat)
               b(1) = (  1.000000  0.000000  0.000000 )  
               b(2) = (  0.000000  1.000000  0.000000 )  
               b(3) = (  0.000000  0.000000  0.644370 )  


     PseudoPot. # 1 for Bi read from file:
     ./Bi.upf
     MD5 check sum: 6872f064adb6bc5e400c0fc6d475decc
     Pseudo is Norm-conserving + core correction, Zval = 15.0
     Generated using ONCVPSP code by D. R. Hamann
     Using radial grid of 1562 points,  6 beta functions with: 
                l(1) =   0
                l(2) =   0
                l(3) =   1
                l(4) =   1
                l(5) =   2
                l(6) =   2

     PseudoPot. # 2 for O  read from file:
     ./O.upf
     MD5 check sum: a1969bbd51a79f57ce766e937222aee4
     Pseudo is Norm-conserving + core correction, Zval =  6.0
     Generated using ONCVPSP code by D. R. Hamann
     Using radial grid of  936 points,  5 beta functions with: 
                l(1) =   0
                l(2) =   0
                l(3) =   1
                l(4) =   1
                l(5) =   2

     PseudoPot. # 3 for Se read from file:
     ./Se.upf
     MD5 check sum: 666d3fce17080e2232e5bf8193ff52c1
     Pseudo is Norm-conserving + core correction, Zval = 16.0
     Generated using ONCVPSP code by D. R. Hamann
     Using radial grid of 1214 points,  6 beta functions with: 
                l(1) =   0
                l(2) =   0
                l(3) =   1
                l(4) =   1
                l(5) =   2
                l(6) =   2

     atomic species   valence    mass     pseudopotential
     Bi               15.00   208.98040     Bi( 1.00)
     O                 6.00    15.99940     O ( 1.00)
     Se               16.00    78.96000     Se( 1.00)

     16 Sym. Ops., with inversion, found (12 have fractional translation)


                                    s                        frac. trans.

      isym =  1     identity                                     

 cryst.   s( 1) = (     1          0          0      )
                  (     0          1          0      )
                  (     0          0          1      )

 cart.    s( 1) = (  1.0000000  0.0000000  0.0000000 )
                  (  0.0000000  1.0000000  0.0000000 )
                  (  0.0000000  0.0000000  1.0000000 )


      isym =  2     180 deg rotation - cart. axis [0,0,1]        

 cryst.   s( 2) = (    -1          0          0      )    f =(  0.5000000 )
                  (     0         -1          0      )       (  0.5000000 )
                  (     0          0          1      )       (  0.0000000 )

 cart.    s( 2) = ( -1.0000000  0.0000000  0.0000000 )    f =(  0.5000000 )
                  (  0.0000000 -1.0000000  0.0000000 )       (  0.5000000 )
                  (  0.0000000  0.0000000  1.0000000 )       (  0.0000000 )


      isym =  3     180 deg rotation - cart. axis [0,1,0]        

 cryst.   s( 3) = (    -1          0          0      )    f =(  0.5000000 )
                  (     0          1          0      )       (  0.0000000 )
                  (     0          0         -1      )       (  0.0000000 )

 cart.    s( 3) = ( -1.0000000  0.0000000  0.0000000 )    f =(  0.5000000 )
                  (  0.0000000  1.0000000  0.0000000 )       (  0.0000000 )
                  (  0.0000000  0.0000000 -1.0000000 )       (  0.0000000 )


      isym =  4     180 deg rotation - cart. axis [1,0,0]        

 cryst.   s( 4) = (     1          0          0      )    f =(  0.0000000 )
                  (     0         -1          0      )       (  0.5000000 )
                  (     0          0         -1      )       (  0.0000000 )

 cart.    s( 4) = (  1.0000000  0.0000000  0.0000000 )    f =(  0.0000000 )
                  (  0.0000000 -1.0000000  0.0000000 )       (  0.5000000 )
                  (  0.0000000  0.0000000 -1.0000000 )       (  0.0000000 )


      isym =  5     180 deg rotation - cart. axis [1,1,0]        

 cryst.   s( 5) = (     0          1          0      )
                  (     1          0          0      )
                  (     0          0         -1      )

 cart.    s( 5) = (  0.0000000  1.0000000  0.0000000 )
                  (  1.0000000  0.0000000  0.0000000 )
                  (  0.0000000  0.0000000 -1.0000000 )


      isym =  6     180 deg rotation - cart. axis [1,-1,0]       

 cryst.   s( 6) = (     0         -1          0      )    f =(  0.5000000 )
                  (    -1          0          0      )       (  0.5000000 )
                  (     0          0         -1      )       (  0.0000000 )

 cart.    s( 6) = (  0.0000000 -1.0000000  0.0000000 )    f =(  0.5000000 )
                  ( -1.0000000  0.0000000  0.0000000 )       (  0.5000000 )
                  (  0.0000000  0.0000000 -1.0000000 )       (  0.0000000 )


      isym =  7      90 deg rotation - cart. axis [0,0,-1]       

 cryst.   s( 7) = (     0         -1          0      )    f =(  0.0000000 )
                  (     1          0          0      )       (  0.5000000 )
                  (     0          0          1      )       (  0.0000000 )

 cart.    s( 7) = (  0.0000000  1.0000000  0.0000000 )    f =(  0.0000000 )
                  ( -1.0000000  0.0000000  0.0000000 )       (  0.5000000 )
                  (  0.0000000  0.0000000  1.0000000 )       (  0.0000000 )


      isym =  8      90 deg rotation - cart. axis [0,0,1]        

 cryst.   s( 8) = (     0          1          0      )    f =(  0.5000000 )
                  (    -1          0          0      )       (  0.0000000 )
                  (     0          0          1      )       (  0.0000000 )

 cart.    s( 8) = (  0.0000000 -1.0000000  0.0000000 )    f =(  0.5000000 )
                  (  1.0000000  0.0000000  0.0000000 )       (  0.0000000 )
                  (  0.0000000  0.0000000  1.0000000 )       (  0.0000000 )


      isym =  9     inversion                                    

 cryst.   s( 9) = (    -1          0          0      )    f =(  0.5000000 )
                  (     0         -1          0      )       (  0.5000000 )
                  (     0          0         -1      )       (  0.0000000 )

 cart.    s( 9) = ( -1.0000000  0.0000000  0.0000000 )    f =(  0.5000000 )
                  (  0.0000000 -1.0000000  0.0000000 )       (  0.5000000 )
                  (  0.0000000  0.0000000 -1.0000000 )       (  0.0000000 )


      isym = 10     inv. 180 deg rotation - cart. axis [0,0,1]   

 cryst.   s(10) = (     1          0          0      )
                  (     0          1          0      )
                  (     0          0         -1      )

 cart.    s(10) = (  1.0000000  0.0000000  0.0000000 )
                  (  0.0000000  1.0000000  0.0000000 )
                  (  0.0000000  0.0000000 -1.0000000 )


      isym = 11     inv. 180 deg rotation - cart. axis [0,1,0]   

 cryst.   s(11) = (     1          0          0      )    f =(  0.0000000 )
                  (     0         -1          0      )       (  0.5000000 )
                  (     0          0          1      )       (  0.0000000 )

 cart.    s(11) = (  1.0000000  0.0000000  0.0000000 )    f =(  0.0000000 )
                  (  0.0000000 -1.0000000  0.0000000 )       (  0.5000000 )
                  (  0.0000000  0.0000000  1.0000000 )       (  0.0000000 )


      isym = 12     inv. 180 deg rotation - cart. axis [1,0,0]   

 cryst.   s(12) = (    -1          0          0      )    f =(  0.5000000 )
                  (     0          1          0      )       (  0.0000000 )
                  (     0          0          1      )       (  0.0000000 )

 cart.    s(12) = ( -1.0000000  0.0000000  0.0000000 )    f =(  0.5000000 )
                  (  0.0000000  1.0000000  0.0000000 )       (  0.0000000 )
                  (  0.0000000  0.0000000  1.0000000 )       (  0.0000000 )


      isym = 13     inv. 180 deg rotation - cart. axis [1,1,0]   

 cryst.   s(13) = (     0         -1          0      )    f =(  0.5000000 )
                  (    -1          0          0      )       (  0.5000000 )
                  (     0          0          1      )       (  0.0000000 )

 cart.    s(13) = (  0.0000000 -1.0000000  0.0000000 )    f =(  0.5000000 )
                  ( -1.0000000  0.0000000  0.0000000 )       (  0.5000000 )
                  (  0.0000000  0.0000000  1.0000000 )       (  0.0000000 )


      isym = 14     inv. 180 deg rotation - cart. axis [1,-1,0]  

 cryst.   s(14) = (     0          1          0      )
                  (     1          0          0      )
                  (     0          0          1      )

 cart.    s(14) = (  0.0000000  1.0000000  0.0000000 )
                  (  1.0000000  0.0000000  0.0000000 )
                  (  0.0000000  0.0000000  1.0000000 )


      isym = 15     inv.  90 deg rotation - cart. axis [0,0,-1]  

 cryst.   s(15) = (     0          1          0      )    f =(  0.5000000 )
                  (    -1          0          0      )       (  0.0000000 )
                  (     0          0         -1      )       (  0.0000000 )

 cart.    s(15) = (  0.0000000 -1.0000000  0.0000000 )    f =(  0.5000000 )
                  (  1.0000000  0.0000000  0.0000000 )       (  0.0000000 )
                  (  0.0000000  0.0000000 -1.0000000 )       (  0.0000000 )


      isym = 16     inv.  90 deg rotation - cart. axis [0,0,1]   

 cryst.   s(16) = (     0         -1          0      )    f =(  0.0000000 )
                  (     1          0          0      )       (  0.5000000 )
                  (     0          0         -1      )       (  0.0000000 )

 cart.    s(16) = (  0.0000000  1.0000000  0.0000000 )    f =(  0.0000000 )
                  ( -1.0000000  0.0000000  0.0000000 )       (  0.5000000 )
                  (  0.0000000  0.0000000 -1.0000000 )       (  0.0000000 )


   Cartesian axes

     site n.     atom                  positions (alat units)
         1        Bi     tau(   1) = (   0.0011534   0.0011534   0.5527499  )
         2        Bi     tau(   2) = (   0.0011534   0.0011534   0.9991543  )
         3        Bi     tau(   3) = (   0.2499999   0.2499999   1.3309888  )
         4        Bi     tau(   4) = (   0.2499999   0.2499999   0.2209154  )
         5        Bi     tau(   5) = (   0.0011534   0.4988466   0.5527499  )
         6        Bi     tau(   6) = (   0.0011534   0.4988466   0.9991543  )
         7        Bi     tau(   7) = (   0.4988466   0.0011534   0.5527499  )
         8        Bi     tau(   8) = (   0.4988466   0.0011534   0.9991543  )
         9        Bi     tau(   9) = (   0.2499999   0.7500001   1.3303898  )
        10        Bi     tau(  10) = (   0.2499999   0.7500001   0.2215144  )
        11        Bi     tau(  11) = (   0.7500001   0.2499999   1.3303898  )
        12        Bi     tau(  12) = (   0.7500001   0.2499999   0.2215144  )
        13        Bi     tau(  13) = (   0.4988466   0.4988466   0.5527499  )
        14        Bi     tau(  14) = (   0.4988466   0.4988466   0.9991543  )
        15        Bi     tau(  15) = (   0.7500001   0.7500001   1.3309382  )
        16        Bi     tau(  16) = (   0.7500001   0.7500001   0.2209661  )
        17        Se     tau(  17) = (   0.0003721   0.0003721   0.0000000  )
        18        Se     tau(  18) = (   0.2500000   0.2500000   0.7759521  )
        19        Se     tau(  19) = (   0.0003721   0.4996279   0.0000000  )
        20        Se     tau(  20) = (   0.4996279   0.0003721   0.0000000  )
        21        Se     tau(  21) = (   0.2500000   0.7500000   0.7759521  )
        22        Se     tau(  22) = (   0.7500000   0.2500000   0.7759521  )
        23        Se     tau(  23) = (   0.4996279   0.4996279   0.0000000  )
        24        O      tau(  24) = (   0.0005581   0.2500000   0.3901960  )
        25        O      tau(  25) = (  -0.0012534   0.7500000   1.1628882  )
        26        O      tau(  26) = (  -0.0012534   0.7500000   0.3890160  )
        27        O      tau(  27) = (   0.0005581   0.2500000   1.1617082  )
        28        O      tau(  28) = (   0.7500000  -0.0012534   0.3890160  )
        29        O      tau(  29) = (   0.2500000   0.0005581   1.1617082  )
        30        O      tau(  30) = (   0.2500000   0.0005581   0.3901960  )
        31        O      tau(  31) = (   0.7500000  -0.0012534   1.1628882  )
        32        O      tau(  32) = (   0.2500000   0.4994419   1.1617082  )
        33        O      tau(  33) = (   0.2500000   0.4994419   0.3901960  )
        34        O      tau(  34) = (   0.4994419   0.2500000   0.3901960  )
        35        O      tau(  35) = (   0.4994419   0.2500000   1.1617082  )
        36        O      tau(  36) = (   0.5012534   0.7500000   0.3890160  )
        37        O      tau(  37) = (   0.5012534   0.7500000   1.1628882  )
        38        O      tau(  38) = (   0.7500000   0.5012534   1.1628882  )
        39        O      tau(  39) = (   0.7500000   0.5012534   0.3890160  )

   Crystallographic axes

     site n.     atom                  positions (cryst. coord.)
         1        Bi     tau(   1) = (  0.0011534  0.0011534  0.3561752  )
         2        Bi     tau(   2) = (  0.0011534  0.0011534  0.6438248  )
         3        Bi     tau(   3) = (  0.2499999  0.2499999  0.8576488  )
         4        Bi     tau(   4) = (  0.2499999  0.2499999  0.1423512  )
         5        Bi     tau(   5) = (  0.0011534  0.4988466  0.3561753  )
         6        Bi     tau(   6) = (  0.0011534  0.4988466  0.6438247  )
         7        Bi     tau(   7) = (  0.4988466  0.0011534  0.3561753  )
         8        Bi     tau(   8) = (  0.4988466  0.0011534  0.6438247  )
         9        Bi     tau(   9) = (  0.2499999  0.7500001  0.8572628  )
        10        Bi     tau(  10) = (  0.2499999  0.7500001  0.1427372  )
        11        Bi     tau(  11) = (  0.7500001  0.2499999  0.8572628  )
        12        Bi     tau(  12) = (  0.7500001  0.2499999  0.1427372  )
        13        Bi     tau(  13) = (  0.4988466  0.4988466  0.3561753  )
        14        Bi     tau(  14) = (  0.4988466  0.4988466  0.6438247  )
        15        Bi     tau(  15) = (  0.7500001  0.7500001  0.8576162  )
        16        Bi     tau(  16) = (  0.7500001  0.7500001  0.1423838  )
        17        Se     tau(  17) = (  0.0003721  0.0003721  0.0000000  )
        18        Se     tau(  18) = (  0.2500000  0.2500000  0.5000000  )
        19        Se     tau(  19) = (  0.0003721  0.4996279  0.0000000  )
        20        Se     tau(  20) = (  0.4996279  0.0003721  0.0000000  )
        21        Se     tau(  21) = (  0.2500000  0.7500000  0.5000000  )
        22        Se     tau(  22) = (  0.7500000  0.2500000  0.5000000  )
        23        Se     tau(  23) = (  0.4996279  0.4996279  0.0000000  )
        24        O      tau(  24) = (  0.0005581  0.2500000  0.2514305  )
        25        O      tau(  25) = ( -0.0012534  0.7500000  0.7493299  )
        26        O      tau(  26) = ( -0.0012534  0.7500000  0.2506701  )
        27        O      tau(  27) = (  0.0005581  0.2500000  0.7485695  )
        28        O      tau(  28) = (  0.7500000 -0.0012534  0.2506701  )
        29        O      tau(  29) = (  0.2500000  0.0005581  0.7485695  )
        30        O      tau(  30) = (  0.2500000  0.0005581  0.2514305  )
        31        O      tau(  31) = (  0.7500000 -0.0012534  0.7493299  )
        32        O      tau(  32) = (  0.2500000  0.4994419  0.7485695  )
        33        O      tau(  33) = (  0.2500000  0.4994419  0.2514305  )
        34        O      tau(  34) = (  0.4994419  0.2500000  0.2514305  )
        35        O      tau(  35) = (  0.4994419  0.2500000  0.7485695  )
        36        O      tau(  36) = (  0.5012534  0.7500000  0.2506701  )
        37        O      tau(  37) = (  0.5012534  0.7500000  0.7493299  )
        38        O      tau(  38) = (  0.7500000  0.5012534  0.7493299  )
        39        O      tau(  39) = (  0.7500000  0.5012534  0.2506701  )

     number of k points=    40
                       cart. coord. in units 2pi/alat
        k(    1) = (   0.0000000   0.0000000   0.0000000), wk =   0.0092593
        k(    2) = (   0.0000000   0.0000000   0.1073949), wk =   0.0185185
        k(    3) = (   0.0000000   0.0000000   0.2147899), wk =   0.0185185
        k(    4) = (   0.0000000   0.0000000  -0.3221848), wk =   0.0092593
        k(    5) = (   0.0000000   0.1666667   0.0000000), wk =   0.0370370
        k(    6) = (   0.0000000   0.1666667   0.1073949), wk =   0.0740741
        k(    7) = (   0.0000000   0.1666667   0.2147899), wk =   0.0740741
        k(    8) = (   0.0000000   0.1666667  -0.3221848), wk =   0.0370370
        k(    9) = (   0.0000000   0.3333333   0.0000000), wk =   0.0370370
        k(   10) = (   0.0000000   0.3333333   0.1073949), wk =   0.0740741
        k(   11) = (   0.0000000   0.3333333   0.2147899), wk =   0.0740741
        k(   12) = (   0.0000000   0.3333333  -0.3221848), wk =   0.0370370
        k(   13) = (   0.0000000  -0.5000000   0.0000000), wk =   0.0185185
        k(   14) = (   0.0000000  -0.5000000   0.1073949), wk =   0.0370370
        k(   15) = (   0.0000000  -0.5000000   0.2147899), wk =   0.0370370
        k(   16) = (   0.0000000  -0.5000000  -0.3221848), wk =   0.0185185
        k(   17) = (   0.1666667   0.1666667   0.0000000), wk =   0.0370370
        k(   18) = (   0.1666667   0.1666667   0.1073949), wk =   0.0740741
        k(   19) = (   0.1666667   0.1666667   0.2147899), wk =   0.0740741
        k(   20) = (   0.1666667   0.1666667  -0.3221848), wk =   0.0370370
        k(   21) = (   0.1666667   0.3333333   0.0000000), wk =   0.0740741
        k(   22) = (   0.1666667   0.3333333   0.1073949), wk =   0.1481481
        k(   23) = (   0.1666667   0.3333333   0.2147899), wk =   0.1481481
        k(   24) = (   0.1666667   0.3333333  -0.3221848), wk =   0.0740741
        k(   25) = (   0.1666667  -0.5000000   0.0000000), wk =   0.0370370
        k(   26) = (   0.1666667  -0.5000000   0.1073949), wk =   0.0740741
        k(   27) = (   0.1666667  -0.5000000   0.2147899), wk =   0.0740741
        k(   28) = (   0.1666667  -0.5000000  -0.3221848), wk =   0.0370370
        k(   29) = (   0.3333333   0.3333333   0.0000000), wk =   0.0370370
        k(   30) = (   0.3333333   0.3333333   0.1073949), wk =   0.0740741
        k(   31) = (   0.3333333   0.3333333   0.2147899), wk =   0.0740741
        k(   32) = (   0.3333333   0.3333333  -0.3221848), wk =   0.0370370
        k(   33) = (   0.3333333  -0.5000000   0.0000000), wk =   0.0370370
        k(   34) = (   0.3333333  -0.5000000   0.1073949), wk =   0.0740741
        k(   35) = (   0.3333333  -0.5000000   0.2147899), wk =   0.0740741
        k(   36) = (   0.3333333  -0.5000000  -0.3221848), wk =   0.0370370
        k(   37) = (  -0.5000000  -0.5000000   0.0000000), wk =   0.0092593
        k(   38) = (  -0.5000000  -0.5000000   0.1073949), wk =   0.0185185
        k(   39) = (  -0.5000000  -0.5000000   0.2147899), wk =   0.0185185
        k(   40) = (  -0.5000000  -0.5000000  -0.3221848), wk =   0.0092593

                       cryst. coord.
        k(    1) = (   0.0000000   0.0000000   0.0000000), wk =   0.0092593
        k(    2) = (   0.0000000   0.0000000   0.1666667), wk =   0.0185185
        k(    3) = (   0.0000000   0.0000000   0.3333333), wk =   0.0185185
        k(    4) = (   0.0000000   0.0000000  -0.5000000), wk =   0.0092593
        k(    5) = (   0.0000000   0.1666667   0.0000000), wk =   0.0370370
        k(    6) = (   0.0000000   0.1666667   0.1666667), wk =   0.0740741
        k(    7) = (   0.0000000   0.1666667   0.3333333), wk =   0.0740741
        k(    8) = (   0.0000000   0.1666667  -0.5000000), wk =   0.0370370
        k(    9) = (   0.0000000   0.3333333   0.0000000), wk =   0.0370370
        k(   10) = (   0.0000000   0.3333333   0.1666667), wk =   0.0740741
        k(   11) = (   0.0000000   0.3333333   0.3333333), wk =   0.0740741
        k(   12) = (   0.0000000   0.3333333  -0.5000000), wk =   0.0370370
        k(   13) = (   0.0000000  -0.5000000   0.0000000), wk =   0.0185185
        k(   14) = (   0.0000000  -0.5000000   0.1666667), wk =   0.0370370
        k(   15) = (   0.0000000  -0.5000000   0.3333333), wk =   0.0370370
        k(   16) = (   0.0000000  -0.5000000  -0.5000000), wk =   0.0185185
        k(   17) = (   0.1666667   0.1666667   0.0000000), wk =   0.0370370
        k(   18) = (   0.1666667   0.1666667   0.1666667), wk =   0.0740741
        k(   19) = (   0.1666667   0.1666667   0.3333333), wk =   0.0740741
        k(   20) = (   0.1666667   0.1666667  -0.5000000), wk =   0.0370370
        k(   21) = (   0.1666667   0.3333333   0.0000000), wk =   0.0740741
        k(   22) = (   0.1666667   0.3333333   0.1666667), wk =   0.1481481
        k(   23) = (   0.1666667   0.3333333   0.3333333), wk =   0.1481481
        k(   24) = (   0.1666667   0.3333333  -0.5000000), wk =   0.0740741
        k(   25) = (   0.1666667  -0.5000000   0.0000000), wk =   0.0370370
        k(   26) = (   0.1666667  -0.5000000   0.1666667), wk =   0.0740741
        k(   27) = (   0.1666667  -0.5000000   0.3333333), wk =   0.0740741
        k(   28) = (   0.1666667  -0.5000000  -0.5000000), wk =   0.0370370
        k(   29) = (   0.3333333   0.3333333   0.0000000), wk =   0.0370370
        k(   30) = (   0.3333333   0.3333333   0.1666667), wk =   0.0740741
        k(   31) = (   0.3333333   0.3333333   0.3333333), wk =   0.0740741
        k(   32) = (   0.3333333   0.3333333  -0.5000000), wk =   0.0370370
        k(   33) = (   0.3333333  -0.5000000   0.0000000), wk =   0.0370370
        k(   34) = (   0.3333333  -0.5000000   0.1666667), wk =   0.0740741
        k(   35) = (   0.3333333  -0.5000000   0.3333333), wk =   0.0740741
        k(   36) = (   0.3333333  -0.5000000  -0.5000000), wk =   0.0370370
        k(   37) = (  -0.5000000  -0.5000000   0.0000000), wk =   0.0092593
        k(   38) = (  -0.5000000  -0.5000000   0.1666667), wk =   0.0185185
        k(   39) = (  -0.5000000  -0.5000000   0.3333333), wk =   0.0185185
        k(   40) = (  -0.5000000  -0.5000000  -0.5000000), wk =   0.0092593

     Dense  grid:   348561 G-vectors     FFT dimensions: (  80,  80, 120)

     Smooth grid:   292119 G-vectors     FFT dimensions: (  72,  72, 120)

     Dynamical RAM for                 wfc:       3.90 MB

     Dynamical RAM for     wfc (w. buffer):      81.83 MB

     Dynamical RAM for           str. fact:       0.50 MB

     Dynamical RAM for           local pot:       0.00 MB

     Dynamical RAM for          nlocal pot:      10.82 MB

     Dynamical RAM for                qrad:       3.96 MB

     Dynamical RAM for          rho,v,vnew:       1.08 MB

     Dynamical RAM for               rhoin:       0.36 MB

     Dynamical RAM for            rho*nmix:       2.66 MB

     Dynamical RAM for           G-vectors:       0.69 MB

     Dynamical RAM for          h,s,v(r/c):       2.30 MB

     Dynamical RAM for          <psi|beta>:       2.13 MB

     Dynamical RAM for                 psi:       7.79 MB

     Dynamical RAM for                hpsi:       7.79 MB

     Dynamical RAM for      wfcinit/wfcrot:      11.11 MB

     Estimated static dynamical RAM per process >     100.88 MB

     Estimated max dynamical RAM per process >     123.55 MB

     Estimated total dynamical RAM >       7.64 GB

     Check: negative core charge=   -0.000005

     Initial potential from superposition of free atoms

     starting charge     447.9837, renormalised to     448.0000
     Starting wfcs are  271 randomized atomic wfcs

     total cpu time spent up to now is        8.8 secs

     Self-consistent Calculation

     iteration #  1     ecut=    60.00 Ry     beta= 0.40
     Davidson diagonalization with overlap

---- Real-time Memory Report at c_bands before calling an iterative solver
           344 MiB given to the printing process from OS
             0 MiB allocation reported by mallinfo(arena+hblkhd)
         48292 MiB available memory on the node where the printing process lives
------------------
     ethr =  1.00E-02,  avg # of iterations =  2.0

     total cpu time spent up to now is       29.8 secs

     total energy              =   -4831.25248723 Ry
     estimated scf accuracy    <       8.51588060 Ry

     iteration #  2     ecut=    60.00 Ry     beta= 0.40
     Davidson diagonalization with overlap

---- Real-time Memory Report at c_bands before calling an iterative solver
           390 MiB given to the printing process from OS
             0 MiB allocation reported by mallinfo(arena+hblkhd)
         48256 MiB available memory on the node where the printing process lives
------------------
     ethr =  1.90E-03,  avg # of iterations =  5.8

     total cpu time spent up to now is       60.4 secs

     total energy              =   -4833.44761793 Ry
     estimated scf accuracy    <       3.21170207 Ry

     iteration #  3     ecut=    60.00 Ry     beta= 0.40
     Davidson diagonalization with overlap

---- Real-time Memory Report at c_bands before calling an iterative solver
           449 MiB given to the printing process from OS
             0 MiB allocation reported by mallinfo(arena+hblkhd)
         47973 MiB available memory on the node where the printing process lives
------------------
     ethr =  7.17E-04,  avg # of iterations =  4.9

     total cpu time spent up to now is       86.2 secs

     total energy              =   -4833.97021135 Ry
     estimated scf accuracy    <       0.11611921 Ry

     iteration #  4     ecut=    60.00 Ry     beta= 0.40
     Davidson diagonalization with overlap

---- Real-time Memory Report at c_bands before calling an iterative solver
           465 MiB given to the printing process from OS
             0 MiB allocation reported by mallinfo(arena+hblkhd)
         47905 MiB available memory on the node where the printing process lives
------------------
     ethr =  2.59E-05,  avg # of iterations =  6.7

     total cpu time spent up to now is      119.5 secs

     total energy              =   -4833.96974027 Ry
     estimated scf accuracy    <       0.06972781 Ry

     iteration #  5     ecut=    60.00 Ry     beta= 0.40
     Davidson diagonalization with overlap

---- Real-time Memory Report at c_bands before calling an iterative solver
           519 MiB given to the printing process from OS
             0 MiB allocation reported by mallinfo(arena+hblkhd)
         47753 MiB available memory on the node where the printing process lives
------------------
     ethr =  1.56E-05,  avg # of iterations =  7.0

     total cpu time spent up to now is      155.0 secs

     total energy              =   -4833.99239537 Ry
     estimated scf accuracy    <       0.09480921 Ry

     iteration #  6     ecut=    60.00 Ry     beta= 0.40
     Davidson diagonalization with overlap

---- Real-time Memory Report at c_bands before calling an iterative solver
           547 MiB given to the printing process from OS
             0 MiB allocation reported by mallinfo(arena+hblkhd)
         47664 MiB available memory on the node where the printing process lives
------------------
     ethr =  1.56E-05,  avg # of iterations =  5.4

     total cpu time spent up to now is      179.2 secs

     total energy              =   -4833.98416788 Ry
     estimated scf accuracy    <       0.04024546 Ry

     iteration #  7     ecut=    60.00 Ry     beta= 0.40
     Davidson diagonalization with overlap

---- Real-time Memory Report at c_bands before calling an iterative solver
           552 MiB given to the printing process from OS
             0 MiB allocation reported by mallinfo(arena+hblkhd)
         47685 MiB available memory on the node where the printing process lives
------------------
     ethr =  8.98E-06,  avg # of iterations =  5.2

     total cpu time spent up to now is      204.6 secs

     total energy              =   -4833.99054488 Ry
     estimated scf accuracy    <       0.00107227 Ry

     iteration #  8     ecut=    60.00 Ry     beta= 0.40
     Davidson diagonalization with overlap

---- Real-time Memory Report at c_bands before calling an iterative solver
           552 MiB given to the printing process from OS
             0 MiB allocation reported by mallinfo(arena+hblkhd)
         47685 MiB available memory on the node where the printing process lives
------------------
     c_bands:  1 eigenvalues not converged
     ethr =  2.39E-07,  avg # of iterations =  9.6

     total cpu time spent up to now is      242.1 secs

     total energy              =   -4833.99125393 Ry
     estimated scf accuracy    <       0.00180758 Ry

     iteration #  9     ecut=    60.00 Ry     beta= 0.40
     Davidson diagonalization with overlap

---- Real-time Memory Report at c_bands before calling an iterative solver
           582 MiB given to the printing process from OS
             0 MiB allocation reported by mallinfo(arena+hblkhd)
         47556 MiB available memory on the node where the printing process lives
------------------
     ethr =  2.39E-07,  avg # of iterations =  3.6

     total cpu time spent up to now is      265.0 secs

     total energy              =   -4833.99126263 Ry
     estimated scf accuracy    <       0.00033862 Ry

     iteration # 10     ecut=    60.00 Ry     beta= 0.40
     Davidson diagonalization with overlap

---- Real-time Memory Report at c_bands before calling an iterative solver
           582 MiB given to the printing process from OS
             0 MiB allocation reported by mallinfo(arena+hblkhd)
         47571 MiB available memory on the node where the printing process lives
------------------
     ethr =  7.56E-08,  avg # of iterations =  6.7

     total cpu time spent up to now is      294.5 secs

     total energy              =   -4833.99137771 Ry
     estimated scf accuracy    <       0.00006132 Ry

     iteration # 11     ecut=    60.00 Ry     beta= 0.40
     Davidson diagonalization with overlap

---- Real-time Memory Report at c_bands before calling an iterative solver
           588 MiB given to the printing process from OS
             0 MiB allocation reported by mallinfo(arena+hblkhd)
         47519 MiB available memory on the node where the printing process lives
------------------
     ethr =  1.37E-08,  avg # of iterations =  4.8

     total cpu time spent up to now is      320.1 secs

     total energy              =   -4833.99135515 Ry
     estimated scf accuracy    <       0.00011093 Ry

     iteration # 12     ecut=    60.00 Ry     beta= 0.40
     Davidson diagonalization with overlap

---- Real-time Memory Report at c_bands before calling an iterative solver
           591 MiB given to the printing process from OS
             0 MiB allocation reported by mallinfo(arena+hblkhd)
         47503 MiB available memory on the node where the printing process lives
------------------
     ethr =  1.37E-08,  avg # of iterations =  6.8

     total cpu time spent up to now is      347.9 secs

     total energy              =   -4833.99136304 Ry
     estimated scf accuracy    <       0.00001455 Ry

     iteration # 13     ecut=    60.00 Ry     beta= 0.40
     Davidson diagonalization with overlap

---- Real-time Memory Report at c_bands before calling an iterative solver
           591 MiB given to the printing process from OS
             0 MiB allocation reported by mallinfo(arena+hblkhd)
         47509 MiB available memory on the node where the printing process lives
------------------
     c_bands:  1 eigenvalues not converged
     ethr =  3.25E-09,  avg # of iterations =  6.3

     total cpu time spent up to now is      376.9 secs

     total energy              =   -4833.99138478 Ry
     estimated scf accuracy    <       0.00001087 Ry

     iteration # 14     ecut=    60.00 Ry     beta= 0.40
     Davidson diagonalization with overlap

---- Real-time Memory Report at c_bands before calling an iterative solver
           591 MiB given to the printing process from OS
             0 MiB allocation reported by mallinfo(arena+hblkhd)
         47501 MiB available memory on the node where the printing process lives
------------------
     ethr =  2.43E-09,  avg # of iterations =  1.4

     total cpu time spent up to now is      394.8 secs

     total energy              =   -4833.99138382 Ry
     estimated scf accuracy    <       0.00001232 Ry

     iteration # 15     ecut=    60.00 Ry     beta= 0.40
     Davidson diagonalization with overlap

---- Real-time Memory Report at c_bands before calling an iterative solver
           591 MiB given to the printing process from OS
             0 MiB allocation reported by mallinfo(arena+hblkhd)
         47526 MiB available memory on the node where the printing process lives
------------------
     ethr =  2.43E-09,  avg # of iterations =  5.5

     total cpu time spent up to now is      416.9 secs

     total energy              =   -4833.99138119 Ry
     estimated scf accuracy    <       0.00000681 Ry

     iteration # 16     ecut=    60.00 Ry     beta= 0.40
     Davidson diagonalization with overlap

---- Real-time Memory Report at c_bands before calling an iterative solver
           591 MiB given to the printing process from OS
             0 MiB allocation reported by mallinfo(arena+hblkhd)
         47532 MiB available memory on the node where the printing process lives
------------------
     ethr =  1.52E-09,  avg # of iterations =  7.1

     total cpu time spent up to now is      449.7 secs

     total energy              =   -4833.99138277 Ry
     estimated scf accuracy    <       0.00000488 Ry

     iteration # 17     ecut=    60.00 Ry     beta= 0.40
     Davidson diagonalization with overlap

---- Real-time Memory Report at c_bands before calling an iterative solver
           606 MiB given to the printing process from OS
             0 MiB allocation reported by mallinfo(arena+hblkhd)
         47483 MiB available memory on the node where the printing process lives
------------------
     ethr =  1.09E-09,  avg # of iterations =  6.2

     total cpu time spent up to now is      475.8 secs

     total energy              =   -4833.99138232 Ry
     estimated scf accuracy    <       0.00000299 Ry

     iteration # 18     ecut=    60.00 Ry     beta= 0.40
     Davidson diagonalization with overlap

---- Real-time Memory Report at c_bands before calling an iterative solver
           606 MiB given to the printing process from OS
             0 MiB allocation reported by mallinfo(arena+hblkhd)
         47474 MiB available memory on the node where the printing process lives
------------------
     ethr =  6.68E-10,  avg # of iterations =  7.8

     total cpu time spent up to now is      504.5 secs

     total energy              =   -4833.99138274 Ry
     estimated scf accuracy    <       0.00000021 Ry

     iteration # 19     ecut=    60.00 Ry     beta= 0.40
     Davidson diagonalization with overlap

---- Real-time Memory Report at c_bands before calling an iterative solver
           606 MiB given to the printing process from OS
             0 MiB allocation reported by mallinfo(arena+hblkhd)
         47443 MiB available memory on the node where the printing process lives
------------------
     ethr =  4.59E-11,  avg # of iterations =  8.3

     total cpu time spent up to now is      536.3 secs

     total energy              =   -4833.99138273 Ry
     estimated scf accuracy    <       0.00000022 Ry

     iteration # 20     ecut=    60.00 Ry     beta= 0.40
     Davidson diagonalization with overlap

---- Real-time Memory Report at c_bands before calling an iterative solver
           606 MiB given to the printing process from OS
             0 MiB allocation reported by mallinfo(arena+hblkhd)
         47409 MiB available memory on the node where the printing process lives
------------------
     ethr =  4.59E-11,  avg # of iterations =  4.3

     total cpu time spent up to now is      559.8 secs

     total energy              =   -4833.99138273 Ry
     estimated scf accuracy    <       0.00000003 Ry

     iteration # 21     ecut=    60.00 Ry     beta= 0.40
     Davidson diagonalization with overlap

---- Real-time Memory Report at c_bands before calling an iterative solver
           606 MiB given to the printing process from OS
             0 MiB allocation reported by mallinfo(arena+hblkhd)
         47411 MiB available memory on the node where the printing process lives
------------------
     ethr =  7.53E-12,  avg # of iterations =  8.0

     total cpu time spent up to now is      593.8 secs

     total energy              =   -4833.99138274 Ry
     estimated scf accuracy    <       0.00000001 Ry

     iteration # 22     ecut=    60.00 Ry     beta= 0.40
     Davidson diagonalization with overlap

---- Real-time Memory Report at c_bands before calling an iterative solver
           607 MiB given to the printing process from OS
             0 MiB allocation reported by mallinfo(arena+hblkhd)
         47389 MiB available memory on the node where the printing process lives
------------------
     ethr =  2.29E-12,  avg # of iterations =  3.3

     total cpu time spent up to now is      615.1 secs

     total energy              =   -4833.99138274 Ry
     estimated scf accuracy    <          2.7E-09 Ry

     iteration # 23     ecut=    60.00 Ry     beta= 0.40
     Davidson diagonalization with overlap

---- Real-time Memory Report at c_bands before calling an iterative solver
           607 MiB given to the printing process from OS
             0 MiB allocation reported by mallinfo(arena+hblkhd)
         47386 MiB available memory on the node where the printing process lives
------------------
     ethr =  6.04E-13,  avg # of iterations =  8.5

     total cpu time spent up to now is      656.5 secs

     total energy              =   -4833.99138274 Ry
     estimated scf accuracy    <          2.4E-09 Ry

     iteration # 24     ecut=    60.00 Ry     beta= 0.40
     Davidson diagonalization with overlap

---- Real-time Memory Report at c_bands before calling an iterative solver
           657 MiB given to the printing process from OS
             0 MiB allocation reported by mallinfo(arena+hblkhd)
         47256 MiB available memory on the node where the printing process lives
------------------
     ethr =  5.43E-13,  avg # of iterations =  3.2

     total cpu time spent up to now is      679.0 secs

     total energy              =   -4833.99138274 Ry
     estimated scf accuracy    <          1.6E-10 Ry

     iteration # 25     ecut=    60.00 Ry     beta= 0.40
     Davidson diagonalization with overlap

---- Real-time Memory Report at c_bands before calling an iterative solver
           657 MiB given to the printing process from OS
             0 MiB allocation reported by mallinfo(arena+hblkhd)
         47258 MiB available memory on the node where the printing process lives
------------------
     ethr =  1.00E-13,  avg # of iterations =  7.0

     total cpu time spent up to now is      710.0 secs

     total energy              =   -4833.99138274 Ry
     estimated scf accuracy    <          1.6E-10 Ry

     iteration # 26     ecut=    60.00 Ry     beta= 0.40
     Davidson diagonalization with overlap

---- Real-time Memory Report at c_bands before calling an iterative solver
           657 MiB given to the printing process from OS
             0 MiB allocation reported by mallinfo(arena+hblkhd)
         47256 MiB available memory on the node where the printing process lives
------------------
     ethr =  1.00E-13,  avg # of iterations =  2.0

     total cpu time spent up to now is      728.9 secs

     total energy              =   -4833.99138274 Ry
     estimated scf accuracy    <          5.4E-11 Ry

     iteration # 27     ecut=    60.00 Ry     beta= 0.40
     Davidson diagonalization with overlap

---- Real-time Memory Report at c_bands before calling an iterative solver
           657 MiB given to the printing process from OS
             0 MiB allocation reported by mallinfo(arena+hblkhd)
         47270 MiB available memory on the node where the printing process lives
------------------
     ethr =  1.00E-13,  avg # of iterations =  2.0

     total cpu time spent up to now is      747.9 secs

     total energy              =   -4833.99138274 Ry
     estimated scf accuracy    <          3.6E-12 Ry

     iteration # 28     ecut=    60.00 Ry     beta= 0.40
     Davidson diagonalization with overlap

---- Real-time Memory Report at c_bands before calling an iterative solver
           657 MiB given to the printing process from OS
             0 MiB allocation reported by mallinfo(arena+hblkhd)
         47299 MiB available memory on the node where the printing process lives
------------------
     ethr =  1.00E-13,  avg # of iterations =  1.0

     total cpu time spent up to now is      765.1 secs

     total energy              =   -4833.99138274 Ry
     estimated scf accuracy    <          1.1E-12 Ry

     iteration # 29     ecut=    60.00 Ry     beta= 0.40
     Davidson diagonalization with overlap

---- Real-time Memory Report at c_bands before calling an iterative solver
           657 MiB given to the printing process from OS
             0 MiB allocation reported by mallinfo(arena+hblkhd)
         47289 MiB available memory on the node where the printing process lives
------------------
     ethr =  1.00E-13,  avg # of iterations =  1.0

     total cpu time spent up to now is      782.3 secs

     End of self-consistent calculation

          k = 0.0000 0.0000 0.0000 ( 36555 PWs)   bands (ev):

   -34.5872 -34.5871 -34.5632 -34.5632 -34.5505 -34.5372 -34.5346 -34.5335
   -34.5328 -34.5328 -34.5250 -34.5229 -34.5229 -34.5226 -34.5226 -34.5223
   -34.5198 -34.5184 -34.5174 -34.5174 -34.5172 -34.5158 -34.5097 -34.5097
   -34.5037 -34.3719 -34.3688 -34.3625 -34.3598 -34.3570 -34.3570 -34.3513
   -34.3513 -34.3474 -34.3441 -11.0308 -11.0308 -11.0098 -11.0056 -11.0013
   -11.0013 -10.9597 -10.9597 -10.9311 -10.9311 -10.9206 -10.9142 -10.9048
   -10.8985 -10.8222 -10.7997 -10.7935 -10.7802 -10.7802 -10.7587 -10.7492
   -10.7492 -10.7485 -10.7485 -10.7451 -10.7351 -10.7266 -10.7260 -10.7254
   -10.7185 -10.7185 -10.7125 -10.7102 -10.7070 -10.7046 -10.7009 -10.6979
   -10.6970 -10.6970 -10.6854 -10.6772 -10.6745 -10.6701 -10.6696 -10.6683
   -10.6670 -10.6670 -10.6639 -10.6560 -10.6474 -10.6474 -10.6344 -10.6315
   -10.6248 -10.6223 -10.6223 -10.6179 -10.6170 -10.6154 -10.6154 -10.6131
   -10.6126 -10.6126 -10.6029 -10.5935 -10.5920 -10.5920 -10.5875 -10.5838
   -10.5838 -10.5790 -10.5790 -10.5769 -10.5706 -10.5683 -10.5677 -10.5659
   -10.5393 -10.5393 -10.5310  -8.2078  -8.1788  -6.5978  -6.5978  -6.5864
    -6.5763  -6.5763  -6.5676  -6.5501  -6.5283  -6.1517  -6.1517  -6.1364
    -6.1364  -5.2449  -5.2447  -1.7559  -1.0122  -0.2377  -0.2377  -0.0730
     0.1079   0.1938   0.3980   0.4571   0.5964   0.7203   0.7571   0.8262
     0.8380   1.0513   1.0513   1.6967   1.6989   1.7987   1.7987   1.9346
     3.4159   3.9883   5.7431   5.7431   5.8269   5.8269   5.9265   5.9265
     6.3167   6.3167   6.4066   6.4084   6.4084   6.4679   6.5335   6.5947
     6.5962   6.6895   6.6943   6.6943   7.2187   7.2622   7.3061   7.3089
     7.3486   7.3486   7.3591   7.4039   7.4039   7.4105   7.5026   7.5026
     7.9914   8.1022   8.1359   8.1359   8.7006   8.7097   8.9603   8.9603
     9.0140   9.0763   9.0763   9.0809   9.0870   9.1847   9.1847   9.7143
     9.7143   9.8171   9.8233   9.8260   9.8576   9.8623  10.3761  10.3761
    10.4503  10.4503  10.4749  10.4885  10.5726  10.5992  10.9996  10.9996
    11.0886  11.3875  11.3877  11.4102  11.4321  11.5803  11.5803  11.8221

     occupation numbers 
     1.0000   1.0000   1.0000   1.0000   1.0000   1.0000   1.0000   1.0000
     1.0000   1.0000   1.0000   1.0000   1.0000   1.0000   1.0000   1.0000
     1.0000   1.0000   1.0000   1.0000   1.0000   1.0000   1.0000   1.0000
     1.0000   1.0000   1.0000   1.0000   1.0000   1.0000   1.0000   1.0000
     1.0000   1.0000   1.0000   1.0000   1.0000   1.0000   1.0000   1.0000
     1.0000   1.0000   1.0000   1.0000   1.0000   1.0000   1.0000   1.0000
     1.0000   1.0000   1.0000   1.0000   1.0000   1.0000   1.0000   1.0000
     1.0000   1.0000   1.0000   1.0000   1.0000   1.0000   1.0000   1.0000
     1.0000   1.0000   1.0000   1.0000   1.0000   1.0000   1.0000   1.0000
     1.0000   1.0000   1.0000   1.0000   1.0000   1.0000   1.0000   1.0000
     1.0000   1.0000   1.0000   1.0000   1.0000   1.0000   1.0000   1.0000
     1.0000   1.0000   1.0000   1.0000   1.0000   1.0000   1.0000   1.0000
     1.0000   1.0000   1.0000   1.0000   1.0000   1.0000   1.0000   1.0000
     1.0000   1.0000   1.0000   1.0000   1.0000   1.0000   1.0000   1.0000
     1.0000   1.0000   1.0000   1.0000   1.0000   1.0000   1.0000   1.0000
     1.0000   1.0000   1.0000   1.0000   1.0000   1.0000   1.0000   1.0000
     1.0000   1.0000   1.0000   1.0000   1.0000   1.0000   1.0000   1.0000
     1.0000   1.0000   1.0000   1.0000   1.0000   1.0000   1.0000   1.0000
     1.0000   1.0000   1.0000   1.0000   1.0000   1.0000   1.0000   1.0000
     1.0000   1.0000   1.0000   1.0000   1.0000   1.0000   1.0000   1.0000
     1.0000   1.0000   1.0000   1.0000   1.0000   1.0000   1.0000   1.0000
     1.0000   1.0000   1.0000   1.0000   1.0000   1.0000   1.0000   1.0000
     1.0000   1.0000   1.0000   1.0000   1.0000   1.0000   1.0000   1.0000
     1.0000   1.0000   1.0000   1.0000   1.0000   1.0000   1.0000   1.0000
     1.0000   1.0000   1.0000   1.0000   1.0000   1.0000   1.0000   1.0000
     1.0000   1.0000   1.0000   1.0000   1.0000   1.0000   1.0000   1.0000
     1.0000   1.0000   1.0000   1.0000   1.0000   1.0000   1.0000   1.0000
     1.0000   1.0000   1.0000   1.0000   1.0000   1.0000   1.0000   1.0000

          k = 0.0000 0.0000 0.1074 ( 36431 PWs)   bands (ev):

   -34.5837 -34.5815 -34.5567 -34.5567 -34.5481 -34.5388 -34.5312 -34.5312
   -34.5278 -34.5278 -34.5170 -34.5160 -34.5157 -34.5147 -34.5147 -34.5144
   -34.5138 -34.5138 -34.5127 -34.5118 -34.5118 -34.5098 -34.5087 -34.5057
   -34.5057 -34.3722 -34.3642 -34.3601 -34.3509 -34.3508 -34.3508 -34.3455
   -34.3451 -34.3451 -34.3398 -11.0293 -11.0293 -11.0095 -11.0059 -11.0031
   -11.0031 -10.9593 -10.9593 -10.9315 -10.9315 -10.9201 -10.9136 -10.9054
   -10.8991 -10.8218 -10.7990 -10.7932 -10.7798 -10.7798 -10.7582 -10.7495
   -10.7495 -10.7484 -10.7484 -10.7445 -10.7356 -10.7282 -10.7271 -10.7250
   -10.7191 -10.7191 -10.7120 -10.7096 -10.7091 -10.7051 -10.7015 -10.6998
   -10.6959 -10.6959 -10.6829 -10.6782 -10.6726 -10.6704 -10.6693 -10.6688
   -10.6688 -10.6656 -10.6643 -10.6548 -10.6450 -10.6450 -10.6356 -10.6321
   -10.6246 -10.6211 -10.6211 -10.6168 -10.6167 -10.6153 -10.6153 -10.6137
   -10.6137 -10.6128 -10.6038 -10.5937 -10.5926 -10.5926 -10.5876 -10.5834
   -10.5834 -10.5793 -10.5793 -10.5773 -10.5706 -10.5683 -10.5677 -10.5658
   -10.5395 -10.5395 -10.5310  -8.2058  -8.1808  -6.5964  -6.5964  -6.5851
    -6.5776  -6.5776  -6.5688  -6.5488  -6.5297  -6.1507  -6.1507  -6.1374
    -6.1374  -5.2448  -5.2446  -1.7298  -1.0705  -0.2365  -0.2365  -0.0710
     0.1103   0.2014   0.3874   0.4385   0.6967   0.7321   0.7615   0.8249
     0.8331   1.0476   1.0476   1.6995   1.6995   1.8013   1.8013   1.8368
     3.4713   3.9681   5.7675   5.7675   5.8373   5.8373   5.9191   5.9191
     6.2662   6.2662   6.3595   6.3749   6.3749   6.4214   6.5075   6.6706
     6.6810   6.6862   6.7634   6.7634   7.1898   7.2632   7.3071   7.3091
     7.3498   7.3498   7.3592   7.3596   7.4038   7.4038   7.4567   7.4567
     8.0170   8.1438   8.2233   8.2233   8.7015   8.7092   8.9690   8.9690
     9.0320   9.0713   9.0713   9.1058   9.1107   9.2092   9.2092   9.5970
     9.5970   9.7505   9.8228   9.8256   9.8572   9.8619  10.3634  10.3634
    10.4628  10.4628  10.4690  10.4815  10.5624  10.5650  10.9754  10.9754
    11.0250  11.3878  11.3880  11.4116  11.4341  11.5815  11.5815  11.9037

     occupation numbers 
     1.0000   1.0000   1.0000   1.0000   1.0000   1.0000   1.0000   1.0000
     1.0000   1.0000   1.0000   1.0000   1.0000   1.0000   1.0000   1.0000
     1.0000   1.0000   1.0000   1.0000   1.0000   1.0000   1.0000   1.0000
     1.0000   1.0000   1.0000   1.0000   1.0000   1.0000   1.0000   1.0000
     1.0000   1.0000   1.0000   1.0000   1.0000   1.0000   1.0000   1.0000
     1.0000   1.0000   1.0000   1.0000   1.0000   1.0000   1.0000   1.0000
     1.0000   1.0000   1.0000   1.0000   1.0000   1.0000   1.0000   1.0000
     1.0000   1.0000   1.0000   1.0000   1.0000   1.0000   1.0000   1.0000
     1.0000   1.0000   1.0000   1.0000   1.0000   1.0000   1.0000   1.0000
     1.0000   1.0000   1.0000   1.0000   1.0000   1.0000   1.0000   1.0000
     1.0000   1.0000   1.0000   1.0000   1.0000   1.0000   1.0000   1.0000
     1.0000   1.0000   1.0000   1.0000   1.0000   1.0000   1.0000   1.0000
     1.0000   1.0000   1.0000   1.0000   1.0000   1.0000   1.0000   1.0000
     1.0000   1.0000   1.0000   1.0000   1.0000   1.0000   1.0000   1.0000
     1.0000   1.0000   1.0000   1.0000   1.0000   1.0000   1.0000   1.0000
     1.0000   1.0000   1.0000   1.0000   1.0000   1.0000   1.0000   1.0000
     1.0000   1.0000   1.0000   1.0000   1.0000   1.0000   1.0000   1.0000
     1.0000   1.0000   1.0000   1.0000   1.0000   1.0000   1.0000   1.0000
     1.0000   1.0000   1.0000   1.0000   1.0000   1.0000   1.0000   1.0000
     1.0000   1.0000   1.0000   1.0000   1.0000   1.0000   1.0000   1.0000
     1.0000   1.0000   1.0000   1.0000   1.0000   1.0000   1.0000   1.0000
     1.0000   1.0000   1.0000   1.0000   1.0000   1.0000   1.0000   1.0000
     1.0000   1.0000   1.0000   1.0000   1.0000   1.0000   1.0000   1.0000
     1.0000   1.0000   1.0000   1.0000   1.0000   1.0000   1.0000   1.0000
     1.0000   1.0000   1.0000   1.0000   1.0000   1.0000   1.0000   1.0000
     1.0000   1.0000   1.0000   1.0000   1.0000   1.0000   1.0000   1.0000
     1.0000   1.0000   1.0000   1.0000   1.0000   1.0000   1.0000   1.0000
     1.0000   1.0000   1.0000   1.0000   1.0000   1.0000   1.0000   1.0000

          k = 0.0000 0.0000 0.2148 ( 36483 PWs)   bands (ev):

   -34.5843 -34.5820 -34.5597 -34.5597 -34.5485 -34.5384 -34.5334 -34.5299
   -34.5288 -34.5288 -34.5201 -34.5190 -34.5189 -34.5188 -34.5173 -34.5164
   -34.5163 -34.5163 -34.5155 -34.5135 -34.5131 -34.5131 -34.5124 -34.5076
   -34.5076 -34.3714 -34.3653 -34.3615 -34.3548 -34.3548 -34.3534 -34.3487
   -34.3487 -34.3462 -34.3416 -11.0254 -11.0254 -11.0089 -11.0075 -11.0075
   -11.0066 -10.9586 -10.9586 -10.9323 -10.9323 -10.9190 -10.9124 -10.9067
   -10.9006 -10.8210 -10.7976 -10.7928 -10.7792 -10.7792 -10.7572 -10.7503
   -10.7503 -10.7480 -10.7480 -10.7434 -10.7369 -10.7305 -10.7303 -10.7241
   -10.7201 -10.7201 -10.7122 -10.7106 -10.7080 -10.7067 -10.7035 -10.7033
   -10.6932 -10.6932 -10.6798 -10.6786 -10.6728 -10.6728 -10.6712 -10.6683
   -10.6676 -10.6654 -10.6625 -10.6514 -10.6390 -10.6387 -10.6387 -10.6335
   -10.6243 -10.6206 -10.6206 -10.6188 -10.6188 -10.6161 -10.6141 -10.6125
   -10.6125 -10.6124 -10.6061 -10.5943 -10.5943 -10.5940 -10.5879 -10.5825
   -10.5825 -10.5801 -10.5801 -10.5782 -10.5706 -10.5683 -10.5677 -10.5659
   -10.5399 -10.5399 -10.5310  -8.2006  -8.1861  -6.5928  -6.5928  -6.5818
    -6.5813  -6.5813  -6.5722  -6.5452  -6.5333  -6.1479  -6.1479  -6.1402
    -6.1402  -5.2448  -5.2447  -1.6633  -1.1947  -0.2341  -0.2341  -0.0667
     0.1172   0.2199   0.3693   0.4011   0.7524   0.7711   0.8176   0.8234
     0.9436   1.0400   1.0400   1.5930   1.7017   1.7049   1.8063   1.8063
     3.5891   3.9129   5.8223   5.8223   5.8751   5.8751   5.8995   5.8995
     6.1484   6.1484   6.3043   6.3214   6.3214   6.3582   6.4956   6.6339
     6.8084   6.8464   6.9153   6.9153   7.1174   7.2241   7.2650   7.3070
     7.3090   7.3259   7.3259   7.3516   7.3516   7.3571   7.4037   7.4037
     8.0652   8.2263   8.4477   8.4477   8.7005   8.7065   8.9900   8.9900
     9.0534   9.0534   9.0646   9.1407   9.2098   9.2575   9.2575   9.3258
     9.3258   9.5801   9.8236   9.8252   9.8581   9.8613  10.3368  10.3368
    10.4439  10.4672  10.4866  10.4939  10.4939  10.5989  10.8757  10.9224
    10.9224  11.3885  11.3886  11.4135  11.4371  11.5831  11.5831  12.0718

     occupation numbers 
     1.0000   1.0000   1.0000   1.0000   1.0000   1.0000   1.0000   1.0000
     1.0000   1.0000   1.0000   1.0000   1.0000   1.0000   1.0000   1.0000
     1.0000   1.0000   1.0000   1.0000   1.0000   1.0000   1.0000   1.0000
     1.0000   1.0000   1.0000   1.0000   1.0000   1.0000   1.0000   1.0000
     1.0000   1.0000   1.0000   1.0000   1.0000   1.0000   1.0000   1.0000
     1.0000   1.0000   1.0000   1.0000   1.0000   1.0000   1.0000   1.0000
     1.0000   1.0000   1.0000   1.0000   1.0000   1.0000   1.0000   1.0000
     1.0000   1.0000   1.0000   1.0000   1.0000   1.0000   1.0000   1.0000
     1.0000   1.0000   1.0000   1.0000   1.0000   1.0000   1.0000   1.0000
     1.0000   1.0000   1.0000   1.0000   1.0000   1.0000   1.0000   1.0000
     1.0000   1.0000   1.0000   1.0000   1.0000   1.0000   1.0000   1.0000
     1.0000   1.0000   1.0000   1.0000   1.0000   1.0000   1.0000   1.0000
     1.0000   1.0000   1.0000   1.0000   1.0000   1.0000   1.0000   1.0000
     1.0000   1.0000   1.0000   1.0000   1.0000   1.0000   1.0000   1.0000
     1.0000   1.0000   1.0000   1.0000   1.0000   1.0000   1.0000   1.0000
     1.0000   1.0000   1.0000   1.0000   1.0000   1.0000   1.0000   1.0000
     1.0000   1.0000   1.0000   1.0000   1.0000   1.0000   1.0000   1.0000
     1.0000   1.0000   1.0000   1.0000   1.0000   1.0000   1.0000   1.0000
     1.0000   1.0000   1.0000   1.0000   1.0000   1.0000   1.0000   1.0000
     1.0000   1.0000   1.0000   1.0000   1.0000   1.0000   1.0000   1.0000
     1.0000   1.0000   1.0000   1.0000   1.0000   1.0000   1.0000   1.0000
     1.0000   1.0000   1.0000   1.0000   1.0000   1.0000   1.0000   1.0000
     1.0000   1.0000   1.0000   1.0000   1.0000   1.0000   1.0000   1.0000
     1.0000   1.0000   1.0000   1.0000   1.0000   1.0000   1.0000   1.0000
     1.0000   1.0000   1.0000   1.0000   1.0000   1.0000   1.0000   1.0000
     1.0000   1.0000   1.0000   1.0000   1.0000   1.0000   1.0000   1.0000
     1.0000   1.0000   1.0000   1.0000   1.0000   1.0000   1.0000   1.0000
     1.0000   1.0000   1.0000   1.0000   1.0000   1.0000   1.0000   1.0000

          k = 0.0000 0.0000-0.3222 ( 36488 PWs)   bands (ev):

   -34.5846 -34.5843 -34.5597 -34.5597 -34.5462 -34.5410 -34.5392 -34.5338
   -34.5230 -34.5230 -34.5206 -34.5204 -34.5204 -34.5185 -34.5184 -34.5184
   -34.5173 -34.5158 -34.5153 -34.5153 -34.5147 -34.5118 -34.5076 -34.5076
   -34.5069 -34.3747 -34.3669 -34.3601 -34.3556 -34.3548 -34.3548 -34.3491
   -34.3491 -34.3425 -34.3412 -11.0225 -11.0225 -11.0107 -11.0107 -11.0082
   -11.0073 -10.9582 -10.9582 -10.9326 -10.9326 -10.9184 -10.9117 -10.9074
   -10.9014 -10.8206 -10.7970 -10.7926 -10.7788 -10.7788 -10.7567 -10.7507
   -10.7507 -10.7478 -10.7478 -10.7426 -10.7378 -10.7318 -10.7316 -10.7238
   -10.7207 -10.7207 -10.7134 -10.7088 -10.7085 -10.7064 -10.7052 -10.7050
   -10.6915 -10.6915 -10.6803 -10.6767 -10.6752 -10.6752 -10.6718 -10.6673
   -10.6666 -10.6640 -10.6623 -10.6483 -10.6420 -10.6341 -10.6326 -10.6326
   -10.6263 -10.6263 -10.6242 -10.6176 -10.6176 -10.6157 -10.6122 -10.6118
   -10.6116 -10.6116 -10.6081 -10.5952 -10.5952 -10.5942 -10.5880 -10.5818
   -10.5818 -10.5808 -10.5808 -10.5786 -10.5706 -10.5683 -10.5677 -10.5659
   -10.5401 -10.5401 -10.5310  -8.1937  -8.1931  -6.5895  -6.5895  -6.5847
    -6.5847  -6.5780  -6.5760  -6.5420  -6.5366  -6.1443  -6.1443  -6.1438
    -6.1438  -5.2448  -5.2448  -1.6161  -1.2683  -0.2329  -0.2329  -0.0646
     0.1214   0.2317   0.3606   0.3808   0.7615   0.7769   0.8148   0.8186
     1.0363   1.0363   1.1846   1.3516   1.7022   1.7076   1.8088   1.8088
     3.6632   3.8671   5.8611   5.8611   5.8644   5.8644   5.9474   5.9474
     6.0503   6.0503   6.2844   6.3005   6.3005   6.3343   6.4914   6.6164
     6.8805   7.0044   7.0422   7.0422   7.0627   7.0750   7.2062   7.2062
     7.2660   7.3059   7.3100   7.3525   7.3525   7.3560   7.4026   7.4026
     8.0882   8.2679   8.6287   8.6287   8.7022   8.7060   9.0110   9.0110
     9.0143   9.0143   9.0790   9.1439   9.1439   9.1576   9.2825   9.2825
     9.3747   9.3814   9.8233   9.8237   9.8579   9.8597  10.3226  10.3226
    10.4237  10.4477  10.4595  10.5130  10.5130  10.7077  10.7214  10.8927
    10.8927  11.3889  11.3889  11.4148  11.4388  11.5842  11.5842  12.1648

     occupation numbers 
     1.0000   1.0000   1.0000   1.0000   1.0000   1.0000   1.0000   1.0000
     1.0000   1.0000   1.0000   1.0000   1.0000   1.0000   1.0000   1.0000
     1.0000   1.0000   1.0000   1.0000   1.0000   1.0000   1.0000   1.0000
     1.0000   1.0000   1.0000   1.0000   1.0000   1.0000   1.0000   1.0000
     1.0000   1.0000   1.0000   1.0000   1.0000   1.0000   1.0000   1.0000
     1.0000   1.0000   1.0000   1.0000   1.0000   1.0000   1.0000   1.0000
     1.0000   1.0000   1.0000   1.0000   1.0000   1.0000   1.0000   1.0000
     1.0000   1.0000   1.0000   1.0000   1.0000   1.0000   1.0000   1.0000
     1.0000   1.0000   1.0000   1.0000   1.0000   1.0000   1.0000   1.0000
     1.0000   1.0000   1.0000   1.0000   1.0000   1.0000   1.0000   1.0000
     1.0000   1.0000   1.0000   1.0000   1.0000   1.0000   1.0000   1.0000
     1.0000   1.0000   1.0000   1.0000   1.0000   1.0000   1.0000   1.0000
     1.0000   1.0000   1.0000   1.0000   1.0000   1.0000   1.0000   1.0000
     1.0000   1.0000   1.0000   1.0000   1.0000   1.0000   1.0000   1.0000
     1.0000   1.0000   1.0000   1.0000   1.0000   1.0000   1.0000   1.0000
     1.0000   1.0000   1.0000   1.0000   1.0000   1.0000   1.0000   1.0000
     1.0000   1.0000   1.0000   1.0000   1.0000   1.0000   1.0000   1.0000
     1.0000   1.0000   1.0000   1.0000   1.0000   1.0000   1.0000   1.0000
     1.0000   1.0000   1.0000   1.0000   1.0000   1.0000   1.0000   1.0000
     1.0000   1.0000   1.0000   1.0000   1.0000   1.0000   1.0000   1.0000
     1.0000   1.0000   1.0000   1.0000   1.0000   1.0000   1.0000   1.0000
     1.0000   1.0000   1.0000   1.0000   1.0000   1.0000   1.0000   1.0000
     1.0000   1.0000   1.0000   1.0000   1.0000   1.0000   1.0000   1.0000
     1.0000   1.0000   1.0000   1.0000   1.0000   1.0000   1.0000   1.0000
     1.0000   1.0000   1.0000   1.0000   1.0000   1.0000   1.0000   1.0000
     1.0000   1.0000   1.0000   1.0000   1.0000   1.0000   1.0000   1.0000
     1.0000   1.0000   1.0000   1.0000   1.0000   1.0000   1.0000   1.0000
     1.0000   1.0000   1.0000   1.0000   1.0000   1.0000   1.0000   1.0000

          k = 0.0000 0.1667 0.0000 ( 36495 PWs)   bands (ev):

   -34.5850 -34.5826 -34.5611 -34.5580 -34.5501 -34.5395 -34.5321 -34.5304
   -34.5276 -34.5247 -34.5231 -34.5215 -34.5215 -34.5213 -34.5196 -34.5186
   -34.5181 -34.5176 -34.5164 -34.5139 -34.5130 -34.5125 -34.5082 -34.5074
   -34.5064 -34.3730 -34.3626 -34.3608 -34.3578 -34.3561 -34.3533 -34.3503
   -34.3478 -34.3467 -34.3419 -11.0270 -11.0247 -11.0082 -11.0034 -10.9976
   -10.9960 -10.9678 -10.9627 -10.9456 -10.9340 -10.9246 -10.9072 -10.8965
   -10.8751 -10.8214 -10.7996 -10.7939 -10.7800 -10.7799 -10.7585 -10.7519
   -10.7500 -10.7484 -10.7461 -10.7432 -10.7344 -10.7279 -10.7218 -10.7201
   -10.7186 -10.7158 -10.7134 -10.7093 -10.7043 -10.7023 -10.7001 -10.6986
   -10.6959 -10.6904 -10.6877 -10.6774 -10.6758 -10.6731 -10.6716 -10.6690
   -10.6677 -10.6660 -10.6612 -10.6609 -10.6477 -10.6469 -10.6373 -10.6349
   -10.6320 -10.6260 -10.6218 -10.6203 -10.6196 -10.6153 -10.6150 -10.6149
   -10.6125 -10.6118 -10.6064 -10.6012 -10.5942 -10.5917 -10.5881 -10.5860
   -10.5828 -10.5807 -10.5781 -10.5762 -10.5743 -10.5733 -10.5688 -10.5667
   -10.5426 -10.5390 -10.5322  -8.1484  -8.1191  -6.9860  -6.9603  -6.5722
    -6.5510  -6.5431  -6.5231  -6.2239  -6.2084  -6.1830  -6.1672  -6.1526
    -6.1374  -5.2794  -5.2787  -1.7009  -0.9771  -0.4665  -0.2073  -0.1342
     0.0885   0.1878   0.4271   0.4817   0.6181   0.7968   0.8120   0.8252
     0.9032   1.0205   1.3484   1.3844   1.6421   1.7328   1.8637   2.2002
     3.3781   3.8259   5.6417   5.7025   5.8579   5.8672   5.8805   5.9733
     6.0590   6.2046   6.2198   6.2749   6.3112   6.3432   6.3908   6.4762
     6.6072   6.7351   6.8544   6.9005   6.9124   6.9763   7.2516   7.3544
     7.4816   7.5601   7.6272   7.6367   7.7076   7.7358   7.7484   7.7821
     8.1165   8.2362   8.2926   8.3374   8.4780   8.5288   8.8397   8.8547
     8.9067   9.0130   9.0136   9.0370   9.0912   9.1847   9.4854   9.6865
     9.7030   9.7265   9.7291   9.8043   9.8069   9.8337  10.2977  10.3379
    10.3995  10.4496  10.4560  10.4865  10.5307  10.5972  10.8571  10.9709
    11.0401  11.0616  11.1785  11.2981  11.3174  11.4367  11.4487  12.1398

     occupation numbers 
     1.0000   1.0000   1.0000   1.0000   1.0000   1.0000   1.0000   1.0000
     1.0000   1.0000   1.0000   1.0000   1.0000   1.0000   1.0000   1.0000
     1.0000   1.0000   1.0000   1.0000   1.0000   1.0000   1.0000   1.0000
     1.0000   1.0000   1.0000   1.0000   1.0000   1.0000   1.0000   1.0000
     1.0000   1.0000   1.0000   1.0000   1.0000   1.0000   1.0000   1.0000
     1.0000   1.0000   1.0000   1.0000   1.0000   1.0000   1.0000   1.0000
     1.0000   1.0000   1.0000   1.0000   1.0000   1.0000   1.0000   1.0000
     1.0000   1.0000   1.0000   1.0000   1.0000   1.0000   1.0000   1.0000
     1.0000   1.0000   1.0000   1.0000   1.0000   1.0000   1.0000   1.0000
     1.0000   1.0000   1.0000   1.0000   1.0000   1.0000   1.0000   1.0000
     1.0000   1.0000   1.0000   1.0000   1.0000   1.0000   1.0000   1.0000
     1.0000   1.0000   1.0000   1.0000   1.0000   1.0000   1.0000   1.0000
     1.0000   1.0000   1.0000   1.0000   1.0000   1.0000   1.0000   1.0000
     1.0000   1.0000   1.0000   1.0000   1.0000   1.0000   1.0000   1.0000
     1.0000   1.0000   1.0000   1.0000   1.0000   1.0000   1.0000   1.0000
     1.0000   1.0000   1.0000   1.0000   1.0000   1.0000   1.0000   1.0000
     1.0000   1.0000   1.0000   1.0000   1.0000   1.0000   1.0000   1.0000
     1.0000   1.0000   1.0000   1.0000   1.0000   1.0000   1.0000   1.0000
     1.0000   1.0000   1.0000   1.0000   1.0000   1.0000   1.0000   1.0000
     1.0000   1.0000   1.0000   1.0000   1.0000   1.0000   1.0000   1.0000
     1.0000   1.0000   1.0000   1.0000   1.0000   1.0000   1.0000   1.0000
     1.0000   1.0000   1.0000   1.0000   1.0000   1.0000   1.0000   1.0000
     1.0000   1.0000   1.0000   1.0000   1.0000   1.0000   1.0000   1.0000
     1.0000   1.0000   1.0000   1.0000   1.0000   1.0000   1.0000   1.0000
     1.0000   1.0000   1.0000   1.0000   1.0000   1.0000   1.0000   1.0000
     1.0000   1.0000   1.0000   1.0000   1.0000   1.0000   1.0000   1.0000
     1.0000   1.0000   1.0000   1.0000   1.0000   1.0000   1.0000   1.0000
     1.0000   1.0000   1.0000   1.0000   1.0000   1.0000   1.0000   1.0000

          k = 0.0000 0.1667 0.1074 ( 36494 PWs)   bands (ev):

   -34.5844 -34.5835 -34.5603 -34.5593 -34.5496 -34.5380 -34.5325 -34.5313
   -34.5295 -34.5269 -34.5213 -34.5213 -34.5192 -34.5185 -34.5174 -34.5172
   -34.5171 -34.5171 -34.5158 -34.5156 -34.5144 -34.5140 -34.5092 -34.5084
   -34.5077 -34.3725 -34.3648 -34.3606 -34.3571 -34.3547 -34.3542 -34.3488
   -34.3486 -34.3458 -34.3426 -11.0255 -11.0232 -11.0079 -11.0037 -10.9993
   -10.9978 -10.9671 -10.9622 -10.9468 -10.9345 -10.9238 -10.9081 -10.8949
   -10.8765 -10.8210 -10.7991 -10.7937 -10.7797 -10.7796 -10.7581 -10.7523
   -10.7499 -10.7487 -10.7457 -10.7428 -10.7349 -10.7291 -10.7230 -10.7200
   -10.7192 -10.7167 -10.7128 -10.7087 -10.7049 -10.7043 -10.7007 -10.6984
   -10.6961 -10.6894 -10.6858 -10.6790 -10.6748 -10.6724 -10.6712 -10.6707
   -10.6667 -10.6651 -10.6625 -10.6592 -10.6457 -10.6445 -10.6385 -10.6342
   -10.6327 -10.6259 -10.6208 -10.6195 -10.6188 -10.6170 -10.6149 -10.6142
   -10.6139 -10.6115 -10.6069 -10.6020 -10.5945 -10.5923 -10.5883 -10.5857
   -10.5824 -10.5810 -10.5784 -10.5762 -10.5747 -10.5733 -10.5688 -10.5668
   -10.5429 -10.5391 -10.5322  -8.1464  -8.1211  -6.9843  -6.9621  -6.5709
    -6.5524  -6.5419  -6.5244  -6.2229  -6.2094  -6.1819  -6.1682  -6.1516
    -6.1384  -5.2794  -5.2788  -1.6750  -1.0331  -0.4592  -0.2062  -0.1419
     0.0882   0.1919   0.4210   0.4710   0.7129   0.8041   0.8085   0.8285
     0.9108   1.0176   1.2093   1.5483   1.6434   1.7345   1.7798   2.1668
     3.4175   3.8097   5.6526   5.7196   5.8610   5.8740   5.8803   5.9650
     6.0656   6.1282   6.1512   6.2365   6.2578   6.3877   6.4595   6.4977
     6.6502   6.7912   6.9032   6.9162   6.9345   6.9711   7.2250   7.3083
     7.3760   7.5734   7.6196   7.6642   7.7077   7.7387   7.7462   7.7784
     8.0945   8.1645   8.3791   8.4813   8.4853   8.5246   8.8784   8.9049
     8.9151   9.0078   9.0136   9.0414   9.0950   9.1940   9.4524   9.5390
     9.5732   9.7125   9.7370   9.7818   9.7953   9.8131  10.3290  10.3688
    10.3931  10.4515  10.4700  10.5092  10.5230  10.6171  10.8262  10.9579
    11.0218  11.0635  11.1846  11.2993  11.3246  11.4316  11.4463  12.1908

     occupation numbers 
     1.0000   1.0000   1.0000   1.0000   1.0000   1.0000   1.0000   1.0000
     1.0000   1.0000   1.0000   1.0000   1.0000   1.0000   1.0000   1.0000
     1.0000   1.0000   1.0000   1.0000   1.0000   1.0000   1.0000   1.0000
     1.0000   1.0000   1.0000   1.0000   1.0000   1.0000   1.0000   1.0000
     1.0000   1.0000   1.0000   1.0000   1.0000   1.0000   1.0000   1.0000
     1.0000   1.0000   1.0000   1.0000   1.0000   1.0000   1.0000   1.0000
     1.0000   1.0000   1.0000   1.0000   1.0000   1.0000   1.0000   1.0000
     1.0000   1.0000   1.0000   1.0000   1.0000   1.0000   1.0000   1.0000
     1.0000   1.0000   1.0000   1.0000   1.0000   1.0000   1.0000   1.0000
     1.0000   1.0000   1.0000   1.0000   1.0000   1.0000   1.0000   1.0000
     1.0000   1.0000   1.0000   1.0000   1.0000   1.0000   1.0000   1.0000
     1.0000   1.0000   1.0000   1.0000   1.0000   1.0000   1.0000   1.0000
     1.0000   1.0000   1.0000   1.0000   1.0000   1.0000   1.0000   1.0000
     1.0000   1.0000   1.0000   1.0000   1.0000   1.0000   1.0000   1.0000
     1.0000   1.0000   1.0000   1.0000   1.0000   1.0000   1.0000   1.0000
     1.0000   1.0000   1.0000   1.0000   1.0000   1.0000   1.0000   1.0000
     1.0000   1.0000   1.0000   1.0000   1.0000   1.0000   1.0000   1.0000
     1.0000   1.0000   1.0000   1.0000   1.0000   1.0000   1.0000   1.0000
     1.0000   1.0000   1.0000   1.0000   1.0000   1.0000   1.0000   1.0000
     1.0000   1.0000   1.0000   1.0000   1.0000   1.0000   1.0000   1.0000
     1.0000   1.0000   1.0000   1.0000   1.0000   1.0000   1.0000   1.0000
     1.0000   1.0000   1.0000   1.0000   1.0000   1.0000   1.0000   1.0000
     1.0000   1.0000   1.0000   1.0000   1.0000   1.0000   1.0000   1.0000
     1.0000   1.0000   1.0000   1.0000   1.0000   1.0000   1.0000   1.0000
     1.0000   1.0000   1.0000   1.0000   1.0000   1.0000   1.0000   1.0000
     1.0000   1.0000   1.0000   1.0000   1.0000   1.0000   1.0000   1.0000
     1.0000   1.0000   1.0000   1.0000   1.0000   1.0000   1.0000   1.0000
     1.0000   1.0000   1.0000   1.0000   1.0000   1.0000   1.0000   1.0000

          k = 0.0000 0.1667 0.2148 ( 36494 PWs)   bands (ev):

   -34.5837 -34.5837 -34.5605 -34.5599 -34.5490 -34.5349 -34.5347 -34.5341
   -34.5266 -34.5263 -34.5200 -34.5198 -34.5196 -34.5195 -34.5181 -34.5176
   -34.5174 -34.5166 -34.5158 -34.5155 -34.5141 -34.5135 -34.5111 -34.5089
   -34.5065 -34.3721 -34.3633 -34.3627 -34.3562 -34.3545 -34.3544 -34.3491
   -34.3490 -34.3462 -34.3415 -11.0219 -11.0194 -11.0071 -11.0047 -11.0035
   -11.0020 -10.9653 -10.9612 -10.9495 -10.9356 -10.9218 -10.9104 -10.8909
   -10.8801 -10.8203 -10.7980 -10.7933 -10.7791 -10.7790 -10.7572 -10.7533
   -10.7502 -10.7486 -10.7451 -10.7417 -10.7362 -10.7314 -10.7256 -10.7204
   -10.7194 -10.7181 -10.7111 -10.7071 -10.7068 -10.7066 -10.7024 -10.7014
   -10.6930 -10.6871 -10.6827 -10.6807 -10.6755 -10.6746 -10.6705 -10.6684
   -10.6675 -10.6655 -10.6623 -10.6542 -10.6422 -10.6402 -10.6384 -10.6344
   -10.6320 -10.6256 -10.6227 -10.6206 -10.6184 -10.6173 -10.6170 -10.6136
   -10.6113 -10.6107 -10.6082 -10.6044 -10.5951 -10.5938 -10.5887 -10.5847
   -10.5819 -10.5816 -10.5792 -10.5762 -10.5755 -10.5733 -10.5687 -10.5669
   -10.5432 -10.5395 -10.5323  -8.1412  -8.1265  -6.9796  -6.9667  -6.5673
    -6.5560  -6.5383  -6.5279  -6.2200  -6.2123  -6.1790  -6.1711  -6.1488
    -6.1412  -5.2793  -5.2789  -1.6089  -1.1537  -0.4422  -0.2041  -0.1591
     0.0893   0.2008   0.4114   0.4499   0.8032   0.8175   0.8318   0.9185
     0.9565   1.0117   1.0969   1.5550   1.6458   1.7378   1.7450   2.0714
     3.5025   3.7665   5.6767   5.7638   5.8671   5.8794   5.8928   5.9448
     6.0400   6.0722   6.0848   6.1259   6.1953   6.3264   6.6193   6.6343
     6.7102   6.8653   6.9280   6.9531   6.9593   7.0369   7.1583   7.2130
     7.2390   7.4576   7.6684   7.6986   7.7076   7.7397   7.7466   7.7708
     8.0978   8.1477   8.4830   8.5106   8.5497   8.7012   8.9339   8.9485
     8.9917   9.0036   9.0429   9.0558   9.1142   9.2117   9.2763   9.3289
     9.3853   9.5085   9.7475   9.7861   9.7892   9.8125  10.3105  10.3793
    10.4364  10.4787  10.4861  10.5051  10.5384  10.6798  10.7712  10.9181
    10.9554  11.0771  11.1935  11.3028  11.3399  11.4201  11.4398  12.2961

     occupation numbers 
     1.0000   1.0000   1.0000   1.0000   1.0000   1.0000   1.0000   1.0000
     1.0000   1.0000   1.0000   1.0000   1.0000   1.0000   1.0000   1.0000
     1.0000   1.0000   1.0000   1.0000   1.0000   1.0000   1.0000   1.0000
     1.0000   1.0000   1.0000   1.0000   1.0000   1.0000   1.0000   1.0000
     1.0000   1.0000   1.0000   1.0000   1.0000   1.0000   1.0000   1.0000
     1.0000   1.0000   1.0000   1.0000   1.0000   1.0000   1.0000   1.0000
     1.0000   1.0000   1.0000   1.0000   1.0000   1.0000   1.0000   1.0000
     1.0000   1.0000   1.0000   1.0000   1.0000   1.0000   1.0000   1.0000
     1.0000   1.0000   1.0000   1.0000   1.0000   1.0000   1.0000   1.0000
     1.0000   1.0000   1.0000   1.0000   1.0000   1.0000   1.0000   1.0000
     1.0000   1.0000   1.0000   1.0000   1.0000   1.0000   1.0000   1.0000
     1.0000   1.0000   1.0000   1.0000   1.0000   1.0000   1.0000   1.0000
     1.0000   1.0000   1.0000   1.0000   1.0000   1.0000   1.0000   1.0000
     1.0000   1.0000   1.0000   1.0000   1.0000   1.0000   1.0000   1.0000
     1.0000   1.0000   1.0000   1.0000   1.0000   1.0000   1.0000   1.0000
     1.0000   1.0000   1.0000   1.0000   1.0000   1.0000   1.0000   1.0000
     1.0000   1.0000   1.0000   1.0000   1.0000   1.0000   1.0000   1.0000
     1.0000   1.0000   1.0000   1.0000   1.0000   1.0000   1.0000   1.0000
     1.0000   1.0000   1.0000   1.0000   1.0000   1.0000   1.0000   1.0000
     1.0000   1.0000   1.0000   1.0000   1.0000   1.0000   1.0000   1.0000
     1.0000   1.0000   1.0000   1.0000   1.0000   1.0000   1.0000   1.0000
     1.0000   1.0000   1.0000   1.0000   1.0000   1.0000   1.0000   1.0000
     1.0000   1.0000   1.0000   1.0000   1.0000   1.0000   1.0000   1.0000
     1.0000   1.0000   1.0000   1.0000   1.0000   1.0000   1.0000   1.0000
     1.0000   1.0000   1.0000   1.0000   1.0000   1.0000   1.0000   1.0000
     1.0000   1.0000   1.0000   1.0000   1.0000   1.0000   1.0000   1.0000
     1.0000   1.0000   1.0000   1.0000   1.0000   1.0000   1.0000   1.0000
     1.0000   1.0000   1.0000   1.0000   1.0000   1.0000   1.0000   1.0000

          k = 0.0000 0.1667-0.3222 ( 36458 PWs)   bands (ev):

   -34.5830 -34.5825 -34.5596 -34.5578 -34.5463 -34.5348 -34.5328 -34.5325
   -34.5265 -34.5252 -34.5192 -34.5182 -34.5179 -34.5176 -34.5173 -34.5171
   -34.5170 -34.5146 -34.5143 -34.5139 -34.5113 -34.5112 -34.5079 -34.5069
   -34.5065 -34.3711 -34.3626 -34.3616 -34.3546 -34.3543 -34.3523 -34.3486
   -34.3466 -34.3429 -34.3405 -11.0193 -11.0164 -11.0064 -11.0063 -11.0061
   -11.0046 -10.9642 -10.9606 -10.9509 -10.9362 -10.9204 -10.9119 -10.8869
   -10.8840 -10.8199 -10.7974 -10.7931 -10.7787 -10.7786 -10.7567 -10.7537
   -10.7505 -10.7483 -10.7448 -10.7410 -10.7371 -10.7326 -10.7270 -10.7210
   -10.7189 -10.7188 -10.7090 -10.7086 -10.7078 -10.7056 -10.7039 -10.7029
   -10.6910 -10.6856 -10.6814 -10.6814 -10.6769 -10.6759 -10.6710 -10.6683
   -10.6673 -10.6637 -10.6627 -10.6500 -10.6451 -10.6382 -10.6330 -10.6321
   -10.6301 -10.6289 -10.6259 -10.6250 -10.6175 -10.6165 -10.6163 -10.6132
   -10.6103 -10.6092 -10.6083 -10.6070 -10.5955 -10.5945 -10.5889 -10.5839
   -10.5827 -10.5809 -10.5799 -10.5761 -10.5759 -10.5733 -10.5686 -10.5670
   -10.5434 -10.5397 -10.5323  -8.1342  -8.1335  -6.9737  -6.9726  -6.5639
    -6.5595  -6.5348  -6.5315  -6.2163  -6.2160  -6.1754  -6.1746  -6.1454
    -6.1446  -5.2791  -5.2791  -1.5617  -1.2260  -0.4325  -0.2031  -0.1688
     0.0904   0.2058   0.4070   0.4394   0.8022   0.8239   0.8333   0.9449
     1.0089   1.0368   1.1864   1.3335   1.6470   1.7395   1.8971   1.9492
     3.5553   3.7329   5.6908   5.7978   5.8708   5.8788   5.9094   5.9292
     5.9906   6.0624   6.0632   6.0820   6.1858   6.2865   6.7018   6.7300
     6.7403   6.8904   6.9429   6.9439   6.9901   7.0229   7.1110   7.1376
     7.3044   7.3188   7.6859   7.7064   7.7219   7.7281   7.7559   7.7622
     8.1120   8.1623   8.4969   8.4990   8.6529   8.8690   8.9547   8.9584
     8.9664   8.9991   9.0425   9.0877   9.1422   9.1948   9.2237   9.2344
     9.2787   9.3704   9.7501   9.7839   9.7911   9.8129  10.3011  10.3718
    10.4295  10.4850  10.4944  10.5210  10.5548  10.6980  10.8102  10.8670
    10.8925  11.0866  11.1974  11.3053  11.3488  11.4132  11.4354  12.3512

     occupation numbers 
     1.0000   1.0000   1.0000   1.0000   1.0000   1.0000   1.0000   1.0000
     1.0000   1.0000   1.0000   1.0000   1.0000   1.0000   1.0000   1.0000
     1.0000   1.0000   1.0000   1.0000   1.0000   1.0000   1.0000   1.0000
     1.0000   1.0000   1.0000   1.0000   1.0000   1.0000   1.0000   1.0000
     1.0000   1.0000   1.0000   1.0000   1.0000   1.0000   1.0000   1.0000
     1.0000   1.0000   1.0000   1.0000   1.0000   1.0000   1.0000   1.0000
     1.0000   1.0000   1.0000   1.0000   1.0000   1.0000   1.0000   1.0000
     1.0000   1.0000   1.0000   1.0000   1.0000   1.0000   1.0000   1.0000
     1.0000   1.0000   1.0000   1.0000   1.0000   1.0000   1.0000   1.0000
     1.0000   1.0000   1.0000   1.0000   1.0000   1.0000   1.0000   1.0000
     1.0000   1.0000   1.0000   1.0000   1.0000   1.0000   1.0000   1.0000
     1.0000   1.0000   1.0000   1.0000   1.0000   1.0000   1.0000   1.0000
     1.0000   1.0000   1.0000   1.0000   1.0000   1.0000   1.0000   1.0000
     1.0000   1.0000   1.0000   1.0000   1.0000   1.0000   1.0000   1.0000
     1.0000   1.0000   1.0000   1.0000   1.0000   1.0000   1.0000   1.0000
     1.0000   1.0000   1.0000   1.0000   1.0000   1.0000   1.0000   1.0000
     1.0000   1.0000   1.0000   1.0000   1.0000   1.0000   1.0000   1.0000
     1.0000   1.0000   1.0000   1.0000   1.0000   1.0000   1.0000   1.0000
     1.0000   1.0000   1.0000   1.0000   1.0000   1.0000   1.0000   1.0000
     1.0000   1.0000   1.0000   1.0000   1.0000   1.0000   1.0000   1.0000
     1.0000   1.0000   1.0000   1.0000   1.0000   1.0000   1.0000   1.0000
     1.0000   1.0000   1.0000   1.0000   1.0000   1.0000   1.0000   1.0000
     1.0000   1.0000   1.0000   1.0000   1.0000   1.0000   1.0000   1.0000
     1.0000   1.0000   1.0000   1.0000   1.0000   1.0000   1.0000   1.0000
     1.0000   1.0000   1.0000   1.0000   1.0000   1.0000   1.0000   1.0000
     1.0000   1.0000   1.0000   1.0000   1.0000   1.0000   1.0000   1.0000
     1.0000   1.0000   1.0000   1.0000   1.0000   1.0000   1.0000   1.0000
     1.0000   1.0000   1.0000   1.0000   1.0000   1.0000   1.0000   1.0000

          k = 0.0000 0.3333 0.0000 ( 36490 PWs)   bands (ev):

   -34.5852 -34.5811 -34.5609 -34.5578 -34.5505 -34.5339 -34.5292 -34.5276
   -34.5266 -34.5257 -34.5241 -34.5231 -34.5212 -34.5195 -34.5193 -34.5184
   -34.5167 -34.5165 -34.5159 -34.5154 -34.5141 -34.5135 -34.5098 -34.5085
   -34.5080 -34.3688 -34.3620 -34.3618 -34.3590 -34.3558 -34.3530 -34.3502
   -34.3477 -34.3470 -34.3421 -11.0179 -11.0103 -11.0039 -10.9982 -10.9888
   -10.9847 -10.9746 -10.9701 -10.9558 -10.9436 -10.9413 -10.9229 -10.8563
   -10.8307 -10.8195 -10.7975 -10.7964 -10.7833 -10.7797 -10.7616 -10.7577
   -10.7511 -10.7482 -10.7399 -10.7354 -10.7328 -10.7260 -10.7185 -10.7155
   -10.7136 -10.7117 -10.7055 -10.7047 -10.7044 -10.7036 -10.6973 -10.6964
   -10.6961 -10.6920 -10.6867 -10.6835 -10.6807 -10.6755 -10.6725 -10.6719
   -10.6702 -10.6694 -10.6633 -10.6558 -10.6500 -10.6479 -10.6462 -10.6461
   -10.6375 -10.6327 -10.6304 -10.6301 -10.6265 -10.6189 -10.6184 -10.6155
   -10.6136 -10.6090 -10.6085 -10.5971 -10.5959 -10.5921 -10.5915 -10.5896
   -10.5892 -10.5858 -10.5851 -10.5800 -10.5759 -10.5718 -10.5692 -10.5691
   -10.5511 -10.5380 -10.5346  -7.9774  -7.9474  -7.3705  -7.3418  -6.5031
    -6.4828  -6.4731  -6.4537  -6.2701  -6.2633  -6.2532  -6.2463  -5.8456
    -5.8362  -5.3865  -5.3844  -1.5387  -0.9487  -0.7921  -0.3090  -0.1221
     0.0835   0.1202   0.5258   0.5964   0.6874   0.7549   0.9251   1.0033
     1.0065   1.0420   1.0994   1.4832   1.5466   1.6352   2.0567   2.6401
     3.2507   3.3847   5.5040   5.6076   5.7886   5.7900   5.8400   5.9553
     5.9799   6.0151   6.0404   6.1013   6.1116   6.1524   6.2395   6.3495
     6.5478   6.6252   6.8378   6.9104   7.2062   7.2692   7.2964   7.3815
     7.5603   7.7962   8.0189   8.0746   8.1265   8.1302   8.1805   8.1945
     8.3108   8.3436   8.3644   8.3831   8.4990   8.5790   8.7329   8.7334
     8.7682   8.7953   8.8271   8.9517   9.0543   9.1561   9.3187   9.3782
     9.6199   9.6499   9.7323   9.8576   9.8698   9.9023  10.2519  10.2959
    10.3030  10.3455  10.4144  10.4747  10.5751  10.5880  10.6329  10.7428
    10.7671  10.8753  10.8872  10.9961  11.0109  11.1831  11.2069  12.6691

     occupation numbers 
     1.0000   1.0000   1.0000   1.0000   1.0000   1.0000   1.0000   1.0000
     1.0000   1.0000   1.0000   1.0000   1.0000   1.0000   1.0000   1.0000
     1.0000   1.0000   1.0000   1.0000   1.0000   1.0000   1.0000   1.0000
     1.0000   1.0000   1.0000   1.0000   1.0000   1.0000   1.0000   1.0000
     1.0000   1.0000   1.0000   1.0000   1.0000   1.0000   1.0000   1.0000
     1.0000   1.0000   1.0000   1.0000   1.0000   1.0000   1.0000   1.0000
     1.0000   1.0000   1.0000   1.0000   1.0000   1.0000   1.0000   1.0000
     1.0000   1.0000   1.0000   1.0000   1.0000   1.0000   1.0000   1.0000
     1.0000   1.0000   1.0000   1.0000   1.0000   1.0000   1.0000   1.0000
     1.0000   1.0000   1.0000   1.0000   1.0000   1.0000   1.0000   1.0000
     1.0000   1.0000   1.0000   1.0000   1.0000   1.0000   1.0000   1.0000
     1.0000   1.0000   1.0000   1.0000   1.0000   1.0000   1.0000   1.0000
     1.0000   1.0000   1.0000   1.0000   1.0000   1.0000   1.0000   1.0000
     1.0000   1.0000   1.0000   1.0000   1.0000   1.0000   1.0000   1.0000
     1.0000   1.0000   1.0000   1.0000   1.0000   1.0000   1.0000   1.0000
     1.0000   1.0000   1.0000   1.0000   1.0000   1.0000   1.0000   1.0000
     1.0000   1.0000   1.0000   1.0000   1.0000   1.0000   1.0000   1.0000
     1.0000   1.0000   1.0000   1.0000   1.0000   1.0000   1.0000   1.0000
     1.0000   1.0000   1.0000   1.0000   1.0000   1.0000   1.0000   1.0000
     1.0000   1.0000   1.0000   1.0000   1.0000   1.0000   1.0000   1.0000
     1.0000   1.0000   1.0000   1.0000   1.0000   1.0000   1.0000   1.0000
     1.0000   1.0000   1.0000   1.0000   1.0000   1.0000   1.0000   1.0000
     1.0000   1.0000   1.0000   1.0000   1.0000   1.0000   1.0000   1.0000
     1.0000   1.0000   1.0000   1.0000   1.0000   1.0000   1.0000   1.0000
     1.0000   1.0000   1.0000   1.0000   1.0000   1.0000   1.0000   1.0000
     1.0000   1.0000   1.0000   1.0000   1.0000   1.0000   1.0000   1.0000
     1.0000   1.0000   1.0000   1.0000   1.0000   1.0000   1.0000   1.0000
     1.0000   1.0000   1.0000   1.0000   1.0000   1.0000   1.0000   1.0000

          k = 0.0000 0.3333 0.1074 ( 36502 PWs)   bands (ev):

   -34.5857 -34.5825 -34.5604 -34.5591 -34.5506 -34.5356 -34.5305 -34.5293
   -34.5289 -34.5257 -34.5256 -34.5216 -34.5214 -34.5208 -34.5187 -34.5178
   -34.5178 -34.5158 -34.5149 -34.5144 -34.5128 -34.5128 -34.5122 -34.5102
   -34.5083 -34.3695 -34.3624 -34.3621 -34.3615 -34.3547 -34.3540 -34.3488
   -34.3482 -34.3460 -34.3441 -11.0167 -11.0091 -11.0033 -10.9986 -10.9903
   -10.9862 -10.9736 -10.9693 -10.9571 -10.9423 -10.9422 -10.9244 -10.8553
   -10.8320 -10.8191 -10.7972 -10.7962 -10.7831 -10.7794 -10.7618 -10.7574
   -10.7507 -10.7487 -10.7395 -10.7351 -10.7333 -10.7266 -10.7192 -10.7168
   -10.7148 -10.7109 -10.7055 -10.7050 -10.7050 -10.7017 -10.6978 -10.6967
   -10.6955 -10.6929 -10.6877 -10.6814 -10.6799 -10.6769 -10.6752 -10.6706
   -10.6690 -10.6690 -10.6604 -10.6553 -10.6500 -10.6483 -10.6467 -10.6439
   -10.6379 -10.6324 -10.6308 -10.6298 -10.6250 -10.6202 -10.6181 -10.6153
   -10.6150 -10.6083 -10.6081 -10.5978 -10.5965 -10.5920 -10.5916 -10.5896
   -10.5894 -10.5859 -10.5855 -10.5797 -10.5761 -10.5717 -10.5694 -10.5693
   -10.5513 -10.5381 -10.5346  -7.9755  -7.9495  -7.3686  -7.3438  -6.5018
    -6.4841  -6.4718  -6.4550  -6.2690  -6.2622  -6.2544  -6.2474  -5.8450
    -5.8369  -5.3863  -5.3845  -1.5134  -0.9675  -0.8115  -0.3349  -0.1214
     0.0829   0.1205   0.5246   0.5948   0.7520   0.7687   0.9242   1.0039
     1.0051   1.0477   1.1030   1.4833   1.5467   1.5883   2.0894   2.6002
     3.2539   3.3827   5.4915   5.5866   5.7363   5.8188   5.8726   5.8750
     5.9659   6.0153   6.0916   6.1108   6.1431   6.2107   6.2179   6.3353
     6.5527   6.6197   6.8950   6.9740   7.1715   7.2936   7.3266   7.3383
     7.5457   7.7668   8.0367   8.0747   8.1274   8.1293   8.1760   8.1990
     8.2968   8.3010   8.3410   8.3821   8.4205   8.6015   8.7455   8.7655
     8.8220   8.8340   8.8666   8.9746   9.0458   9.1392   9.2811   9.3545
     9.6231   9.6446   9.6491   9.7147   9.8274   9.8627  10.2440  10.3350
    10.3802  10.4049  10.4410  10.4794  10.5904  10.6074  10.6683  10.7234
    10.7801  10.8810  10.9004  11.0160  11.0335  11.1693  11.2033  12.6933

     occupation numbers 
     1.0000   1.0000   1.0000   1.0000   1.0000   1.0000   1.0000   1.0000
     1.0000   1.0000   1.0000   1.0000   1.0000   1.0000   1.0000   1.0000
     1.0000   1.0000   1.0000   1.0000   1.0000   1.0000   1.0000   1.0000
     1.0000   1.0000   1.0000   1.0000   1.0000   1.0000   1.0000   1.0000
     1.0000   1.0000   1.0000   1.0000   1.0000   1.0000   1.0000   1.0000
     1.0000   1.0000   1.0000   1.0000   1.0000   1.0000   1.0000   1.0000
     1.0000   1.0000   1.0000   1.0000   1.0000   1.0000   1.0000   1.0000
     1.0000   1.0000   1.0000   1.0000   1.0000   1.0000   1.0000   1.0000
     1.0000   1.0000   1.0000   1.0000   1.0000   1.0000   1.0000   1.0000
     1.0000   1.0000   1.0000   1.0000   1.0000   1.0000   1.0000   1.0000
     1.0000   1.0000   1.0000   1.0000   1.0000   1.0000   1.0000   1.0000
     1.0000   1.0000   1.0000   1.0000   1.0000   1.0000   1.0000   1.0000
     1.0000   1.0000   1.0000   1.0000   1.0000   1.0000   1.0000   1.0000
     1.0000   1.0000   1.0000   1.0000   1.0000   1.0000   1.0000   1.0000
     1.0000   1.0000   1.0000   1.0000   1.0000   1.0000   1.0000   1.0000
     1.0000   1.0000   1.0000   1.0000   1.0000   1.0000   1.0000   1.0000
     1.0000   1.0000   1.0000   1.0000   1.0000   1.0000   1.0000   1.0000
     1.0000   1.0000   1.0000   1.0000   1.0000   1.0000   1.0000   1.0000
     1.0000   1.0000   1.0000   1.0000   1.0000   1.0000   1.0000   1.0000
     1.0000   1.0000   1.0000   1.0000   1.0000   1.0000   1.0000   1.0000
     1.0000   1.0000   1.0000   1.0000   1.0000   1.0000   1.0000   1.0000
     1.0000   1.0000   1.0000   1.0000   1.0000   1.0000   1.0000   1.0000
     1.0000   1.0000   1.0000   1.0000   1.0000   1.0000   1.0000   1.0000
     1.0000   1.0000   1.0000   1.0000   1.0000   1.0000   1.0000   1.0000
     1.0000   1.0000   1.0000   1.0000   1.0000   1.0000   1.0000   1.0000
     1.0000   1.0000   1.0000   1.0000   1.0000   1.0000   1.0000   1.0000
     1.0000   1.0000   1.0000   1.0000   1.0000   1.0000   1.0000   1.0000
     1.0000   1.0000   1.0000   1.0000   1.0000   1.0000   1.0000   1.0000

          k = 0.0000 0.3333 0.2148 ( 36488 PWs)   bands (ev):

   -34.5852 -34.5821 -34.5603 -34.5583 -34.5485 -34.5354 -34.5318 -34.5298
   -34.5266 -34.5254 -34.5219 -34.5219 -34.5197 -34.5187 -34.5184 -34.5180
   -34.5175 -34.5167 -34.5159 -34.5154 -34.5115 -34.5105 -34.5097 -34.5094
   -34.5081 -34.3699 -34.3624 -34.3609 -34.3609 -34.3547 -34.3531 -34.3489
   -34.3473 -34.3446 -34.3424 -11.0138 -11.0063 -11.0014 -11.0000 -10.9936
   -10.9898 -10.9710 -10.9676 -10.9603 -10.9442 -10.9390 -10.9283 -10.8529
   -10.8346 -10.8183 -10.7966 -10.7958 -10.7829 -10.7788 -10.7621 -10.7567
   -10.7499 -10.7493 -10.7386 -10.7347 -10.7345 -10.7281 -10.7206 -10.7205
   -10.7128 -10.7101 -10.7074 -10.7063 -10.7036 -10.7000 -10.6990 -10.6967
   -10.6949 -10.6927 -10.6890 -10.6812 -10.6796 -10.6779 -10.6736 -10.6722
   -10.6676 -10.6670 -10.6554 -10.6545 -10.6518 -10.6497 -10.6431 -10.6393
   -10.6393 -10.6341 -10.6293 -10.6290 -10.6249 -10.6228 -10.6192 -10.6165
   -10.6142 -10.6077 -10.6059 -10.6000 -10.5977 -10.5931 -10.5904 -10.5901
   -10.5894 -10.5867 -10.5861 -10.5790 -10.5768 -10.5714 -10.5700 -10.5696
   -10.5517 -10.5384 -10.5347  -7.9700  -7.9550  -7.3634  -7.3490  -6.4982
    -6.4877  -6.4684  -6.4585  -6.2659  -6.2591  -6.2575  -6.2505  -5.8432
    -5.8386  -5.3860  -5.3849  -1.4484  -1.0493  -0.8111  -0.3900  -0.1201
     0.0825   0.1212   0.5230   0.5916   0.7522   0.9222   0.9480   1.0028
     1.0086   1.0648   1.1109   1.4473   1.4835   1.5468   2.1913   2.4910
     3.2617   3.3776   5.4670   5.5473   5.6876   5.8026   5.8508   5.9168
     5.9703   6.0315   6.0803   6.0981   6.1230   6.1951   6.3620   6.3642
     6.5664   6.6052   7.0072   7.0985   7.1174   7.2496   7.2942   7.4253
     7.5215   7.6927   8.0593   8.0726   8.1398   8.1398   8.1674   8.1814
     8.2136   8.2451   8.2869   8.3230   8.4635   8.6289   8.7622   8.7888
     8.8085   8.9719   8.9802   9.0138   9.0620   9.1086   9.2189   9.3206
     9.4523   9.4748   9.6298   9.6393   9.7482   9.8524  10.2130  10.2964
    10.4792  10.5034  10.5134  10.5371  10.6052  10.6513  10.6768  10.7395
    10.8273  10.8706  10.9222  11.0440  11.1003  11.1362  11.1892  12.7421

     occupation numbers 
     1.0000   1.0000   1.0000   1.0000   1.0000   1.0000   1.0000   1.0000
     1.0000   1.0000   1.0000   1.0000   1.0000   1.0000   1.0000   1.0000
     1.0000   1.0000   1.0000   1.0000   1.0000   1.0000   1.0000   1.0000
     1.0000   1.0000   1.0000   1.0000   1.0000   1.0000   1.0000   1.0000
     1.0000   1.0000   1.0000   1.0000   1.0000   1.0000   1.0000   1.0000
     1.0000   1.0000   1.0000   1.0000   1.0000   1.0000   1.0000   1.0000
     1.0000   1.0000   1.0000   1.0000   1.0000   1.0000   1.0000   1.0000
     1.0000   1.0000   1.0000   1.0000   1.0000   1.0000   1.0000   1.0000
     1.0000   1.0000   1.0000   1.0000   1.0000   1.0000   1.0000   1.0000
     1.0000   1.0000   1.0000   1.0000   1.0000   1.0000   1.0000   1.0000
     1.0000   1.0000   1.0000   1.0000   1.0000   1.0000   1.0000   1.0000
     1.0000   1.0000   1.0000   1.0000   1.0000   1.0000   1.0000   1.0000
     1.0000   1.0000   1.0000   1.0000   1.0000   1.0000   1.0000   1.0000
     1.0000   1.0000   1.0000   1.0000   1.0000   1.0000   1.0000   1.0000
     1.0000   1.0000   1.0000   1.0000   1.0000   1.0000   1.0000   1.0000
     1.0000   1.0000   1.0000   1.0000   1.0000   1.0000   1.0000   1.0000
     1.0000   1.0000   1.0000   1.0000   1.0000   1.0000   1.0000   1.0000
     1.0000   1.0000   1.0000   1.0000   1.0000   1.0000   1.0000   1.0000
     1.0000   1.0000   1.0000   1.0000   1.0000   1.0000   1.0000   1.0000
     1.0000   1.0000   1.0000   1.0000   1.0000   1.0000   1.0000   1.0000
     1.0000   1.0000   1.0000   1.0000   1.0000   1.0000   1.0000   1.0000
     1.0000   1.0000   1.0000   1.0000   1.0000   1.0000   1.0000   1.0000
     1.0000   1.0000   1.0000   1.0000   1.0000   1.0000   1.0000   1.0000
     1.0000   1.0000   1.0000   1.0000   1.0000   1.0000   1.0000   1.0000
     1.0000   1.0000   1.0000   1.0000   1.0000   1.0000   1.0000   1.0000
     1.0000   1.0000   1.0000   1.0000   1.0000   1.0000   1.0000   1.0000
     1.0000   1.0000   1.0000   1.0000   1.0000   1.0000   1.0000   1.0000
     1.0000   1.0000   1.0000   1.0000   1.0000   1.0000   1.0000   1.0000

          k = 0.0000 0.3333-0.3222 ( 36542 PWs)   bands (ev):

   -34.5862 -34.5840 -34.5639 -34.5617 -34.5486 -34.5394 -34.5342 -34.5313
   -34.5290 -34.5259 -34.5242 -34.5241 -34.5229 -34.5220 -34.5214 -34.5212
   -34.5200 -34.5198 -34.5171 -34.5158 -34.5136 -34.5123 -34.5108 -34.5090
   -34.5082 -34.3726 -34.3648 -34.3619 -34.3603 -34.3584 -34.3582 -34.3526
   -34.3491 -34.3454 -34.3418 -11.0120 -11.0044 -11.0012 -10.9995 -10.9958
   -10.9926 -10.9689 -10.9666 -10.9628 -10.9454 -10.9356 -10.9319 -10.8515
   -10.8362 -10.8180 -10.7964 -10.7955 -10.7828 -10.7785 -10.7623 -10.7563
   -10.7502 -10.7490 -10.7378 -10.7358 -10.7342 -10.7290 -10.7221 -10.7212
   -10.7107 -10.7097 -10.7096 -10.7069 -10.7025 -10.7001 -10.7000 -10.6969
   -10.6948 -10.6913 -10.6892 -10.6825 -10.6813 -10.6763 -10.6737 -10.6705
   -10.6673 -10.6666 -10.6561 -10.6537 -10.6515 -10.6474 -10.6427 -10.6410
   -10.6363 -10.6318 -10.6303 -10.6283 -10.6266 -10.6257 -10.6199 -10.6157
   -10.6137 -10.6074 -10.6035 -10.6023 -10.5985 -10.5937 -10.5904 -10.5894
   -10.5893 -10.5877 -10.5862 -10.5785 -10.5773 -10.5713 -10.5703 -10.5698
   -10.5518 -10.5385 -10.5347  -7.9629  -7.9622  -7.3568  -7.3556  -6.4945
    -6.4914  -6.4646  -6.4622  -6.2619  -6.2615  -6.2557  -6.2539  -5.8410
    -5.8408  -5.3855  -5.3854  -1.4008  -1.1127  -0.7984  -0.4202  -0.1195
     0.0826   0.1216   0.5224   0.5900   0.7516   0.9212   0.9892   1.0103
     1.0448   1.1050   1.1786   1.2828   1.4835   1.5468   2.3289   2.3518
     3.2662   3.3744   5.4548   5.5289   5.6719   5.7771   5.8566   5.9242
     6.0252   6.0501   6.0626   6.0917   6.1132   6.1189   6.4144   6.4392
     6.5829   6.5880   7.0568   7.0938   7.1327   7.2307   7.2951   7.4662
     7.5482   7.6196   8.0478   8.0909   8.1410   8.1418   8.1525   8.1557
     8.1711   8.2364   8.2729   8.3118   8.4834   8.6380   8.7777   8.7853
     8.7919   8.9874   9.0020   9.0950   9.1476   9.1909   9.2077   9.2337
     9.2816   9.3438   9.6337   9.6358   9.7242   9.8520  10.1985  10.2770
    10.5046  10.5147  10.5581  10.5993  10.6062  10.6422  10.6783  10.7707
    10.8526  10.8689  10.9207  11.0793  11.1035  11.1541  11.1564  12.7663

     occupation numbers 
     1.0000   1.0000   1.0000   1.0000   1.0000   1.0000   1.0000   1.0000
     1.0000   1.0000   1.0000   1.0000   1.0000   1.0000   1.0000   1.0000
     1.0000   1.0000   1.0000   1.0000   1.0000   1.0000   1.0000   1.0000
     1.0000   1.0000   1.0000   1.0000   1.0000   1.0000   1.0000   1.0000
     1.0000   1.0000   1.0000   1.0000   1.0000   1.0000   1.0000   1.0000
     1.0000   1.0000   1.0000   1.0000   1.0000   1.0000   1.0000   1.0000
     1.0000   1.0000   1.0000   1.0000   1.0000   1.0000   1.0000   1.0000
     1.0000   1.0000   1.0000   1.0000   1.0000   1.0000   1.0000   1.0000
     1.0000   1.0000   1.0000   1.0000   1.0000   1.0000   1.0000   1.0000
     1.0000   1.0000   1.0000   1.0000   1.0000   1.0000   1.0000   1.0000
     1.0000   1.0000   1.0000   1.0000   1.0000   1.0000   1.0000   1.0000
     1.0000   1.0000   1.0000   1.0000   1.0000   1.0000   1.0000   1.0000
     1.0000   1.0000   1.0000   1.0000   1.0000   1.0000   1.0000   1.0000
     1.0000   1.0000   1.0000   1.0000   1.0000   1.0000   1.0000   1.0000
     1.0000   1.0000   1.0000   1.0000   1.0000   1.0000   1.0000   1.0000
     1.0000   1.0000   1.0000   1.0000   1.0000   1.0000   1.0000   1.0000
     1.0000   1.0000   1.0000   1.0000   1.0000   1.0000   1.0000   1.0000
     1.0000   1.0000   1.0000   1.0000   1.0000   1.0000   1.0000   1.0000
     1.0000   1.0000   1.0000   1.0000   1.0000   1.0000   1.0000   1.0000
     1.0000   1.0000   1.0000   1.0000   1.0000   1.0000   1.0000   1.0000
     1.0000   1.0000   1.0000   1.0000   1.0000   1.0000   1.0000   1.0000
     1.0000   1.0000   1.0000   1.0000   1.0000   1.0000   1.0000   1.0000
     1.0000   1.0000   1.0000   1.0000   1.0000   1.0000   1.0000   1.0000
     1.0000   1.0000   1.0000   1.0000   1.0000   1.0000   1.0000   1.0000
     1.0000   1.0000   1.0000   1.0000   1.0000   1.0000   1.0000   1.0000
     1.0000   1.0000   1.0000   1.0000   1.0000   1.0000   1.0000   1.0000
     1.0000   1.0000   1.0000   1.0000   1.0000   1.0000   1.0000   1.0000
     1.0000   1.0000   1.0000   1.0000   1.0000   1.0000   1.0000   1.0000

          k = 0.0000-0.5000 0.0000 ( 36500 PWs)   bands (ev):

   -34.5865 -34.5827 -34.5598 -34.5577 -34.5508 -34.5327 -34.5324 -34.5294
   -34.5281 -34.5264 -34.5263 -34.5225 -34.5209 -34.5185 -34.5184 -34.5164
   -34.5162 -34.5149 -34.5140 -34.5138 -34.5132 -34.5127 -34.5122 -34.5120
   -34.5112 -34.3666 -34.3666 -34.3624 -34.3620 -34.3538 -34.3525 -34.3482
   -34.3468 -34.3458 -34.3453 -11.0119 -11.0053 -10.9965 -10.9947 -10.9830
   -10.9812 -10.9753 -10.9676 -10.9651 -10.9463 -10.9443 -10.9440 -10.8251
   -10.8180 -10.8057 -10.7947 -10.7890 -10.7888 -10.7864 -10.7795 -10.7572
   -10.7515 -10.7481 -10.7382 -10.7320 -10.7216 -10.7192 -10.7184 -10.7166
   -10.7143 -10.7071 -10.7053 -10.7052 -10.7034 -10.7031 -10.7027 -10.6954
   -10.6940 -10.6930 -10.6909 -10.6857 -10.6847 -10.6823 -10.6822 -10.6714
   -10.6703 -10.6633 -10.6599 -10.6569 -10.6534 -10.6501 -10.6489 -10.6481
   -10.6467 -10.6330 -10.6324 -10.6305 -10.6291 -10.6210 -10.6187 -10.6177
   -10.6160 -10.6027 -10.6024 -10.6010 -10.5986 -10.5969 -10.5958 -10.5927
   -10.5900 -10.5899 -10.5893 -10.5770 -10.5750 -10.5735 -10.5717 -10.5620
   -10.5601 -10.5367 -10.5364  -7.7370  -7.7051  -7.6833  -7.6551  -6.4381
    -6.4186  -6.3757  -6.3716  -6.3583  -6.3526  -6.3340  -6.3159  -5.5971
    -5.5921  -5.5534  -5.5485  -1.3306  -1.1962  -0.7624  -0.4261  -0.0050
     0.0030   0.0855   0.6421   0.6627   0.7606   0.7798   0.7996   0.8443
     1.2441   1.2607   1.2644   1.2744   1.2951   1.4658   2.6432   2.8575
     2.9897   3.0211   5.5224   5.5477   5.5622   5.7527   5.7578   5.8173
     5.9836   6.0288   6.0770   6.0919   6.1773   6.2145   6.2334   6.2653
     6.3139   6.3494   6.9790   7.1135   7.1518   7.2261   7.6163   7.7607
     7.7835   7.8093   7.9019   7.9714   8.0023   8.2009   8.4277   8.4328
     8.4549   8.4606   8.4753   8.4872   8.5352   8.5544   8.7388   8.7727
     8.8010   8.8202   8.8339   8.8400   9.0117   9.0677   9.1143   9.1166
     9.8087   9.8463   9.8466   9.8677   9.8686   9.9110   9.9732  10.0953
    10.2046  10.2446  10.3005  10.4390  10.4442  10.5811  10.6516  10.6663
    10.7449  10.7462  10.8561  10.8768  10.9011  11.0452  11.1149  13.2467

     occupation numbers 
     1.0000   1.0000   1.0000   1.0000   1.0000   1.0000   1.0000   1.0000
     1.0000   1.0000   1.0000   1.0000   1.0000   1.0000   1.0000   1.0000
     1.0000   1.0000   1.0000   1.0000   1.0000   1.0000   1.0000   1.0000
     1.0000   1.0000   1.0000   1.0000   1.0000   1.0000   1.0000   1.0000
     1.0000   1.0000   1.0000   1.0000   1.0000   1.0000   1.0000   1.0000
     1.0000   1.0000   1.0000   1.0000   1.0000   1.0000   1.0000   1.0000
     1.0000   1.0000   1.0000   1.0000   1.0000   1.0000   1.0000   1.0000
     1.0000   1.0000   1.0000   1.0000   1.0000   1.0000   1.0000   1.0000
     1.0000   1.0000   1.0000   1.0000   1.0000   1.0000   1.0000   1.0000
     1.0000   1.0000   1.0000   1.0000   1.0000   1.0000   1.0000   1.0000
     1.0000   1.0000   1.0000   1.0000   1.0000   1.0000   1.0000   1.0000
     1.0000   1.0000   1.0000   1.0000   1.0000   1.0000   1.0000   1.0000
     1.0000   1.0000   1.0000   1.0000   1.0000   1.0000   1.0000   1.0000
     1.0000   1.0000   1.0000   1.0000   1.0000   1.0000   1.0000   1.0000
     1.0000   1.0000   1.0000   1.0000   1.0000   1.0000   1.0000   1.0000
     1.0000   1.0000   1.0000   1.0000   1.0000   1.0000   1.0000   1.0000
     1.0000   1.0000   1.0000   1.0000   1.0000   1.0000   1.0000   1.0000
     1.0000   1.0000   1.0000   1.0000   1.0000   1.0000   1.0000   1.0000
     1.0000   1.0000   1.0000   1.0000   1.0000   1.0000   1.0000   1.0000
     1.0000   1.0000   1.0000   1.0000   1.0000   1.0000   1.0000   1.0000
     1.0000   1.0000   1.0000   1.0000   1.0000   1.0000   1.0000   1.0000
     1.0000   1.0000   1.0000   1.0000   1.0000   1.0000   1.0000   1.0000
     1.0000   1.0000   1.0000   1.0000   1.0000   1.0000   1.0000   1.0000
     1.0000   1.0000   1.0000   1.0000   1.0000   1.0000   1.0000   1.0000
     1.0000   1.0000   1.0000   1.0000   1.0000   1.0000   1.0000   1.0000
     1.0000   1.0000   1.0000   1.0000   1.0000   1.0000   1.0000   1.0000
     1.0000   1.0000   1.0000   1.0000   1.0000   1.0000   1.0000   1.0000
     1.0000   1.0000   1.0000   1.0000   1.0000   1.0000   1.0000   1.0000

          k = 0.0000-0.5000 0.1074 ( 36506 PWs)   bands (ev):

   -34.5864 -34.5818 -34.5609 -34.5575 -34.5517 -34.5324 -34.5322 -34.5271
   -34.5270 -34.5269 -34.5264 -34.5229 -34.5214 -34.5210 -34.5209 -34.5170
   -34.5169 -34.5144 -34.5143 -34.5141 -34.5138 -34.5126 -34.5121 -34.5120
   -34.5120 -34.3667 -34.3667 -34.3615 -34.3613 -34.3553 -34.3520 -34.3497
   -34.3466 -34.3464 -34.3464 -11.0109 -11.0047 -10.9956 -10.9954 -10.9842
   -10.9821 -10.9743 -10.9662 -10.9639 -10.9476 -10.9460 -10.9457 -10.8250
   -10.8177 -10.8054 -10.7945 -10.7892 -10.7887 -10.7866 -10.7792 -10.7568
   -10.7510 -10.7486 -10.7378 -10.7326 -10.7219 -10.7197 -10.7191 -10.7158
   -10.7135 -10.7099 -10.7064 -10.7061 -10.7025 -10.7021 -10.7020 -10.6958
   -10.6934 -10.6917 -10.6913 -10.6864 -10.6853 -10.6825 -10.6814 -10.6722
   -10.6693 -10.6642 -10.6573 -10.6557 -10.6542 -10.6493 -10.6482 -10.6479
   -10.6439 -10.6361 -10.6308 -10.6300 -10.6297 -10.6225 -10.6192 -10.6171
   -10.6155 -10.6026 -10.6018 -10.6009 -10.5980 -10.5973 -10.5964 -10.5933
   -10.5904 -10.5904 -10.5897 -10.5768 -10.5748 -10.5737 -10.5719 -10.5622
   -10.5603 -10.5368 -10.5365  -7.7349  -7.7072  -7.6815  -7.6570  -6.4368
    -6.4199  -6.3745  -6.3704  -6.3595  -6.3539  -6.3328  -6.3170  -5.5968
    -5.5925  -5.5531  -5.5488  -1.3032  -1.1809  -0.8120  -0.4623  -0.0048
     0.0031   0.0852   0.6422   0.6631   0.7609   0.7802   0.8604   0.8842
     1.2438   1.2591   1.2642   1.2660   1.2947   1.4330   2.6555   2.8586
     2.9788   2.9945   5.5040   5.5076   5.5181   5.7611   5.7809   5.7919
     6.0314   6.0436   6.0954   6.1431   6.1948   6.2065   6.2210   6.2708
     6.3067   6.3434   7.0197   7.1274   7.1465   7.2472   7.6470   7.7710
     7.7931   7.8154   7.9013   7.9532   7.9933   8.1637   8.3608   8.4019
     8.4139   8.4520   8.4609   8.4914   8.5237   8.5503   8.7321   8.7814
     8.7993   8.8131   8.8614   8.8815   9.0325   9.0784   9.1223   9.1293
     9.7025   9.7416   9.8445   9.8516   9.8702   9.8941   9.9579   9.9716
    10.1510  10.3715  10.3904  10.4935  10.5485  10.6160  10.6770  10.6951
    10.7649  10.7756  10.8341  10.8995  10.9091  11.0443  11.0902  13.2580

     occupation numbers 
     1.0000   1.0000   1.0000   1.0000   1.0000   1.0000   1.0000   1.0000
     1.0000   1.0000   1.0000   1.0000   1.0000   1.0000   1.0000   1.0000
     1.0000   1.0000   1.0000   1.0000   1.0000   1.0000   1.0000   1.0000
     1.0000   1.0000   1.0000   1.0000   1.0000   1.0000   1.0000   1.0000
     1.0000   1.0000   1.0000   1.0000   1.0000   1.0000   1.0000   1.0000
     1.0000   1.0000   1.0000   1.0000   1.0000   1.0000   1.0000   1.0000
     1.0000   1.0000   1.0000   1.0000   1.0000   1.0000   1.0000   1.0000
     1.0000   1.0000   1.0000   1.0000   1.0000   1.0000   1.0000   1.0000
     1.0000   1.0000   1.0000   1.0000   1.0000   1.0000   1.0000   1.0000
     1.0000   1.0000   1.0000   1.0000   1.0000   1.0000   1.0000   1.0000
     1.0000   1.0000   1.0000   1.0000   1.0000   1.0000   1.0000   1.0000
     1.0000   1.0000   1.0000   1.0000   1.0000   1.0000   1.0000   1.0000
     1.0000   1.0000   1.0000   1.0000   1.0000   1.0000   1.0000   1.0000
     1.0000   1.0000   1.0000   1.0000   1.0000   1.0000   1.0000   1.0000
     1.0000   1.0000   1.0000   1.0000   1.0000   1.0000   1.0000   1.0000
     1.0000   1.0000   1.0000   1.0000   1.0000   1.0000   1.0000   1.0000
     1.0000   1.0000   1.0000   1.0000   1.0000   1.0000   1.0000   1.0000
     1.0000   1.0000   1.0000   1.0000   1.0000   1.0000   1.0000   1.0000
     1.0000   1.0000   1.0000   1.0000   1.0000   1.0000   1.0000   1.0000
     1.0000   1.0000   1.0000   1.0000   1.0000   1.0000   1.0000   1.0000
     1.0000   1.0000   1.0000   1.0000   1.0000   1.0000   1.0000   1.0000
     1.0000   1.0000   1.0000   1.0000   1.0000   1.0000   1.0000   1.0000
     1.0000   1.0000   1.0000   1.0000   1.0000   1.0000   1.0000   1.0000
     1.0000   1.0000   1.0000   1.0000   1.0000   1.0000   1.0000   1.0000
     1.0000   1.0000   1.0000   1.0000   1.0000   1.0000   1.0000   1.0000
     1.0000   1.0000   1.0000   1.0000   1.0000   1.0000   1.0000   1.0000
     1.0000   1.0000   1.0000   1.0000   1.0000   1.0000   1.0000   1.0000
     1.0000   1.0000   1.0000   1.0000   1.0000   1.0000   1.0000   1.0000

          k = 0.0000-0.5000 0.2148 ( 36544 PWs)   bands (ev):

   -34.5881 -34.5856 -34.5620 -34.5603 -34.5496 -34.5358 -34.5353 -34.5291
   -34.5284 -34.5280 -34.5275 -34.5271 -34.5270 -34.5210 -34.5209 -34.5207
   -34.5203 -34.5168 -34.5164 -34.5153 -34.5151 -34.5118 -34.5115 -34.5089
   -34.5084 -34.3685 -34.3684 -34.3653 -34.3649 -34.3564 -34.3544 -34.3508
   -34.3491 -34.3444 -34.3444 -11.0086 -11.0030 -10.9971 -10.9933 -10.9868
   -10.9844 -10.9720 -10.9622 -10.9606 -10.9506 -10.9504 -10.9498 -10.8247
   -10.8171 -10.8049 -10.7940 -10.7900 -10.7882 -10.7871 -10.7786 -10.7562
   -10.7499 -10.7496 -10.7370 -10.7340 -10.7233 -10.7204 -10.7202 -10.7138
   -10.7128 -10.7118 -10.7084 -10.7081 -10.7018 -10.7013 -10.6999 -10.6968
   -10.6943 -10.6920 -10.6894 -10.6882 -10.6840 -10.6840 -10.6796 -10.6741
   -10.6666 -10.6662 -10.6573 -10.6530 -10.6510 -10.6477 -10.6468 -10.6440
   -10.6403 -10.6397 -10.6357 -10.6287 -10.6276 -10.6264 -10.6207 -10.6158
   -10.6145 -10.6024 -10.6005 -10.6003 -10.5982 -10.5976 -10.5964 -10.5948
   -10.5919 -10.5913 -10.5904 -10.5764 -10.5743 -10.5741 -10.5724 -10.5626
   -10.5608 -10.5369 -10.5366  -7.7291  -7.7131  -7.6765  -7.6621  -6.4333
    -6.4234  -6.3714  -6.3670  -6.3627  -6.3573  -6.3297  -6.3202  -5.5959
    -5.5934  -5.5522  -5.5497  -1.2273  -1.1463  -0.9290  -0.5355  -0.0045
     0.0033   0.0848   0.6425   0.6639   0.7616   0.7808   0.9684   1.0090
     1.2371   1.2427   1.2602   1.2635   1.2939   1.3371   2.6884   2.8616
     2.9326   2.9559   5.4373   5.4513   5.4873   5.6865   5.8361   5.8583
     5.9907   6.0937   6.1431   6.1946   6.2159   6.2378   6.2383   6.2850
     6.2878   6.3279   7.1184   7.1325   7.1608   7.2978   7.7209   7.7855
     7.8085   7.8264   7.8983   7.9046   7.9766   8.0996   8.2299   8.2837
     8.2889   8.4729   8.4842   8.5027   8.5076   8.5376   8.7199   8.7423
     8.7963   8.8070   9.0005   9.0113   9.0617   9.0944   9.1328   9.1519
     9.4730   9.4972   9.7574   9.8447   9.8457   9.9179   9.9442   9.9688
    10.0497  10.5174  10.5444  10.5747  10.6696  10.6859  10.7059  10.7279
    10.8054  10.8176  10.8753  10.8921  10.9508  11.0280  11.0360  13.2149

     occupation numbers 
     1.0000   1.0000   1.0000   1.0000   1.0000   1.0000   1.0000   1.0000
     1.0000   1.0000   1.0000   1.0000   1.0000   1.0000   1.0000   1.0000
     1.0000   1.0000   1.0000   1.0000   1.0000   1.0000   1.0000   1.0000
     1.0000   1.0000   1.0000   1.0000   1.0000   1.0000   1.0000   1.0000
     1.0000   1.0000   1.0000   1.0000   1.0000   1.0000   1.0000   1.0000
     1.0000   1.0000   1.0000   1.0000   1.0000   1.0000   1.0000   1.0000
     1.0000   1.0000   1.0000   1.0000   1.0000   1.0000   1.0000   1.0000
     1.0000   1.0000   1.0000   1.0000   1.0000   1.0000   1.0000   1.0000
     1.0000   1.0000   1.0000   1.0000   1.0000   1.0000   1.0000   1.0000
     1.0000   1.0000   1.0000   1.0000   1.0000   1.0000   1.0000   1.0000
     1.0000   1.0000   1.0000   1.0000   1.0000   1.0000   1.0000   1.0000
     1.0000   1.0000   1.0000   1.0000   1.0000   1.0000   1.0000   1.0000
     1.0000   1.0000   1.0000   1.0000   1.0000   1.0000   1.0000   1.0000
     1.0000   1.0000   1.0000   1.0000   1.0000   1.0000   1.0000   1.0000
     1.0000   1.0000   1.0000   1.0000   1.0000   1.0000   1.0000   1.0000
     1.0000   1.0000   1.0000   1.0000   1.0000   1.0000   1.0000   1.0000
     1.0000   1.0000   1.0000   1.0000   1.0000   1.0000   1.0000   1.0000
     1.0000   1.0000   1.0000   1.0000   1.0000   1.0000   1.0000   1.0000
     1.0000   1.0000   1.0000   1.0000   1.0000   1.0000   1.0000   1.0000
     1.0000   1.0000   1.0000   1.0000   1.0000   1.0000   1.0000   1.0000
     1.0000   1.0000   1.0000   1.0000   1.0000   1.0000   1.0000   1.0000
     1.0000   1.0000   1.0000   1.0000   1.0000   1.0000   1.0000   1.0000
     1.0000   1.0000   1.0000   1.0000   1.0000   1.0000   1.0000   1.0000
     1.0000   1.0000   1.0000   1.0000   1.0000   1.0000   1.0000   1.0000
     1.0000   1.0000   1.0000   1.0000   1.0000   1.0000   1.0000   1.0000
     1.0000   1.0000   1.0000   1.0000   1.0000   1.0000   1.0000   1.0000
     1.0000   1.0000   1.0000   1.0000   1.0000   1.0000   1.0000   1.0000
     1.0000   1.0000   1.0000   1.0000   1.0000   1.0000   1.0000   1.0000

          k = 0.0000-0.5000-0.3222 ( 36540 PWs)   bands (ev):

   -34.5873 -34.5857 -34.5616 -34.5598 -34.5496 -34.5330 -34.5322 -34.5306
   -34.5296 -34.5284 -34.5282 -34.5274 -34.5261 -34.5215 -34.5213 -34.5203
   -34.5198 -34.5171 -34.5170 -34.5131 -34.5129 -34.5117 -34.5113 -34.5108
   -34.5103 -34.3676 -34.3676 -34.3652 -34.3651 -34.3561 -34.3546 -34.3504
   -34.3490 -34.3449 -34.3448 -11.0073 -11.0016 -10.9985 -10.9916 -10.9884
   -10.9861 -10.9705 -10.9568 -10.9568 -10.9564 -10.9540 -10.9521 -10.8246
   -10.8168 -10.8046 -10.7938 -10.7904 -10.7878 -10.7875 -10.7783 -10.7558
   -10.7501 -10.7492 -10.7362 -10.7351 -10.7242 -10.7211 -10.7202 -10.7137
   -10.7117 -10.7107 -10.7102 -10.7094 -10.7019 -10.7005 -10.6987 -10.6975
   -10.6949 -10.6908 -10.6901 -10.6899 -10.6851 -10.6817 -10.6777 -10.6759
   -10.6681 -10.6630 -10.6602 -10.6512 -10.6469 -10.6465 -10.6438 -10.6419
   -10.6419 -10.6416 -10.6378 -10.6295 -10.6277 -10.6268 -10.6218 -10.6151
   -10.6139 -10.6023 -10.6002 -10.5991 -10.5987 -10.5983 -10.5961 -10.5948
   -10.5935 -10.5918 -10.5908 -10.5760 -10.5744 -10.5739 -10.5728 -10.5628
   -10.5610 -10.5370 -10.5367  -7.7219  -7.7204  -7.6710  -7.6676  -6.4290
    -6.4277  -6.3673  -6.3667  -6.3632  -6.3611  -6.3266  -6.3233  -5.5947
    -5.5946  -5.5510  -5.5509  -1.1536  -1.1263  -1.0219  -0.5733  -0.0043
     0.0034   0.0847   0.6427   0.6643   0.7619   0.7812   1.0170   1.1666
     1.1984   1.2165   1.2481   1.2595   1.2631   1.2934   2.7136   2.8641
     2.8929   2.9437   5.4098   5.4237   5.4799   5.6572   5.8366   5.9672
     5.9748   6.0133   6.1638   6.1869   6.2629   6.2634   6.2721   6.2774
     6.2991   6.3132   7.1226   7.1786   7.1804   7.3280   7.7823   7.7930
     7.8091   7.8167   7.8708   7.8959   7.9752   8.0693   8.1651   8.2218
     8.2252   8.4888   8.4921   8.4958   8.5152   8.5258   8.7135   8.7155
     8.7866   8.8153   9.0720   9.1006   9.1377   9.1607   9.1682   9.2053
     9.2395   9.2868   9.7245   9.8067   9.8358   9.9407   9.9681   9.9748
    10.0130  10.5579  10.6123  10.6221  10.6841  10.7257  10.7456  10.7459
    10.7873  10.8618  10.8834  10.9320  10.9693  10.9792  11.0251  13.1989

     occupation numbers 
     1.0000   1.0000   1.0000   1.0000   1.0000   1.0000   1.0000   1.0000
     1.0000   1.0000   1.0000   1.0000   1.0000   1.0000   1.0000   1.0000
     1.0000   1.0000   1.0000   1.0000   1.0000   1.0000   1.0000   1.0000
     1.0000   1.0000   1.0000   1.0000   1.0000   1.0000   1.0000   1.0000
     1.0000   1.0000   1.0000   1.0000   1.0000   1.0000   1.0000   1.0000
     1.0000   1.0000   1.0000   1.0000   1.0000   1.0000   1.0000   1.0000
     1.0000   1.0000   1.0000   1.0000   1.0000   1.0000   1.0000   1.0000
     1.0000   1.0000   1.0000   1.0000   1.0000   1.0000   1.0000   1.0000
     1.0000   1.0000   1.0000   1.0000   1.0000   1.0000   1.0000   1.0000
     1.0000   1.0000   1.0000   1.0000   1.0000   1.0000   1.0000   1.0000
     1.0000   1.0000   1.0000   1.0000   1.0000   1.0000   1.0000   1.0000
     1.0000   1.0000   1.0000   1.0000   1.0000   1.0000   1.0000   1.0000
     1.0000   1.0000   1.0000   1.0000   1.0000   1.0000   1.0000   1.0000
     1.0000   1.0000   1.0000   1.0000   1.0000   1.0000   1.0000   1.0000
     1.0000   1.0000   1.0000   1.0000   1.0000   1.0000   1.0000   1.0000
     1.0000   1.0000   1.0000   1.0000   1.0000   1.0000   1.0000   1.0000
     1.0000   1.0000   1.0000   1.0000   1.0000   1.0000   1.0000   1.0000
     1.0000   1.0000   1.0000   1.0000   1.0000   1.0000   1.0000   1.0000
     1.0000   1.0000   1.0000   1.0000   1.0000   1.0000   1.0000   1.0000
     1.0000   1.0000   1.0000   1.0000   1.0000   1.0000   1.0000   1.0000
     1.0000   1.0000   1.0000   1.0000   1.0000   1.0000   1.0000   1.0000
     1.0000   1.0000   1.0000   1.0000   1.0000   1.0000   1.0000   1.0000
     1.0000   1.0000   1.0000   1.0000   1.0000   1.0000   1.0000   1.0000
     1.0000   1.0000   1.0000   1.0000   1.0000   1.0000   1.0000   1.0000
     1.0000   1.0000   1.0000   1.0000   1.0000   1.0000   1.0000   1.0000
     1.0000   1.0000   1.0000   1.0000   1.0000   1.0000   1.0000   1.0000
     1.0000   1.0000   1.0000   1.0000   1.0000   1.0000   1.0000   1.0000
     1.0000   1.0000   1.0000   1.0000   1.0000   1.0000   1.0000   1.0000

          k = 0.1667 0.1667 0.0000 ( 36505 PWs)   bands (ev):

   -34.5847 -34.5831 -34.5605 -34.5599 -34.5507 -34.5374 -34.5347 -34.5314
   -34.5262 -34.5256 -34.5221 -34.5203 -34.5202 -34.5200 -34.5190 -34.5189
   -34.5185 -34.5179 -34.5168 -34.5165 -34.5148 -34.5142 -34.5103 -34.5074
   -34.5069 -34.3734 -34.3621 -34.3621 -34.3569 -34.3556 -34.3545 -34.3496
   -34.3490 -34.3488 -34.3413 -11.0263 -11.0160 -11.0069 -11.0018 -10.9980
   -10.9871 -10.9706 -10.9689 -10.9476 -10.9464 -10.9066 -10.9020 -10.8836
   -10.8796 -10.8206 -10.7997 -10.7943 -10.7817 -10.7782 -10.7585 -10.7518
   -10.7514 -10.7482 -10.7469 -10.7409 -10.7337 -10.7285 -10.7218 -10.7173
   -10.7146 -10.7128 -10.7122 -10.7109 -10.7042 -10.7007 -10.6980 -10.6944
   -10.6927 -10.6926 -10.6881 -10.6785 -10.6784 -10.6747 -10.6740 -10.6686
   -10.6660 -10.6640 -10.6636 -10.6627 -10.6526 -10.6437 -10.6413 -10.6377
   -10.6346 -10.6272 -10.6235 -10.6227 -10.6210 -10.6187 -10.6162 -10.6148
   -10.6137 -10.6129 -10.6122 -10.5998 -10.5946 -10.5929 -10.5890 -10.5850
   -10.5849 -10.5817 -10.5800 -10.5797 -10.5777 -10.5726 -10.5702 -10.5680
   -10.5423 -10.5422 -10.5338  -8.0904  -8.0608  -6.9608  -6.9404  -6.9363
    -6.9140  -6.3412  -6.3232  -6.1828  -6.1754  -6.1675  -6.1609  -6.0846
    -6.0707  -5.3112  -5.3101  -1.6466  -0.9413  -0.4518  -0.4150  -0.1584
     0.0237   0.1430   0.3583   0.6358   0.6527   0.7618   0.8366   0.8978
     0.9981   1.3004   1.3075   1.3369   1.3835   1.7951   2.1225   2.1352
     3.3361   3.6811   5.5063   5.7400   5.8105   5.8692   5.8786   5.9028
     6.0031   6.0577   6.0882   6.1300   6.1667   6.3162   6.4823   6.5670
     6.5675   6.7178   6.7876   7.1235   7.1839   7.2415   7.2417   7.2529
     7.3938   7.4367   7.5227   7.5820   7.8979   7.9040   8.0727   8.0889
     8.1327   8.1637   8.2917   8.4242   8.4643   8.6606   8.6874   8.7288
     8.8360   8.9033   8.9071   9.1766   9.2199   9.4108   9.4533   9.4569
     9.6205   9.7806   9.7999   9.8048   9.8259   9.8395  10.1426  10.3332
    10.3394  10.3663  10.3700  10.5496  10.5880  10.6920  10.7582  10.8120
    10.8142  10.9858  10.9901  11.1053  11.3523  11.3654  11.5697  12.3426

     occupation numbers 
     1.0000   1.0000   1.0000   1.0000   1.0000   1.0000   1.0000   1.0000
     1.0000   1.0000   1.0000   1.0000   1.0000   1.0000   1.0000   1.0000
     1.0000   1.0000   1.0000   1.0000   1.0000   1.0000   1.0000   1.0000
     1.0000   1.0000   1.0000   1.0000   1.0000   1.0000   1.0000   1.0000
     1.0000   1.0000   1.0000   1.0000   1.0000   1.0000   1.0000   1.0000
     1.0000   1.0000   1.0000   1.0000   1.0000   1.0000   1.0000   1.0000
     1.0000   1.0000   1.0000   1.0000   1.0000   1.0000   1.0000   1.0000
     1.0000   1.0000   1.0000   1.0000   1.0000   1.0000   1.0000   1.0000
     1.0000   1.0000   1.0000   1.0000   1.0000   1.0000   1.0000   1.0000
     1.0000   1.0000   1.0000   1.0000   1.0000   1.0000   1.0000   1.0000
     1.0000   1.0000   1.0000   1.0000   1.0000   1.0000   1.0000   1.0000
     1.0000   1.0000   1.0000   1.0000   1.0000   1.0000   1.0000   1.0000
     1.0000   1.0000   1.0000   1.0000   1.0000   1.0000   1.0000   1.0000
     1.0000   1.0000   1.0000   1.0000   1.0000   1.0000   1.0000   1.0000
     1.0000   1.0000   1.0000   1.0000   1.0000   1.0000   1.0000   1.0000
     1.0000   1.0000   1.0000   1.0000   1.0000   1.0000   1.0000   1.0000
     1.0000   1.0000   1.0000   1.0000   1.0000   1.0000   1.0000   1.0000
     1.0000   1.0000   1.0000   1.0000   1.0000   1.0000   1.0000   1.0000
     1.0000   1.0000   1.0000   1.0000   1.0000   1.0000   1.0000   1.0000
     1.0000   1.0000   1.0000   1.0000   1.0000   1.0000   1.0000   1.0000
     1.0000   1.0000   1.0000   1.0000   1.0000   1.0000   1.0000   1.0000
     1.0000   1.0000   1.0000   1.0000   1.0000   1.0000   1.0000   1.0000
     1.0000   1.0000   1.0000   1.0000   1.0000   1.0000   1.0000   1.0000
     1.0000   1.0000   1.0000   1.0000   1.0000   1.0000   1.0000   1.0000
     1.0000   1.0000   1.0000   1.0000   1.0000   1.0000   1.0000   1.0000
     1.0000   1.0000   1.0000   1.0000   1.0000   1.0000   1.0000   1.0000
     1.0000   1.0000   1.0000   1.0000   1.0000   1.0000   1.0000   1.0000
     1.0000   1.0000   1.0000   1.0000   1.0000   1.0000   1.0000   1.0000

          k = 0.1667 0.1667 0.1074 ( 36486 PWs)   bands (ev):

   -34.5835 -34.5822 -34.5602 -34.5592 -34.5498 -34.5352 -34.5342 -34.5321
   -34.5254 -34.5253 -34.5210 -34.5200 -34.5198 -34.5188 -34.5176 -34.5174
   -34.5172 -34.5170 -34.5153 -34.5152 -34.5149 -34.5146 -34.5086 -34.5078
   -34.5067 -34.3719 -34.3620 -34.3608 -34.3563 -34.3548 -34.3539 -34.3491
   -34.3482 -34.3475 -34.3413 -11.0249 -11.0146 -11.0066 -11.0024 -10.9995
   -10.9889 -10.9696 -10.9682 -10.9490 -10.9476 -10.9050 -10.9005 -10.8851
   -10.8811 -10.8202 -10.7993 -10.7941 -10.7815 -10.7778 -10.7581 -10.7524
   -10.7517 -10.7478 -10.7465 -10.7406 -10.7342 -10.7296 -10.7228 -10.7178
   -10.7147 -10.7134 -10.7120 -10.7098 -10.7049 -10.7015 -10.6996 -10.6961
   -10.6909 -10.6905 -10.6873 -10.6788 -10.6787 -10.6764 -10.6711 -10.6694
   -10.6653 -10.6642 -10.6637 -10.6618 -10.6501 -10.6417 -10.6408 -10.6390
   -10.6353 -10.6271 -10.6223 -10.6217 -10.6201 -10.6200 -10.6158 -10.6155
   -10.6140 -10.6135 -10.6119 -10.6006 -10.5950 -10.5937 -10.5892 -10.5847
   -10.5846 -10.5817 -10.5803 -10.5800 -10.5777 -10.5730 -10.5701 -10.5680
   -10.5425 -10.5424 -10.5338  -8.0884  -8.0628  -6.9591  -6.9387  -6.9379
    -6.9157  -6.3400  -6.3243  -6.1818  -6.1745  -6.1685  -6.1618  -6.0837
    -6.0717  -5.3111  -5.3101  -1.6209  -0.9954  -0.4406  -0.4118  -0.1704
     0.0177   0.1427   0.3694   0.6018   0.7277   0.7976   0.8545   0.9019
     0.9910   1.1564   1.1988   1.4997   1.5192   1.7234   2.0912   2.1033
     3.3626   3.6685   5.5159   5.7472   5.8071   5.8568   5.8768   5.9037
     5.9888   6.0120   6.0866   6.1199   6.1274   6.4270   6.4404   6.6036
     6.6084   6.7756   6.8132   7.0915   7.1662   7.1973   7.2305   7.2383
     7.3854   7.4131   7.4712   7.5633   7.9452   7.9542   8.1054   8.1281
     8.1294   8.1935   8.3094   8.3901   8.4164   8.6787   8.6892   8.7735
     8.8899   8.9411   8.9499   9.1786   9.2179   9.3374   9.4125   9.4160
     9.6229   9.6293   9.7088   9.7696   9.8047   9.8157  10.2709  10.3315
    10.3661  10.3745  10.4514  10.5284  10.5705  10.7030  10.7747  10.8147
    10.8218  10.8855  11.0510  11.1026  11.3584  11.3651  11.5631  12.3815

     occupation numbers 
     1.0000   1.0000   1.0000   1.0000   1.0000   1.0000   1.0000   1.0000
     1.0000   1.0000   1.0000   1.0000   1.0000   1.0000   1.0000   1.0000
     1.0000   1.0000   1.0000   1.0000   1.0000   1.0000   1.0000   1.0000
     1.0000   1.0000   1.0000   1.0000   1.0000   1.0000   1.0000   1.0000
     1.0000   1.0000   1.0000   1.0000   1.0000   1.0000   1.0000   1.0000
     1.0000   1.0000   1.0000   1.0000   1.0000   1.0000   1.0000   1.0000
     1.0000   1.0000   1.0000   1.0000   1.0000   1.0000   1.0000   1.0000
     1.0000   1.0000   1.0000   1.0000   1.0000   1.0000   1.0000   1.0000
     1.0000   1.0000   1.0000   1.0000   1.0000   1.0000   1.0000   1.0000
     1.0000   1.0000   1.0000   1.0000   1.0000   1.0000   1.0000   1.0000
     1.0000   1.0000   1.0000   1.0000   1.0000   1.0000   1.0000   1.0000
     1.0000   1.0000   1.0000   1.0000   1.0000   1.0000   1.0000   1.0000
     1.0000   1.0000   1.0000   1.0000   1.0000   1.0000   1.0000   1.0000
     1.0000   1.0000   1.0000   1.0000   1.0000   1.0000   1.0000   1.0000
     1.0000   1.0000   1.0000   1.0000   1.0000   1.0000   1.0000   1.0000
     1.0000   1.0000   1.0000   1.0000   1.0000   1.0000   1.0000   1.0000
     1.0000   1.0000   1.0000   1.0000   1.0000   1.0000   1.0000   1.0000
     1.0000   1.0000   1.0000   1.0000   1.0000   1.0000   1.0000   1.0000
     1.0000   1.0000   1.0000   1.0000   1.0000   1.0000   1.0000   1.0000
     1.0000   1.0000   1.0000   1.0000   1.0000   1.0000   1.0000   1.0000
     1.0000   1.0000   1.0000   1.0000   1.0000   1.0000   1.0000   1.0000
     1.0000   1.0000   1.0000   1.0000   1.0000   1.0000   1.0000   1.0000
     1.0000   1.0000   1.0000   1.0000   1.0000   1.0000   1.0000   1.0000
     1.0000   1.0000   1.0000   1.0000   1.0000   1.0000   1.0000   1.0000
     1.0000   1.0000   1.0000   1.0000   1.0000   1.0000   1.0000   1.0000
     1.0000   1.0000   1.0000   1.0000   1.0000   1.0000   1.0000   1.0000
     1.0000   1.0000   1.0000   1.0000   1.0000   1.0000   1.0000   1.0000
     1.0000   1.0000   1.0000   1.0000   1.0000   1.0000   1.0000   1.0000

          k = 0.1667 0.1667 0.2148 ( 36489 PWs)   bands (ev):

   -34.5847 -34.5825 -34.5602 -34.5590 -34.5491 -34.5368 -34.5340 -34.5335
   -34.5256 -34.5253 -34.5208 -34.5198 -34.5193 -34.5189 -34.5184 -34.5173
   -34.5170 -34.5166 -34.5149 -34.5147 -34.5141 -34.5132 -34.5097 -34.5081
   -34.5078 -34.3725 -34.3617 -34.3613 -34.3578 -34.3547 -34.3540 -34.3488
   -34.3483 -34.3453 -34.3423 -11.0213 -11.0111 -11.0056 -11.0049 -11.0020
   -10.9930 -10.9674 -10.9665 -10.9522 -10.9501 -10.9009 -10.8964 -10.8889
   -10.8850 -10.8195 -10.7984 -10.7938 -10.7811 -10.7769 -10.7574 -10.7534
   -10.7524 -10.7468 -10.7459 -10.7398 -10.7356 -10.7317 -10.7249 -10.7188
   -10.7151 -10.7143 -10.7105 -10.7080 -10.7066 -10.7036 -10.7015 -10.6986
   -10.6877 -10.6872 -10.6856 -10.6808 -10.6796 -10.6748 -10.6724 -10.6689
   -10.6674 -10.6656 -10.6611 -10.6564 -10.6444 -10.6431 -10.6401 -10.6363
   -10.6361 -10.6273 -10.6249 -10.6204 -10.6194 -10.6192 -10.6171 -10.6167
   -10.6151 -10.6132 -10.6093 -10.6029 -10.5958 -10.5954 -10.5898 -10.5839
   -10.5837 -10.5817 -10.5811 -10.5809 -10.5777 -10.5737 -10.5700 -10.5681
   -10.5429 -10.5428 -10.5339  -8.0831  -8.0683  -6.9547  -6.9424  -6.9339
    -6.9206  -6.3367  -6.3276  -6.1790  -6.1719  -6.1713  -6.1645  -6.0812
    -6.0742  -5.3109  -5.3103  -1.5553  -1.1128  -0.4143  -0.4039  -0.1983
     0.0066   0.1424   0.4024   0.5275   0.8379   0.8956   0.9133   0.9535
     0.9659   1.0384   1.1012   1.5135   1.6946   1.7009   2.0017   2.0120
     3.4203   3.6364   5.5457   5.7411   5.7639   5.8007   5.9041   5.9450
     5.9619   6.0371   6.0576   6.0780   6.0943   6.3075   6.6279   6.6952
     6.7171   6.8557   6.8916   7.0096   7.0829   7.1181   7.1898   7.1924
     7.3671   7.4019   7.4070   7.5185   8.0208   8.0388   8.1115   8.1277
     8.1737   8.2955   8.2961   8.3773   8.4398   8.6770   8.6892   8.9079
     8.9831   9.0305   9.0543   9.1338   9.1881   9.2110   9.2911   9.3215
     9.3930   9.5099   9.6269   9.7490   9.8048   9.8087  10.3314  10.3373
    10.3844  10.4278  10.4851  10.5276  10.5913  10.7553  10.7765  10.7984
    10.8444  10.8532  11.0372  11.0952  11.3646  11.3719  11.5482  12.4625

     occupation numbers 
     1.0000   1.0000   1.0000   1.0000   1.0000   1.0000   1.0000   1.0000
     1.0000   1.0000   1.0000   1.0000   1.0000   1.0000   1.0000   1.0000
     1.0000   1.0000   1.0000   1.0000   1.0000   1.0000   1.0000   1.0000
     1.0000   1.0000   1.0000   1.0000   1.0000   1.0000   1.0000   1.0000
     1.0000   1.0000   1.0000   1.0000   1.0000   1.0000   1.0000   1.0000
     1.0000   1.0000   1.0000   1.0000   1.0000   1.0000   1.0000   1.0000
     1.0000   1.0000   1.0000   1.0000   1.0000   1.0000   1.0000   1.0000
     1.0000   1.0000   1.0000   1.0000   1.0000   1.0000   1.0000   1.0000
     1.0000   1.0000   1.0000   1.0000   1.0000   1.0000   1.0000   1.0000
     1.0000   1.0000   1.0000   1.0000   1.0000   1.0000   1.0000   1.0000
     1.0000   1.0000   1.0000   1.0000   1.0000   1.0000   1.0000   1.0000
     1.0000   1.0000   1.0000   1.0000   1.0000   1.0000   1.0000   1.0000
     1.0000   1.0000   1.0000   1.0000   1.0000   1.0000   1.0000   1.0000
     1.0000   1.0000   1.0000   1.0000   1.0000   1.0000   1.0000   1.0000
     1.0000   1.0000   1.0000   1.0000   1.0000   1.0000   1.0000   1.0000
     1.0000   1.0000   1.0000   1.0000   1.0000   1.0000   1.0000   1.0000
     1.0000   1.0000   1.0000   1.0000   1.0000   1.0000   1.0000   1.0000
     1.0000   1.0000   1.0000   1.0000   1.0000   1.0000   1.0000   1.0000
     1.0000   1.0000   1.0000   1.0000   1.0000   1.0000   1.0000   1.0000
     1.0000   1.0000   1.0000   1.0000   1.0000   1.0000   1.0000   1.0000
     1.0000   1.0000   1.0000   1.0000   1.0000   1.0000   1.0000   1.0000
     1.0000   1.0000   1.0000   1.0000   1.0000   1.0000   1.0000   1.0000
     1.0000   1.0000   1.0000   1.0000   1.0000   1.0000   1.0000   1.0000
     1.0000   1.0000   1.0000   1.0000   1.0000   1.0000   1.0000   1.0000
     1.0000   1.0000   1.0000   1.0000   1.0000   1.0000   1.0000   1.0000
     1.0000   1.0000   1.0000   1.0000   1.0000   1.0000   1.0000   1.0000
     1.0000   1.0000   1.0000   1.0000   1.0000   1.0000   1.0000   1.0000
     1.0000   1.0000   1.0000   1.0000   1.0000   1.0000   1.0000   1.0000

          k = 0.1667 0.1667-0.3222 ( 36490 PWs)   bands (ev):

   -34.5845 -34.5828 -34.5609 -34.5600 -34.5463 -34.5366 -34.5336 -34.5322
   -34.5262 -34.5260 -34.5216 -34.5211 -34.5204 -34.5195 -34.5191 -34.5186
   -34.5181 -34.5168 -34.5164 -34.5147 -34.5123 -34.5113 -34.5100 -34.5060
   -34.5053 -34.3717 -34.3623 -34.3611 -34.3584 -34.3562 -34.3548 -34.3505
   -34.3482 -34.3438 -34.3397 -11.0186 -11.0086 -11.0076 -11.0047 -11.0031
   -10.9958 -10.9658 -10.9654 -10.9541 -10.9515 -10.8971 -10.8926 -10.8924
   -10.8889 -10.8192 -10.7980 -10.7936 -10.7809 -10.7765 -10.7570 -10.7539
   -10.7527 -10.7462 -10.7456 -10.7392 -10.7365 -10.7328 -10.7260 -10.7193
   -10.7158 -10.7141 -10.7088 -10.7084 -10.7063 -10.7056 -10.7023 -10.6997
   -10.6857 -10.6852 -10.6851 -10.6815 -10.6800 -10.6749 -10.6730 -10.6710
   -10.6687 -10.6622 -10.6616 -10.6515 -10.6473 -10.6414 -10.6395 -10.6331
   -10.6322 -10.6315 -10.6262 -10.6242 -10.6185 -10.6181 -10.6172 -10.6165
   -10.6147 -10.6130 -10.6062 -10.6059 -10.5963 -10.5962 -10.5902 -10.5832
   -10.5830 -10.5818 -10.5816 -10.5816 -10.5777 -10.5741 -10.5699 -10.5681
   -10.5430 -10.5429 -10.5339  -8.0760  -8.0753  -6.9495  -6.9476  -6.9273
    -6.9273  -6.3323  -6.3320  -6.1755  -6.1747  -6.1687  -6.1676  -6.0780
    -6.0773  -5.3106  -5.3106  -1.5082  -1.1838  -0.3993  -0.3981  -0.2153
     0.0012   0.1422   0.4463   0.4680   0.8892   0.9114   0.9218   0.9314
     0.9823   1.0628   1.1757   1.3120   1.8403   1.8491   1.8858   1.8917
     3.4554   3.6132   5.5787   5.6732   5.7703   5.7957   5.9343   5.9394
     5.9650   6.0535   6.0624   6.0726   6.0729   6.2241   6.7456   6.7863
     6.8147   6.8363   6.8932   6.9299   7.0811   7.1103   7.1170   7.1492
     7.3605   7.3866   7.4086   7.4893   8.0689   8.0866   8.0953   8.1002
     8.2169   8.2488   8.3338   8.3585   8.5861   8.6745   8.6893   8.9634
     9.0383   9.0498   9.1218   9.1440   9.1519   9.1853   9.2067   9.2374
     9.2390   9.4322   9.6284   9.7406   9.8051   9.8075  10.3339  10.3376
    10.3899  10.4587  10.4617  10.5162  10.6545  10.6903  10.7701  10.8608
    10.8662  10.9195  10.9541  11.0902  11.3645  11.3797  11.5398  12.5046

     occupation numbers 
     1.0000   1.0000   1.0000   1.0000   1.0000   1.0000   1.0000   1.0000
     1.0000   1.0000   1.0000   1.0000   1.0000   1.0000   1.0000   1.0000
     1.0000   1.0000   1.0000   1.0000   1.0000   1.0000   1.0000   1.0000
     1.0000   1.0000   1.0000   1.0000   1.0000   1.0000   1.0000   1.0000
     1.0000   1.0000   1.0000   1.0000   1.0000   1.0000   1.0000   1.0000
     1.0000   1.0000   1.0000   1.0000   1.0000   1.0000   1.0000   1.0000
     1.0000   1.0000   1.0000   1.0000   1.0000   1.0000   1.0000   1.0000
     1.0000   1.0000   1.0000   1.0000   1.0000   1.0000   1.0000   1.0000
     1.0000   1.0000   1.0000   1.0000   1.0000   1.0000   1.0000   1.0000
     1.0000   1.0000   1.0000   1.0000   1.0000   1.0000   1.0000   1.0000
     1.0000   1.0000   1.0000   1.0000   1.0000   1.0000   1.0000   1.0000
     1.0000   1.0000   1.0000   1.0000   1.0000   1.0000   1.0000   1.0000
     1.0000   1.0000   1.0000   1.0000   1.0000   1.0000   1.0000   1.0000
     1.0000   1.0000   1.0000   1.0000   1.0000   1.0000   1.0000   1.0000
     1.0000   1.0000   1.0000   1.0000   1.0000   1.0000   1.0000   1.0000
     1.0000   1.0000   1.0000   1.0000   1.0000   1.0000   1.0000   1.0000
     1.0000   1.0000   1.0000   1.0000   1.0000   1.0000   1.0000   1.0000
     1.0000   1.0000   1.0000   1.0000   1.0000   1.0000   1.0000   1.0000
     1.0000   1.0000   1.0000   1.0000   1.0000   1.0000   1.0000   1.0000
     1.0000   1.0000   1.0000   1.0000   1.0000   1.0000   1.0000   1.0000
     1.0000   1.0000   1.0000   1.0000   1.0000   1.0000   1.0000   1.0000
     1.0000   1.0000   1.0000   1.0000   1.0000   1.0000   1.0000   1.0000
     1.0000   1.0000   1.0000   1.0000   1.0000   1.0000   1.0000   1.0000
     1.0000   1.0000   1.0000   1.0000   1.0000   1.0000   1.0000   1.0000
     1.0000   1.0000   1.0000   1.0000   1.0000   1.0000   1.0000   1.0000
     1.0000   1.0000   1.0000   1.0000   1.0000   1.0000   1.0000   1.0000
     1.0000   1.0000   1.0000   1.0000   1.0000   1.0000   1.0000   1.0000
     1.0000   1.0000   1.0000   1.0000   1.0000   1.0000   1.0000   1.0000

          k = 0.1667 0.3333 0.0000 ( 36505 PWs)   bands (ev):

   -34.5857 -34.5828 -34.5602 -34.5597 -34.5503 -34.5339 -34.5331 -34.5311
   -34.5287 -34.5274 -34.5228 -34.5224 -34.5211 -34.5208 -34.5199 -34.5190
   -34.5182 -34.5177 -34.5158 -34.5141 -34.5140 -34.5138 -34.5081 -34.5070
   -34.5067 -34.3703 -34.3628 -34.3621 -34.3615 -34.3550 -34.3539 -34.3493
   -34.3482 -34.3469 -34.3415 -11.0195 -11.0047 -11.0021 -10.9980 -10.9919
   -10.9788 -10.9746 -10.9716 -10.9546 -10.9464 -10.9254 -10.8999 -10.8644
   -10.8379 -10.8187 -10.7981 -10.7975 -10.7876 -10.7764 -10.7630 -10.7585
   -10.7511 -10.7498 -10.7399 -10.7359 -10.7322 -10.7267 -10.7211 -10.7155
   -10.7118 -10.7111 -10.7060 -10.7053 -10.7016 -10.7009 -10.6985 -10.6955
   -10.6947 -10.6904 -10.6882 -10.6880 -10.6781 -10.6746 -10.6743 -10.6712
   -10.6691 -10.6647 -10.6643 -10.6561 -10.6547 -10.6488 -10.6459 -10.6433
   -10.6383 -10.6328 -10.6327 -10.6311 -10.6275 -10.6217 -10.6216 -10.6176
   -10.6141 -10.6128 -10.6072 -10.5967 -10.5956 -10.5953 -10.5934 -10.5908
   -10.5903 -10.5883 -10.5843 -10.5821 -10.5776 -10.5735 -10.5706 -10.5679
   -10.5506 -10.5412 -10.5369  -7.9231  -7.8928  -7.3277  -7.2993  -6.8504
    -6.8255  -6.5144  -6.4935  -6.1456  -6.1313  -6.0682  -6.0551  -5.8436
    -5.8344  -5.4102  -5.4077  -1.4866  -0.9053  -0.7596  -0.3581  -0.2769
    -0.0373   0.0053   0.4418   0.6952   0.7383   0.8427   0.8968   1.0133
     1.0602   1.1777   1.2797   1.2910   1.5796   1.9246   2.0151   2.5672
     3.1977   3.2788   5.4319   5.5983   5.6495   5.6826   5.7043   5.8365
     5.8408   5.8539   6.0392   6.1411   6.2286   6.3421   6.4938   6.5077
     6.6192   6.8604   6.9065   6.9832   7.2172   7.2284   7.3065   7.3969
     7.5607   7.6706   7.7723   7.9198   7.9485   8.0614   8.1165   8.1211
     8.1758   8.2171   8.2379   8.4148   8.4967   8.5469   8.7462   8.7504
     8.9206   8.9889   9.0853   9.1359   9.2244   9.3347   9.3497   9.5107
     9.5835   9.6975   9.7378   9.8477   9.8729   9.9772   9.9918  10.1871
    10.2122  10.2857  10.4074  10.4518  10.5256  10.5723  10.6644  10.7104
    10.7235  10.7747  10.8331  10.9209  11.0919  11.3579  11.4059  12.7657

     occupation numbers 
     1.0000   1.0000   1.0000   1.0000   1.0000   1.0000   1.0000   1.0000
     1.0000   1.0000   1.0000   1.0000   1.0000   1.0000   1.0000   1.0000
     1.0000   1.0000   1.0000   1.0000   1.0000   1.0000   1.0000   1.0000
     1.0000   1.0000   1.0000   1.0000   1.0000   1.0000   1.0000   1.0000
     1.0000   1.0000   1.0000   1.0000   1.0000   1.0000   1.0000   1.0000
     1.0000   1.0000   1.0000   1.0000   1.0000   1.0000   1.0000   1.0000
     1.0000   1.0000   1.0000   1.0000   1.0000   1.0000   1.0000   1.0000
     1.0000   1.0000   1.0000   1.0000   1.0000   1.0000   1.0000   1.0000
     1.0000   1.0000   1.0000   1.0000   1.0000   1.0000   1.0000   1.0000
     1.0000   1.0000   1.0000   1.0000   1.0000   1.0000   1.0000   1.0000
     1.0000   1.0000   1.0000   1.0000   1.0000   1.0000   1.0000   1.0000
     1.0000   1.0000   1.0000   1.0000   1.0000   1.0000   1.0000   1.0000
     1.0000   1.0000   1.0000   1.0000   1.0000   1.0000   1.0000   1.0000
     1.0000   1.0000   1.0000   1.0000   1.0000   1.0000   1.0000   1.0000
     1.0000   1.0000   1.0000   1.0000   1.0000   1.0000   1.0000   1.0000
     1.0000   1.0000   1.0000   1.0000   1.0000   1.0000   1.0000   1.0000
     1.0000   1.0000   1.0000   1.0000   1.0000   1.0000   1.0000   1.0000
     1.0000   1.0000   1.0000   1.0000   1.0000   1.0000   1.0000   1.0000
     1.0000   1.0000   1.0000   1.0000   1.0000   1.0000   1.0000   1.0000
     1.0000   1.0000   1.0000   1.0000   1.0000   1.0000   1.0000   1.0000
     1.0000   1.0000   1.0000   1.0000   1.0000   1.0000   1.0000   1.0000
     1.0000   1.0000   1.0000   1.0000   1.0000   1.0000   1.0000   1.0000
     1.0000   1.0000   1.0000   1.0000   1.0000   1.0000   1.0000   1.0000
     1.0000   1.0000   1.0000   1.0000   1.0000   1.0000   1.0000   1.0000
     1.0000   1.0000   1.0000   1.0000   1.0000   1.0000   1.0000   1.0000
     1.0000   1.0000   1.0000   1.0000   1.0000   1.0000   1.0000   1.0000
     1.0000   1.0000   1.0000   1.0000   1.0000   1.0000   1.0000   1.0000
     1.0000   1.0000   1.0000   1.0000   1.0000   1.0000   1.0000   1.0000

          k = 0.1667 0.3333 0.1074 ( 36503 PWs)   bands (ev):

   -34.5852 -34.5822 -34.5604 -34.5597 -34.5494 -34.5340 -34.5308 -34.5305
   -34.5273 -34.5255 -34.5249 -34.5214 -34.5196 -34.5192 -34.5189 -34.5186
   -34.5178 -34.5167 -34.5165 -34.5160 -34.5155 -34.5129 -34.5096 -34.5094
   -34.5086 -34.3693 -34.3625 -34.3617 -34.3612 -34.3550 -34.3545 -34.3494
   -34.3486 -34.3457 -34.3428 -11.0183 -11.0041 -11.0011 -10.9988 -10.9931
   -10.9801 -10.9737 -10.9704 -10.9557 -10.9481 -10.9238 -10.9016 -10.8632
   -10.8392 -10.8184 -10.7977 -10.7974 -10.7875 -10.7761 -10.7631 -10.7582
   -10.7515 -10.7493 -10.7395 -10.7357 -10.7327 -10.7275 -10.7219 -10.7157
   -10.7135 -10.7098 -10.7070 -10.7047 -10.7025 -10.6999 -10.6989 -10.6953
   -10.6937 -10.6913 -10.6886 -10.6871 -10.6788 -10.6755 -10.6738 -10.6711
   -10.6695 -10.6630 -10.6619 -10.6549 -10.6535 -10.6505 -10.6466 -10.6414
   -10.6389 -10.6343 -10.6314 -10.6308 -10.6259 -10.6232 -10.6207 -10.6171
   -10.6156 -10.6126 -10.6064 -10.5973 -10.5963 -10.5952 -10.5940 -10.5908
   -10.5904 -10.5885 -10.5847 -10.5818 -10.5778 -10.5734 -10.5708 -10.5682
   -10.5508 -10.5413 -10.5369  -7.9211  -7.8949  -7.3259  -7.3011  -6.8487
    -6.8272  -6.5129  -6.4949  -6.1447  -6.1322  -6.0673  -6.0559  -5.8430
    -5.8350  -5.4100  -5.4079  -1.4615  -0.9249  -0.7762  -0.3627  -0.2920
    -0.0411   0.0036   0.4546   0.7161   0.7768   0.7832   0.9656   1.0186
     1.0517   1.1024   1.2774   1.3923   1.5396   1.8981   2.0483   2.5304
     3.1931   3.2809   5.4295   5.6089   5.6167   5.6635   5.6975   5.7639
     5.8428   5.9586   6.0153   6.1965   6.2417   6.3329   6.4723   6.5603
     6.6293   6.8547   6.8936   7.0059   7.2048   7.2533   7.2790   7.3669
     7.5155   7.6422   7.7699   7.8652   7.9537   8.0706   8.1105   8.1891
     8.2178   8.2263   8.3370   8.3965   8.5364   8.5911   8.6943   8.7309
     8.9266   8.9725   9.0798   9.1319   9.2249   9.3038   9.3654   9.5137
     9.5516   9.6208   9.7061   9.7373   9.8400   9.8513  10.1446  10.2240
    10.2281  10.3135  10.4094  10.4795  10.5516  10.5663  10.6840  10.6946
    10.7379  10.7765  10.8497  10.9396  11.1043  11.3652  11.4100  12.7923

     occupation numbers 
     1.0000   1.0000   1.0000   1.0000   1.0000   1.0000   1.0000   1.0000
     1.0000   1.0000   1.0000   1.0000   1.0000   1.0000   1.0000   1.0000
     1.0000   1.0000   1.0000   1.0000   1.0000   1.0000   1.0000   1.0000
     1.0000   1.0000   1.0000   1.0000   1.0000   1.0000   1.0000   1.0000
     1.0000   1.0000   1.0000   1.0000   1.0000   1.0000   1.0000   1.0000
     1.0000   1.0000   1.0000   1.0000   1.0000   1.0000   1.0000   1.0000
     1.0000   1.0000   1.0000   1.0000   1.0000   1.0000   1.0000   1.0000
     1.0000   1.0000   1.0000   1.0000   1.0000   1.0000   1.0000   1.0000
     1.0000   1.0000   1.0000   1.0000   1.0000   1.0000   1.0000   1.0000
     1.0000   1.0000   1.0000   1.0000   1.0000   1.0000   1.0000   1.0000
     1.0000   1.0000   1.0000   1.0000   1.0000   1.0000   1.0000   1.0000
     1.0000   1.0000   1.0000   1.0000   1.0000   1.0000   1.0000   1.0000
     1.0000   1.0000   1.0000   1.0000   1.0000   1.0000   1.0000   1.0000
     1.0000   1.0000   1.0000   1.0000   1.0000   1.0000   1.0000   1.0000
     1.0000   1.0000   1.0000   1.0000   1.0000   1.0000   1.0000   1.0000
     1.0000   1.0000   1.0000   1.0000   1.0000   1.0000   1.0000   1.0000
     1.0000   1.0000   1.0000   1.0000   1.0000   1.0000   1.0000   1.0000
     1.0000   1.0000   1.0000   1.0000   1.0000   1.0000   1.0000   1.0000
     1.0000   1.0000   1.0000   1.0000   1.0000   1.0000   1.0000   1.0000
     1.0000   1.0000   1.0000   1.0000   1.0000   1.0000   1.0000   1.0000
     1.0000   1.0000   1.0000   1.0000   1.0000   1.0000   1.0000   1.0000
     1.0000   1.0000   1.0000   1.0000   1.0000   1.0000   1.0000   1.0000
     1.0000   1.0000   1.0000   1.0000   1.0000   1.0000   1.0000   1.0000
     1.0000   1.0000   1.0000   1.0000   1.0000   1.0000   1.0000   1.0000
     1.0000   1.0000   1.0000   1.0000   1.0000   1.0000   1.0000   1.0000
     1.0000   1.0000   1.0000   1.0000   1.0000   1.0000   1.0000   1.0000
     1.0000   1.0000   1.0000   1.0000   1.0000   1.0000   1.0000   1.0000
     1.0000   1.0000   1.0000   1.0000   1.0000   1.0000   1.0000   1.0000

          k = 0.1667 0.3333 0.2148 ( 36494 PWs)   bands (ev):

   -34.5852 -34.5821 -34.5598 -34.5594 -34.5484 -34.5349 -34.5320 -34.5314
   -34.5281 -34.5265 -34.5235 -34.5202 -34.5194 -34.5190 -34.5185 -34.5176
   -34.5172 -34.5167 -34.5156 -34.5152 -34.5138 -34.5112 -34.5094 -34.5087
   -34.5077 -34.3703 -34.3622 -34.3614 -34.3608 -34.3544 -34.3543 -34.3487
   -34.3486 -34.3446 -34.3422 -11.0152 -11.0027 -11.0010 -10.9984 -10.9957
   -10.9830 -10.9716 -10.9671 -10.9586 -10.9522 -10.9196 -10.9058 -10.8606
   -10.8422 -10.8178 -10.7973 -10.7971 -10.7874 -10.7754 -10.7633 -10.7575
   -10.7524 -10.7483 -10.7387 -10.7353 -10.7340 -10.7290 -10.7235 -10.7173
   -10.7128 -10.7093 -10.7082 -10.7047 -10.7031 -10.7001 -10.6984 -10.6959
   -10.6931 -10.6916 -10.6879 -10.6850 -10.6810 -10.6781 -10.6737 -10.6709
   -10.6666 -10.6609 -10.6568 -10.6545 -10.6538 -10.6500 -10.6462 -10.6410
   -10.6373 -10.6361 -10.6302 -10.6294 -10.6277 -10.6231 -10.6197 -10.6186
   -10.6159 -10.6123 -10.6044 -10.5988 -10.5981 -10.5954 -10.5951 -10.5917
   -10.5893 -10.5889 -10.5858 -10.5811 -10.5785 -10.5731 -10.5710 -10.5688
   -10.5511 -10.5416 -10.5370  -7.9156  -7.9005  -7.3207  -7.3064  -6.8442
    -6.8318  -6.5091  -6.4987  -6.1421  -6.1349  -6.0649  -6.0583  -5.8413
    -5.8367  -5.4095  -5.4083  -1.3971  -1.0073  -0.7717  -0.3926  -0.3040
    -0.0503   0.0015   0.4936   0.6408   0.7872   0.9088   0.9693   1.0430
     1.0674   1.1042   1.2392   1.4014   1.5601   1.8219   2.1470   2.4288
     3.1859   3.2837   5.4304   5.5293   5.6251   5.6561   5.6985   5.7501
     5.8229   5.9486   6.0913   6.2455   6.3027   6.3479   6.3824   6.6160
     6.7500   6.8450   6.8760   7.0569   7.1675   7.2061   7.2457   7.2843
     7.4781   7.5896   7.7696   7.8139   7.9850   8.0564   8.1508   8.2234
     8.2939   8.3490   8.3997   8.4779   8.5050   8.6065   8.6759   8.7710
     8.8504   9.0412   9.0832   9.1059   9.2133   9.2307   9.3827   9.4218
     9.4611   9.5132   9.5424   9.7294   9.7731   9.8230  10.1544  10.2238
    10.3317  10.3949  10.4312  10.5069  10.5357  10.5997  10.6767  10.7004
    10.7606  10.7654  10.9410  10.9744  11.1148  11.3769  11.4179  12.8470

     occupation numbers 
     1.0000   1.0000   1.0000   1.0000   1.0000   1.0000   1.0000   1.0000
     1.0000   1.0000   1.0000   1.0000   1.0000   1.0000   1.0000   1.0000
     1.0000   1.0000   1.0000   1.0000   1.0000   1.0000   1.0000   1.0000
     1.0000   1.0000   1.0000   1.0000   1.0000   1.0000   1.0000   1.0000
     1.0000   1.0000   1.0000   1.0000   1.0000   1.0000   1.0000   1.0000
     1.0000   1.0000   1.0000   1.0000   1.0000   1.0000   1.0000   1.0000
     1.0000   1.0000   1.0000   1.0000   1.0000   1.0000   1.0000   1.0000
     1.0000   1.0000   1.0000   1.0000   1.0000   1.0000   1.0000   1.0000
     1.0000   1.0000   1.0000   1.0000   1.0000   1.0000   1.0000   1.0000
     1.0000   1.0000   1.0000   1.0000   1.0000   1.0000   1.0000   1.0000
     1.0000   1.0000   1.0000   1.0000   1.0000   1.0000   1.0000   1.0000
     1.0000   1.0000   1.0000   1.0000   1.0000   1.0000   1.0000   1.0000
     1.0000   1.0000   1.0000   1.0000   1.0000   1.0000   1.0000   1.0000
     1.0000   1.0000   1.0000   1.0000   1.0000   1.0000   1.0000   1.0000
     1.0000   1.0000   1.0000   1.0000   1.0000   1.0000   1.0000   1.0000
     1.0000   1.0000   1.0000   1.0000   1.0000   1.0000   1.0000   1.0000
     1.0000   1.0000   1.0000   1.0000   1.0000   1.0000   1.0000   1.0000
     1.0000   1.0000   1.0000   1.0000   1.0000   1.0000   1.0000   1.0000
     1.0000   1.0000   1.0000   1.0000   1.0000   1.0000   1.0000   1.0000
     1.0000   1.0000   1.0000   1.0000   1.0000   1.0000   1.0000   1.0000
     1.0000   1.0000   1.0000   1.0000   1.0000   1.0000   1.0000   1.0000
     1.0000   1.0000   1.0000   1.0000   1.0000   1.0000   1.0000   1.0000
     1.0000   1.0000   1.0000   1.0000   1.0000   1.0000   1.0000   1.0000
     1.0000   1.0000   1.0000   1.0000   1.0000   1.0000   1.0000   1.0000
     1.0000   1.0000   1.0000   1.0000   1.0000   1.0000   1.0000   1.0000
     1.0000   1.0000   1.0000   1.0000   1.0000   1.0000   1.0000   1.0000
     1.0000   1.0000   1.0000   1.0000   1.0000   1.0000   1.0000   1.0000
     1.0000   1.0000   1.0000   1.0000   1.0000   1.0000   1.0000   1.0000

          k = 0.1667 0.3333-0.3222 ( 36474 PWs)   bands (ev):

   -34.5847 -34.5811 -34.5597 -34.5581 -34.5475 -34.5366 -34.5324 -34.5298
   -34.5253 -34.5249 -34.5217 -34.5203 -34.5191 -34.5188 -34.5187 -34.5175
   -34.5169 -34.5156 -34.5142 -34.5122 -34.5122 -34.5121 -34.5111 -34.5075
   -34.5043 -34.3712 -34.3614 -34.3609 -34.3580 -34.3550 -34.3528 -34.3484
   -34.3471 -34.3452 -34.3398 -11.0130 -11.0030 -11.0015 -10.9976 -10.9964
   -10.9850 -10.9702 -10.9644 -10.9606 -10.9551 -10.9162 -10.9093 -10.8589
   -10.8441 -10.8175 -10.7972 -10.7967 -10.7873 -10.7750 -10.7634 -10.7572
   -10.7529 -10.7478 -10.7380 -10.7352 -10.7348 -10.7298 -10.7243 -10.7180
   -10.7116 -10.7101 -10.7082 -10.7055 -10.7017 -10.7016 -10.6975 -10.6962
   -10.6941 -10.6914 -10.6859 -10.6839 -10.6818 -10.6803 -10.6752 -10.6693
   -10.6631 -10.6616 -10.6562 -10.6553 -10.6521 -10.6487 -10.6454 -10.6424
   -10.6355 -10.6350 -10.6323 -10.6289 -10.6274 -10.6248 -10.6205 -10.6175
   -10.6153 -10.6121 -10.6025 -10.6006 -10.5990 -10.5963 -10.5950 -10.5922
   -10.5890 -10.5884 -10.5866 -10.5805 -10.5791 -10.5729 -10.5712 -10.5691
   -10.5513 -10.5417 -10.5371  -7.9084  -7.9078  -7.3141  -7.3129  -6.8384
    -6.8376  -6.5043  -6.5036  -6.1385  -6.1384  -6.0619  -6.0613  -5.8391
    -5.8389  -5.4090  -5.4089  -1.3498  -1.0703  -0.7578  -0.4172  -0.3026
    -0.0556   0.0009   0.5563   0.5586   0.8354   0.8437   1.0337   1.0646
     1.1515   1.1732   1.1851   1.2531   1.6913   1.7163   2.2771   2.2987
     3.1830   3.2845   5.4386   5.4885   5.6098   5.6534   5.7261   5.7578
     5.8127   5.9047   6.1842   6.2541   6.2702   6.3067   6.4866   6.5473
     6.8429   6.8548   6.9389   7.0518   7.0959   7.1702   7.2090   7.2435
     7.5126   7.5363   7.7763   7.7918   8.0136   8.0394   8.2246   8.2536
     8.2930   8.3555   8.4477   8.4805   8.5483   8.5679   8.6654   8.7642
     8.9726   8.9951   9.0958   9.1593   9.1678   9.2591   9.2611   9.2767
     9.4062   9.5005   9.5486   9.7285   9.7497   9.8158  10.1656  10.2050
    10.3368  10.4365  10.4991  10.5000  10.5072  10.6213  10.6746  10.7015
    10.7500  10.7767  10.9741  11.0302  11.0996  11.3815  11.4216  12.8750

     occupation numbers 
     1.0000   1.0000   1.0000   1.0000   1.0000   1.0000   1.0000   1.0000
     1.0000   1.0000   1.0000   1.0000   1.0000   1.0000   1.0000   1.0000
     1.0000   1.0000   1.0000   1.0000   1.0000   1.0000   1.0000   1.0000
     1.0000   1.0000   1.0000   1.0000   1.0000   1.0000   1.0000   1.0000
     1.0000   1.0000   1.0000   1.0000   1.0000   1.0000   1.0000   1.0000
     1.0000   1.0000   1.0000   1.0000   1.0000   1.0000   1.0000   1.0000
     1.0000   1.0000   1.0000   1.0000   1.0000   1.0000   1.0000   1.0000
     1.0000   1.0000   1.0000   1.0000   1.0000   1.0000   1.0000   1.0000
     1.0000   1.0000   1.0000   1.0000   1.0000   1.0000   1.0000   1.0000
     1.0000   1.0000   1.0000   1.0000   1.0000   1.0000   1.0000   1.0000
     1.0000   1.0000   1.0000   1.0000   1.0000   1.0000   1.0000   1.0000
     1.0000   1.0000   1.0000   1.0000   1.0000   1.0000   1.0000   1.0000
     1.0000   1.0000   1.0000   1.0000   1.0000   1.0000   1.0000   1.0000
     1.0000   1.0000   1.0000   1.0000   1.0000   1.0000   1.0000   1.0000
     1.0000   1.0000   1.0000   1.0000   1.0000   1.0000   1.0000   1.0000
     1.0000   1.0000   1.0000   1.0000   1.0000   1.0000   1.0000   1.0000
     1.0000   1.0000   1.0000   1.0000   1.0000   1.0000   1.0000   1.0000
     1.0000   1.0000   1.0000   1.0000   1.0000   1.0000   1.0000   1.0000
     1.0000   1.0000   1.0000   1.0000   1.0000   1.0000   1.0000   1.0000
     1.0000   1.0000   1.0000   1.0000   1.0000   1.0000   1.0000   1.0000
     1.0000   1.0000   1.0000   1.0000   1.0000   1.0000   1.0000   1.0000
     1.0000   1.0000   1.0000   1.0000   1.0000   1.0000   1.0000   1.0000
     1.0000   1.0000   1.0000   1.0000   1.0000   1.0000   1.0000   1.0000
     1.0000   1.0000   1.0000   1.0000   1.0000   1.0000   1.0000   1.0000
     1.0000   1.0000   1.0000   1.0000   1.0000   1.0000   1.0000   1.0000
     1.0000   1.0000   1.0000   1.0000   1.0000   1.0000   1.0000   1.0000
     1.0000   1.0000   1.0000   1.0000   1.0000   1.0000   1.0000   1.0000
     1.0000   1.0000   1.0000   1.0000   1.0000   1.0000   1.0000   1.0000

          k = 0.1667-0.5000 0.0000 ( 36488 PWs)   bands (ev):

   -34.5852 -34.5821 -34.5588 -34.5583 -34.5496 -34.5318 -34.5316 -34.5281
   -34.5279 -34.5264 -34.5258 -34.5214 -34.5203 -34.5187 -34.5185 -34.5167
   -34.5165 -34.5153 -34.5153 -34.5130 -34.5128 -34.5111 -34.5108 -34.5103
   -34.5095 -34.3664 -34.3661 -34.3615 -34.3607 -34.3538 -34.3529 -34.3482
   -34.3473 -34.3444 -34.3438 -11.0142 -11.0027 -10.9994 -10.9958 -10.9846
   -10.9824 -10.9773 -10.9571 -10.9562 -10.9492 -10.9303 -10.9212 -10.8267
   -10.8229 -10.8118 -10.7955 -10.7938 -10.7926 -10.7925 -10.7755 -10.7585
   -10.7508 -10.7506 -10.7372 -10.7313 -10.7252 -10.7213 -10.7192 -10.7172
   -10.7163 -10.7096 -10.7088 -10.7056 -10.7044 -10.7026 -10.7014 -10.6949
   -10.6933 -10.6917 -10.6888 -10.6821 -10.6803 -10.6783 -10.6769 -10.6756
   -10.6681 -10.6621 -10.6585 -10.6554 -10.6550 -10.6487 -10.6484 -10.6465
   -10.6461 -10.6356 -10.6337 -10.6311 -10.6299 -10.6246 -10.6210 -10.6201
   -10.6188 -10.6078 -10.6066 -10.6009 -10.5975 -10.5972 -10.5966 -10.5919
   -10.5912 -10.5908 -10.5890 -10.5789 -10.5769 -10.5752 -10.5733 -10.5611
   -10.5593 -10.5396 -10.5393  -7.6879  -7.6560  -7.6340  -7.6058  -6.7220
    -6.6977  -6.6706  -6.6485  -6.1201  -6.1061  -6.0724  -6.0592  -5.6093
    -5.6043  -5.5649  -5.5600  -1.2804  -1.1504  -0.7244  -0.4284  -0.2015
    -0.1560  -0.0262   0.5662   0.6254   0.7938   0.8349   1.0025   1.0071
     1.0629   1.1320   1.2743   1.4011   1.6209   1.6266   2.5835   2.7836
     2.9257   2.9538   5.4787   5.4959   5.5433   5.5626   5.6054   5.7531
     5.7877   5.8849   5.9761   5.9772   6.4797   6.5139   6.5204   6.5626
     6.5930   6.6200   6.8476   6.9522   7.3069   7.3999   7.4984   7.5443
     7.5987   7.7208   7.8009   7.8269   7.8638   8.0548   8.2140   8.2417
     8.2470   8.2867   8.2991   8.3432   8.3515   8.3641   8.8873   8.8895
     9.0850   9.1012   9.1194   9.1579   9.2174   9.2595   9.2894   9.3066
     9.6596   9.6729   9.7870   9.8378   9.9707   9.9741  10.0706  10.1355
    10.2308  10.2312  10.3411  10.3441  10.4460  10.4798  10.5274  10.5623
    10.5769  10.7907  10.8921  10.9403  10.9943  11.2604  11.2702  13.2586

     occupation numbers 
     1.0000   1.0000   1.0000   1.0000   1.0000   1.0000   1.0000   1.0000
     1.0000   1.0000   1.0000   1.0000   1.0000   1.0000   1.0000   1.0000
     1.0000   1.0000   1.0000   1.0000   1.0000   1.0000   1.0000   1.0000
     1.0000   1.0000   1.0000   1.0000   1.0000   1.0000   1.0000   1.0000
     1.0000   1.0000   1.0000   1.0000   1.0000   1.0000   1.0000   1.0000
     1.0000   1.0000   1.0000   1.0000   1.0000   1.0000   1.0000   1.0000
     1.0000   1.0000   1.0000   1.0000   1.0000   1.0000   1.0000   1.0000
     1.0000   1.0000   1.0000   1.0000   1.0000   1.0000   1.0000   1.0000
     1.0000   1.0000   1.0000   1.0000   1.0000   1.0000   1.0000   1.0000
     1.0000   1.0000   1.0000   1.0000   1.0000   1.0000   1.0000   1.0000
     1.0000   1.0000   1.0000   1.0000   1.0000   1.0000   1.0000   1.0000
     1.0000   1.0000   1.0000   1.0000   1.0000   1.0000   1.0000   1.0000
     1.0000   1.0000   1.0000   1.0000   1.0000   1.0000   1.0000   1.0000
     1.0000   1.0000   1.0000   1.0000   1.0000   1.0000   1.0000   1.0000
     1.0000   1.0000   1.0000   1.0000   1.0000   1.0000   1.0000   1.0000
     1.0000   1.0000   1.0000   1.0000   1.0000   1.0000   1.0000   1.0000
     1.0000   1.0000   1.0000   1.0000   1.0000   1.0000   1.0000   1.0000
     1.0000   1.0000   1.0000   1.0000   1.0000   1.0000   1.0000   1.0000
     1.0000   1.0000   1.0000   1.0000   1.0000   1.0000   1.0000   1.0000
     1.0000   1.0000   1.0000   1.0000   1.0000   1.0000   1.0000   1.0000
     1.0000   1.0000   1.0000   1.0000   1.0000   1.0000   1.0000   1.0000
     1.0000   1.0000   1.0000   1.0000   1.0000   1.0000   1.0000   1.0000
     1.0000   1.0000   1.0000   1.0000   1.0000   1.0000   1.0000   1.0000
     1.0000   1.0000   1.0000   1.0000   1.0000   1.0000   1.0000   1.0000
     1.0000   1.0000   1.0000   1.0000   1.0000   1.0000   1.0000   1.0000
     1.0000   1.0000   1.0000   1.0000   1.0000   1.0000   1.0000   1.0000
     1.0000   1.0000   1.0000   1.0000   1.0000   1.0000   1.0000   1.0000
     1.0000   1.0000   1.0000   1.0000   1.0000   1.0000   1.0000   1.0000

          k = 0.1667-0.5000 0.1074 ( 36524 PWs)   bands (ev):

   -34.5861 -34.5833 -34.5608 -34.5605 -34.5499 -34.5326 -34.5323 -34.5290
   -34.5280 -34.5272 -34.5271 -34.5242 -34.5229 -34.5208 -34.5207 -34.5192
   -34.5192 -34.5171 -34.5171 -34.5155 -34.5152 -34.5109 -34.5102 -34.5100
   -34.5098 -34.3672 -34.3669 -34.3625 -34.3623 -34.3556 -34.3551 -34.3500
   -34.3494 -34.3449 -34.3447 -11.0132 -11.0021 -10.9984 -10.9966 -10.9857
   -10.9834 -10.9764 -10.9585 -10.9547 -10.9477 -10.9321 -10.9228 -10.8265
   -10.8225 -10.8115 -10.7954 -10.7942 -10.7933 -10.7921 -10.7752 -10.7582
   -10.7511 -10.7504 -10.7370 -10.7319 -10.7251 -10.7220 -10.7201 -10.7166
   -10.7160 -10.7120 -10.7094 -10.7057 -10.7057 -10.7021 -10.6987 -10.6941
   -10.6927 -10.6918 -10.6888 -10.6834 -10.6810 -10.6792 -10.6779 -10.6740
   -10.6673 -10.6600 -10.6566 -10.6563 -10.6538 -10.6491 -10.6480 -10.6469
   -10.6436 -10.6382 -10.6330 -10.6307 -10.6299 -10.6260 -10.6213 -10.6192
   -10.6181 -10.6077 -10.6065 -10.6004 -10.5980 -10.5973 -10.5966 -10.5924
   -10.5918 -10.5914 -10.5895 -10.5788 -10.5767 -10.5754 -10.5735 -10.5613
   -10.5596 -10.5397 -10.5394  -7.6858  -7.6581  -7.6322  -7.6077  -6.7204
    -6.6994  -6.6692  -6.6500  -6.1192  -6.1071  -6.0715  -6.0601  -5.6090
    -5.6047  -5.5647  -5.5603  -1.2535  -1.1350  -0.7726  -0.4611  -0.1943
    -0.1560  -0.0334   0.5756   0.6361   0.8485   0.8577   0.9168   0.9317
     1.1561   1.2180   1.2797   1.3723   1.6015   1.6068   2.5968   2.7862
     2.9131   2.9282   5.4662   5.4768   5.5210   5.5789   5.5825   5.6821
     5.8821   5.9049   5.9498   6.0652   6.4730   6.5153   6.5195   6.5401
     6.5847   6.6065   6.8860   6.9729   7.2886   7.3981   7.5092   7.5447
     7.6159   7.7169   7.7899   7.7933   7.8544   7.9663   8.0833   8.2024
     8.3048   8.3352   8.3644   8.3848   8.4397   8.4550   8.8792   8.8823
     9.0434   9.0597   9.0961   9.1151   9.2632   9.2695   9.3010   9.3056
     9.6734   9.6798   9.6909   9.7258   9.9242   9.9743  10.0848  10.0953
    10.2206  10.2498  10.3578  10.3766  10.4779  10.4905  10.5504  10.5848
    10.6452  10.7655  10.8428  11.0110  11.0522  11.2696  11.2717  13.2465

     occupation numbers 
     1.0000   1.0000   1.0000   1.0000   1.0000   1.0000   1.0000   1.0000
     1.0000   1.0000   1.0000   1.0000   1.0000   1.0000   1.0000   1.0000
     1.0000   1.0000   1.0000   1.0000   1.0000   1.0000   1.0000   1.0000
     1.0000   1.0000   1.0000   1.0000   1.0000   1.0000   1.0000   1.0000
     1.0000   1.0000   1.0000   1.0000   1.0000   1.0000   1.0000   1.0000
     1.0000   1.0000   1.0000   1.0000   1.0000   1.0000   1.0000   1.0000
     1.0000   1.0000   1.0000   1.0000   1.0000   1.0000   1.0000   1.0000
     1.0000   1.0000   1.0000   1.0000   1.0000   1.0000   1.0000   1.0000
     1.0000   1.0000   1.0000   1.0000   1.0000   1.0000   1.0000   1.0000
     1.0000   1.0000   1.0000   1.0000   1.0000   1.0000   1.0000   1.0000
     1.0000   1.0000   1.0000   1.0000   1.0000   1.0000   1.0000   1.0000
     1.0000   1.0000   1.0000   1.0000   1.0000   1.0000   1.0000   1.0000
     1.0000   1.0000   1.0000   1.0000   1.0000   1.0000   1.0000   1.0000
     1.0000   1.0000   1.0000   1.0000   1.0000   1.0000   1.0000   1.0000
     1.0000   1.0000   1.0000   1.0000   1.0000   1.0000   1.0000   1.0000
     1.0000   1.0000   1.0000   1.0000   1.0000   1.0000   1.0000   1.0000
     1.0000   1.0000   1.0000   1.0000   1.0000   1.0000   1.0000   1.0000
     1.0000   1.0000   1.0000   1.0000   1.0000   1.0000   1.0000   1.0000
     1.0000   1.0000   1.0000   1.0000   1.0000   1.0000   1.0000   1.0000
     1.0000   1.0000   1.0000   1.0000   1.0000   1.0000   1.0000   1.0000
     1.0000   1.0000   1.0000   1.0000   1.0000   1.0000   1.0000   1.0000
     1.0000   1.0000   1.0000   1.0000   1.0000   1.0000   1.0000   1.0000
     1.0000   1.0000   1.0000   1.0000   1.0000   1.0000   1.0000   1.0000
     1.0000   1.0000   1.0000   1.0000   1.0000   1.0000   1.0000   1.0000
     1.0000   1.0000   1.0000   1.0000   1.0000   1.0000   1.0000   1.0000
     1.0000   1.0000   1.0000   1.0000   1.0000   1.0000   1.0000   1.0000
     1.0000   1.0000   1.0000   1.0000   1.0000   1.0000   1.0000   1.0000
     1.0000   1.0000   1.0000   1.0000   1.0000   1.0000   1.0000   1.0000

          k = 0.1667-0.5000 0.2148 ( 36492 PWs)   bands (ev):

   -34.5858 -34.5828 -34.5592 -34.5589 -34.5480 -34.5312 -34.5311 -34.5287
   -34.5282 -34.5278 -34.5274 -34.5248 -34.5233 -34.5186 -34.5186 -34.5182
   -34.5181 -34.5146 -34.5145 -34.5143 -34.5143 -34.5093 -34.5090 -34.5070
   -34.5066 -34.3668 -34.3665 -34.3622 -34.3619 -34.3537 -34.3535 -34.3481
   -34.3479 -34.3432 -34.3429 -11.0107 -11.0006 -10.9985 -10.9959 -10.9883
   -10.9858 -10.9742 -10.9615 -10.9505 -10.9441 -10.9368 -10.9268 -10.8260
   -10.8216 -10.8107 -10.7957 -10.7946 -10.7943 -10.7918 -10.7746 -10.7575
   -10.7520 -10.7493 -10.7362 -10.7333 -10.7247 -10.7233 -10.7221 -10.7165
   -10.7150 -10.7125 -10.7109 -10.7077 -10.7057 -10.7030 -10.6952 -10.6921
   -10.6919 -10.6901 -10.6882 -10.6861 -10.6827 -10.6811 -10.6805 -10.6709
   -10.6643 -10.6586 -10.6559 -10.6548 -10.6505 -10.6480 -10.6467 -10.6451
   -10.6420 -10.6414 -10.6366 -10.6300 -10.6292 -10.6282 -10.6219 -10.6175
   -10.6167 -10.6075 -10.6062 -10.5992 -10.5990 -10.5988 -10.5951 -10.5938
   -10.5930 -10.5925 -10.5909 -10.5783 -10.5761 -10.5758 -10.5740 -10.5617
   -10.5600 -10.5398 -10.5395  -7.6800  -7.6640  -7.6271  -7.6128  -6.7160
    -6.7038  -6.6652  -6.6540  -6.1166  -6.1096  -6.0691  -6.0625  -5.6081
    -5.6056  -5.5637  -5.5612  -1.1789  -1.1002  -0.8867  -0.5289  -0.1773
    -0.1548  -0.0501   0.6084   0.6672   0.7757   0.8272   0.9681   0.9918
     1.1907   1.2849   1.3444   1.3488   1.5450   1.5496   2.6327   2.7942
     2.8675   2.8852   5.4370   5.4512   5.4619   5.5445   5.6489   5.6696
     5.8488   5.8620   6.1083   6.2208   6.4280   6.4666   6.5241   6.5298
     6.5647   6.5812   6.9941   7.0278   7.2273   7.3325   7.5401   7.5541
     7.6479   7.6810   7.7536   7.7668   7.8576   7.9050   8.0287   8.1335
     8.2242   8.2928   8.5696   8.5711   8.5935   8.6062   8.8462   8.8522
     8.9028   8.9117   9.1360   9.1542   9.2777   9.2901   9.3058   9.3125
     9.4708   9.4944   9.6810   9.7202   9.8729   9.9592  10.0509  10.0511
    10.1926  10.3069  10.3852  10.4152  10.5393  10.5873  10.5966  10.6173
    10.7071  10.7480  10.7833  11.1101  11.1222  11.2749  11.2896  13.2234

     occupation numbers 
     1.0000   1.0000   1.0000   1.0000   1.0000   1.0000   1.0000   1.0000
     1.0000   1.0000   1.0000   1.0000   1.0000   1.0000   1.0000   1.0000
     1.0000   1.0000   1.0000   1.0000   1.0000   1.0000   1.0000   1.0000
     1.0000   1.0000   1.0000   1.0000   1.0000   1.0000   1.0000   1.0000
     1.0000   1.0000   1.0000   1.0000   1.0000   1.0000   1.0000   1.0000
     1.0000   1.0000   1.0000   1.0000   1.0000   1.0000   1.0000   1.0000
     1.0000   1.0000   1.0000   1.0000   1.0000   1.0000   1.0000   1.0000
     1.0000   1.0000   1.0000   1.0000   1.0000   1.0000   1.0000   1.0000
     1.0000   1.0000   1.0000   1.0000   1.0000   1.0000   1.0000   1.0000
     1.0000   1.0000   1.0000   1.0000   1.0000   1.0000   1.0000   1.0000
     1.0000   1.0000   1.0000   1.0000   1.0000   1.0000   1.0000   1.0000
     1.0000   1.0000   1.0000   1.0000   1.0000   1.0000   1.0000   1.0000
     1.0000   1.0000   1.0000   1.0000   1.0000   1.0000   1.0000   1.0000
     1.0000   1.0000   1.0000   1.0000   1.0000   1.0000   1.0000   1.0000
     1.0000   1.0000   1.0000   1.0000   1.0000   1.0000   1.0000   1.0000
     1.0000   1.0000   1.0000   1.0000   1.0000   1.0000   1.0000   1.0000
     1.0000   1.0000   1.0000   1.0000   1.0000   1.0000   1.0000   1.0000
     1.0000   1.0000   1.0000   1.0000   1.0000   1.0000   1.0000   1.0000
     1.0000   1.0000   1.0000   1.0000   1.0000   1.0000   1.0000   1.0000
     1.0000   1.0000   1.0000   1.0000   1.0000   1.0000   1.0000   1.0000
     1.0000   1.0000   1.0000   1.0000   1.0000   1.0000   1.0000   1.0000
     1.0000   1.0000   1.0000   1.0000   1.0000   1.0000   1.0000   1.0000
     1.0000   1.0000   1.0000   1.0000   1.0000   1.0000   1.0000   1.0000
     1.0000   1.0000   1.0000   1.0000   1.0000   1.0000   1.0000   1.0000
     1.0000   1.0000   1.0000   1.0000   1.0000   1.0000   1.0000   1.0000
     1.0000   1.0000   1.0000   1.0000   1.0000   1.0000   1.0000   1.0000
     1.0000   1.0000   1.0000   1.0000   1.0000   1.0000   1.0000   1.0000
     1.0000   1.0000   1.0000   1.0000   1.0000   1.0000   1.0000   1.0000

          k = 0.1667-0.5000-0.3222 ( 36488 PWs)   bands (ev):

   -34.5858 -34.5821 -34.5592 -34.5584 -34.5483 -34.5315 -34.5312 -34.5301
   -34.5298 -34.5261 -34.5255 -34.5233 -34.5219 -34.5183 -34.5183 -34.5174
   -34.5173 -34.5154 -34.5152 -34.5133 -34.5132 -34.5103 -34.5096 -34.5070
   -34.5068 -34.3664 -34.3664 -34.3614 -34.3613 -34.3544 -34.3527 -34.3488
   -34.3470 -34.3432 -34.3431 -11.0090 -11.0004 -10.9991 -10.9940 -10.9899
   -10.9877 -10.9726 -10.9634 -10.9464 -10.9416 -10.9411 -10.9296 -10.8258
   -10.8211 -10.8103 -10.7962 -10.7948 -10.7946 -10.7916 -10.7743 -10.7571
   -10.7525 -10.7488 -10.7353 -10.7346 -10.7240 -10.7239 -10.7238 -10.7171
   -10.7134 -10.7125 -10.7110 -10.7095 -10.7057 -10.7032 -10.6945 -10.6918
   -10.6901 -10.6894 -10.6872 -10.6863 -10.6842 -10.6832 -10.6820 -10.6691
   -10.6615 -10.6601 -10.6580 -10.6512 -10.6468 -10.6465 -10.6465 -10.6450
   -10.6423 -10.6413 -10.6400 -10.6325 -10.6288 -10.6274 -10.6223 -10.6166
   -10.6159 -10.6075 -10.6061 -10.5998 -10.5996 -10.5980 -10.5948 -10.5937
   -10.5936 -10.5931 -10.5923 -10.5780 -10.5761 -10.5757 -10.5744 -10.5619
   -10.5602 -10.5399 -10.5396  -7.6727  -7.6713  -7.6216  -7.6183  -6.7101
    -6.7097  -6.6606  -6.6587  -6.1133  -6.1129  -6.0663  -6.0653  -5.6069
    -5.6068  -5.5625  -5.5624  -1.1067  -1.0800  -0.9773  -0.5648  -0.1667
    -0.1539  -0.0605   0.6494   0.6991   0.7074   0.7716   1.0151   1.1402
     1.1613   1.1761   1.4473   1.4509   1.4614   1.4700   2.6605   2.8009
     2.8272   2.8685   5.4155   5.4288   5.4847   5.4891   5.6884   5.7468
     5.7592   5.8294   6.2585   6.3412   6.3450   6.3731   6.5369   6.5452
     6.5467   6.5595   7.0779   7.1222   7.1672   7.2065   7.5624   7.5695
     7.6381   7.6622   7.7547   7.7578   7.8587   7.8956   8.1061   8.1071
     8.1091   8.2671   8.6935   8.7179   8.7260   8.7513   8.7600   8.7672
     8.7946   8.8040   9.2240   9.2490   9.2710   9.2836   9.2840   9.3094
     9.3129   9.3302   9.6806   9.7390   9.8443   9.9451  10.0420  10.0480
    10.1792  10.3248  10.3889  10.4264  10.5874  10.6279  10.6394  10.6678
    10.6786  10.7425  10.7574  11.1494  11.1497  11.2769  11.3004  13.2123

     occupation numbers 
     1.0000   1.0000   1.0000   1.0000   1.0000   1.0000   1.0000   1.0000
     1.0000   1.0000   1.0000   1.0000   1.0000   1.0000   1.0000   1.0000
     1.0000   1.0000   1.0000   1.0000   1.0000   1.0000   1.0000   1.0000
     1.0000   1.0000   1.0000   1.0000   1.0000   1.0000   1.0000   1.0000
     1.0000   1.0000   1.0000   1.0000   1.0000   1.0000   1.0000   1.0000
     1.0000   1.0000   1.0000   1.0000   1.0000   1.0000   1.0000   1.0000
     1.0000   1.0000   1.0000   1.0000   1.0000   1.0000   1.0000   1.0000
     1.0000   1.0000   1.0000   1.0000   1.0000   1.0000   1.0000   1.0000
     1.0000   1.0000   1.0000   1.0000   1.0000   1.0000   1.0000   1.0000
     1.0000   1.0000   1.0000   1.0000   1.0000   1.0000   1.0000   1.0000
     1.0000   1.0000   1.0000   1.0000   1.0000   1.0000   1.0000   1.0000
     1.0000   1.0000   1.0000   1.0000   1.0000   1.0000   1.0000   1.0000
     1.0000   1.0000   1.0000   1.0000   1.0000   1.0000   1.0000   1.0000
     1.0000   1.0000   1.0000   1.0000   1.0000   1.0000   1.0000   1.0000
     1.0000   1.0000   1.0000   1.0000   1.0000   1.0000   1.0000   1.0000
     1.0000   1.0000   1.0000   1.0000   1.0000   1.0000   1.0000   1.0000
     1.0000   1.0000   1.0000   1.0000   1.0000   1.0000   1.0000   1.0000
     1.0000   1.0000   1.0000   1.0000   1.0000   1.0000   1.0000   1.0000
     1.0000   1.0000   1.0000   1.0000   1.0000   1.0000   1.0000   1.0000
     1.0000   1.0000   1.0000   1.0000   1.0000   1.0000   1.0000   1.0000
     1.0000   1.0000   1.0000   1.0000   1.0000   1.0000   1.0000   1.0000
     1.0000   1.0000   1.0000   1.0000   1.0000   1.0000   1.0000   1.0000
     1.0000   1.0000   1.0000   1.0000   1.0000   1.0000   1.0000   1.0000
     1.0000   1.0000   1.0000   1.0000   1.0000   1.0000   1.0000   1.0000
     1.0000   1.0000   1.0000   1.0000   1.0000   1.0000   1.0000   1.0000
     1.0000   1.0000   1.0000   1.0000   1.0000   1.0000   1.0000   1.0000
     1.0000   1.0000   1.0000   1.0000   1.0000   1.0000   1.0000   1.0000
     1.0000   1.0000   1.0000   1.0000   1.0000   1.0000   1.0000   1.0000

          k = 0.3333 0.3333 0.0000 ( 36531 PWs)   bands (ev):

   -34.5860 -34.5831 -34.5617 -34.5599 -34.5510 -34.5344 -34.5320 -34.5307
   -34.5295 -34.5280 -34.5229 -34.5228 -34.5205 -34.5201 -34.5196 -34.5196
   -34.5185 -34.5179 -34.5175 -34.5169 -34.5159 -34.5119 -34.5103 -34.5098
   -34.5092 -34.3696 -34.3646 -34.3626 -34.3615 -34.3553 -34.3551 -34.3496
   -34.3489 -34.3471 -34.3433 -11.0172 -11.0034 -10.9993 -10.9978 -10.9896
   -10.9798 -10.9770 -10.9591 -10.9539 -10.9253 -10.8903 -10.8865 -10.8615
   -10.8581 -10.8173 -10.8100 -10.7972 -10.7927 -10.7789 -10.7718 -10.7593
   -10.7508 -10.7454 -10.7419 -10.7350 -10.7307 -10.7272 -10.7219 -10.7183
   -10.7148 -10.7103 -10.7072 -10.7072 -10.7045 -10.7044 -10.6999 -10.6923
   -10.6910 -10.6906 -10.6832 -10.6798 -10.6776 -10.6759 -10.6721 -10.6675
   -10.6659 -10.6610 -10.6604 -10.6561 -10.6560 -10.6547 -10.6435 -10.6421
   -10.6407 -10.6375 -10.6346 -10.6339 -10.6330 -10.6273 -10.6253 -10.6223
   -10.6195 -10.6194 -10.6088 -10.6024 -10.5975 -10.5968 -10.5931 -10.5927
   -10.5923 -10.5878 -10.5875 -10.5824 -10.5816 -10.5775 -10.5741 -10.5642
   -10.5492 -10.5489 -10.5418  -7.7658  -7.7354  -7.2152  -7.1926  -7.1882
    -7.1633  -6.7698  -6.7457  -5.9523  -5.9415  -5.8544  -5.8453  -5.8342
    -5.8250  -5.4860  -5.4826  -1.3330  -0.7945  -0.7375  -0.6240  -0.3085
    -0.3001  -0.1585   0.5078   0.7247   0.8042   0.8159   0.9360   0.9497
     0.9920   1.2719   1.4109   1.6529   1.8474   1.9170   2.3428   2.3670
     2.9684   3.0309   5.3825   5.4036   5.4194   5.4268   5.5918   5.6292
     5.7732   5.8004   6.2470   6.2731   6.4913   6.5314   6.5735   6.6907
     6.8071   7.0921   7.1017   7.1690   7.2191   7.2551   7.3176   7.4164
     7.4282   7.5639   7.6900   7.7101   7.7179   7.7933   7.8829   7.9747
     8.0321   8.0554   8.0822   8.2185   8.2367   8.4985   9.0953   9.1040
     9.1143   9.2449   9.2502   9.3734   9.3925   9.4301   9.5798   9.5867
     9.6905   9.6991   9.7286   9.8270   9.9091   9.9846   9.9952  10.0633
    10.0827  10.1088  10.1728  10.1997  10.2371  10.5493  10.6094  10.7842
    10.7999  10.8309  10.9197  11.2295  11.2526  11.2849  11.5132  12.8180

     occupation numbers 
     1.0000   1.0000   1.0000   1.0000   1.0000   1.0000   1.0000   1.0000
     1.0000   1.0000   1.0000   1.0000   1.0000   1.0000   1.0000   1.0000
     1.0000   1.0000   1.0000   1.0000   1.0000   1.0000   1.0000   1.0000
     1.0000   1.0000   1.0000   1.0000   1.0000   1.0000   1.0000   1.0000
     1.0000   1.0000   1.0000   1.0000   1.0000   1.0000   1.0000   1.0000
     1.0000   1.0000   1.0000   1.0000   1.0000   1.0000   1.0000   1.0000
     1.0000   1.0000   1.0000   1.0000   1.0000   1.0000   1.0000   1.0000
     1.0000   1.0000   1.0000   1.0000   1.0000   1.0000   1.0000   1.0000
     1.0000   1.0000   1.0000   1.0000   1.0000   1.0000   1.0000   1.0000
     1.0000   1.0000   1.0000   1.0000   1.0000   1.0000   1.0000   1.0000
     1.0000   1.0000   1.0000   1.0000   1.0000   1.0000   1.0000   1.0000
     1.0000   1.0000   1.0000   1.0000   1.0000   1.0000   1.0000   1.0000
     1.0000   1.0000   1.0000   1.0000   1.0000   1.0000   1.0000   1.0000
     1.0000   1.0000   1.0000   1.0000   1.0000   1.0000   1.0000   1.0000
     1.0000   1.0000   1.0000   1.0000   1.0000   1.0000   1.0000   1.0000
     1.0000   1.0000   1.0000   1.0000   1.0000   1.0000   1.0000   1.0000
     1.0000   1.0000   1.0000   1.0000   1.0000   1.0000   1.0000   1.0000
     1.0000   1.0000   1.0000   1.0000   1.0000   1.0000   1.0000   1.0000
     1.0000   1.0000   1.0000   1.0000   1.0000   1.0000   1.0000   1.0000
     1.0000   1.0000   1.0000   1.0000   1.0000   1.0000   1.0000   1.0000
     1.0000   1.0000   1.0000   1.0000   1.0000   1.0000   1.0000   1.0000
     1.0000   1.0000   1.0000   1.0000   1.0000   1.0000   1.0000   1.0000
     1.0000   1.0000   1.0000   1.0000   1.0000   1.0000   1.0000   1.0000
     1.0000   1.0000   1.0000   1.0000   1.0000   1.0000   1.0000   1.0000
     1.0000   1.0000   1.0000   1.0000   1.0000   1.0000   1.0000   1.0000
     1.0000   1.0000   1.0000   1.0000   1.0000   1.0000   1.0000   1.0000
     1.0000   1.0000   1.0000   1.0000   1.0000   1.0000   1.0000   1.0000
     1.0000   1.0000   1.0000   1.0000   1.0000   1.0000   1.0000   1.0000

          k = 0.3333 0.3333 0.1074 ( 36522 PWs)   bands (ev):

   -34.5858 -34.5832 -34.5619 -34.5591 -34.5496 -34.5333 -34.5317 -34.5307
   -34.5305 -34.5296 -34.5225 -34.5223 -34.5207 -34.5207 -34.5201 -34.5189
   -34.5182 -34.5172 -34.5161 -34.5155 -34.5139 -34.5129 -34.5101 -34.5097
   -34.5086 -34.3690 -34.3645 -34.3627 -34.3620 -34.3561 -34.3546 -34.3503
   -34.3478 -34.3458 -34.3427 -11.0160 -11.0027 -10.9988 -10.9983 -10.9906
   -10.9809 -10.9762 -10.9602 -10.9525 -10.9271 -10.8890 -10.8853 -10.8631
   -10.8596 -10.8171 -10.8098 -10.7970 -10.7926 -10.7793 -10.7715 -10.7589
   -10.7512 -10.7449 -10.7417 -10.7348 -10.7312 -10.7278 -10.7227 -10.7177
   -10.7145 -10.7132 -10.7087 -10.7064 -10.7053 -10.7005 -10.7000 -10.6923
   -10.6914 -10.6905 -10.6837 -10.6809 -10.6784 -10.6744 -10.6720 -10.6655
   -10.6642 -10.6599 -10.6585 -10.6575 -10.6570 -10.6542 -10.6443 -10.6424
   -10.6402 -10.6388 -10.6344 -10.6320 -10.6319 -10.6290 -10.6241 -10.6217
   -10.6205 -10.6190 -10.6088 -10.6018 -10.5982 -10.5975 -10.5936 -10.5933
   -10.5930 -10.5874 -10.5872 -10.5827 -10.5820 -10.5774 -10.5742 -10.5644
   -10.5493 -10.5490 -10.5418  -7.7638  -7.7375  -7.2134  -7.1906  -7.1900
    -7.1653  -6.7682  -6.7473  -5.9515  -5.9422  -5.8538  -5.8460  -5.8336
    -5.8257  -5.4858  -5.4828  -1.3087  -0.8170  -0.7191  -0.6391  -0.3365
    -0.2961  -0.1751   0.5085   0.7401   0.7990   0.8317   0.9400   0.9532
     0.9957   1.3013   1.3939   1.6358   1.8827   1.9462   2.3153   2.3353
     2.9629   3.0284   5.3823   5.4030   5.4379   5.4395   5.5381   5.6703
     5.7443   5.7715   6.2716   6.3510   6.5048   6.5639   6.5911   6.6737
     6.7559   7.0525   7.0666   7.1941   7.2320   7.2625   7.3263   7.4077
     7.4199   7.5183   7.5840   7.5976   7.6483   7.7556   7.8613   7.9725
     8.0376   8.2378   8.2551   8.2665   8.4484   8.4731   9.0627   9.0792
     9.0876   9.2454   9.2504   9.3741   9.3914   9.4375   9.5159   9.5218
     9.6747   9.6914   9.7001   9.7421   9.8847   9.9834  10.0021  10.0495
    10.0789  10.1448  10.2247  10.2402  10.2607  10.5552  10.6088  10.7503
    10.7549  10.7989  10.9996  11.2401  11.2665  11.2850  11.5017  12.8777

     occupation numbers 
     1.0000   1.0000   1.0000   1.0000   1.0000   1.0000   1.0000   1.0000
     1.0000   1.0000   1.0000   1.0000   1.0000   1.0000   1.0000   1.0000
     1.0000   1.0000   1.0000   1.0000   1.0000   1.0000   1.0000   1.0000
     1.0000   1.0000   1.0000   1.0000   1.0000   1.0000   1.0000   1.0000
     1.0000   1.0000   1.0000   1.0000   1.0000   1.0000   1.0000   1.0000
     1.0000   1.0000   1.0000   1.0000   1.0000   1.0000   1.0000   1.0000
     1.0000   1.0000   1.0000   1.0000   1.0000   1.0000   1.0000   1.0000
     1.0000   1.0000   1.0000   1.0000   1.0000   1.0000   1.0000   1.0000
     1.0000   1.0000   1.0000   1.0000   1.0000   1.0000   1.0000   1.0000
     1.0000   1.0000   1.0000   1.0000   1.0000   1.0000   1.0000   1.0000
     1.0000   1.0000   1.0000   1.0000   1.0000   1.0000   1.0000   1.0000
     1.0000   1.0000   1.0000   1.0000   1.0000   1.0000   1.0000   1.0000
     1.0000   1.0000   1.0000   1.0000   1.0000   1.0000   1.0000   1.0000
     1.0000   1.0000   1.0000   1.0000   1.0000   1.0000   1.0000   1.0000
     1.0000   1.0000   1.0000   1.0000   1.0000   1.0000   1.0000   1.0000
     1.0000   1.0000   1.0000   1.0000   1.0000   1.0000   1.0000   1.0000
     1.0000   1.0000   1.0000   1.0000   1.0000   1.0000   1.0000   1.0000
     1.0000   1.0000   1.0000   1.0000   1.0000   1.0000   1.0000   1.0000
     1.0000   1.0000   1.0000   1.0000   1.0000   1.0000   1.0000   1.0000
     1.0000   1.0000   1.0000   1.0000   1.0000   1.0000   1.0000   1.0000
     1.0000   1.0000   1.0000   1.0000   1.0000   1.0000   1.0000   1.0000
     1.0000   1.0000   1.0000   1.0000   1.0000   1.0000   1.0000   1.0000
     1.0000   1.0000   1.0000   1.0000   1.0000   1.0000   1.0000   1.0000
     1.0000   1.0000   1.0000   1.0000   1.0000   1.0000   1.0000   1.0000
     1.0000   1.0000   1.0000   1.0000   1.0000   1.0000   1.0000   1.0000
     1.0000   1.0000   1.0000   1.0000   1.0000   1.0000   1.0000   1.0000
     1.0000   1.0000   1.0000   1.0000   1.0000   1.0000   1.0000   1.0000
     1.0000   1.0000   1.0000   1.0000   1.0000   1.0000   1.0000   1.0000

          k = 0.3333 0.3333 0.2148 ( 36496 PWs)   bands (ev):

   -34.5845 -34.5830 -34.5599 -34.5586 -34.5486 -34.5322 -34.5318 -34.5303
   -34.5290 -34.5277 -34.5235 -34.5232 -34.5197 -34.5196 -34.5187 -34.5172
   -34.5172 -34.5159 -34.5158 -34.5146 -34.5121 -34.5108 -34.5095 -34.5092
   -34.5079 -34.3683 -34.3636 -34.3622 -34.3621 -34.3548 -34.3534 -34.3492
   -34.3472 -34.3435 -34.3427 -11.0132 -11.0015 -11.0007 -10.9960 -10.9930
   -10.9835 -10.9740 -10.9628 -10.9488 -10.9315 -10.8860 -10.8822 -10.8667
   -10.8633 -10.8166 -10.8094 -10.7965 -10.7922 -10.7800 -10.7708 -10.7582
   -10.7521 -10.7437 -10.7413 -10.7344 -10.7325 -10.7290 -10.7241 -10.7170
   -10.7163 -10.7131 -10.7109 -10.7070 -10.7058 -10.7002 -10.6948 -10.6926
   -10.6917 -10.6899 -10.6849 -10.6838 -10.6801 -10.6716 -10.6704 -10.6616
   -10.6606 -10.6601 -10.6592 -10.6578 -10.6537 -10.6527 -10.6463 -10.6460
   -10.6405 -10.6362 -10.6342 -10.6332 -10.6298 -10.6291 -10.6234 -10.6215
   -10.6204 -10.6178 -10.6087 -10.6003 -10.5999 -10.5992 -10.5949 -10.5948
   -10.5945 -10.5866 -10.5864 -10.5834 -10.5828 -10.5770 -10.5745 -10.5649
   -10.5495 -10.5493 -10.5419  -7.7583  -7.7431  -7.2085  -7.1949  -7.1853
    -7.1707  -6.7639  -6.7517  -5.9496  -5.9442  -5.8521  -5.8476  -5.8319
    -5.8273  -5.4852  -5.4834  -1.2462  -0.8942  -0.6725  -0.6457  -0.4016
    -0.2874  -0.2103   0.5142   0.6831   0.8182   0.9376   0.9585   0.9597
     1.0039   1.2750   1.4216   1.5860   1.9810   2.0256   2.2394   2.2471
     2.9519   3.0237   5.3566   5.4118   5.4888   5.4924   5.4963   5.6705
     5.6840   5.7134   6.3419   6.5376   6.5438   6.6016   6.6286   6.6603
     6.6924   6.9499   6.9616   7.2077   7.2497   7.2510   7.3080   7.3412
     7.3901   7.4022   7.4466   7.5241   7.6625   7.7743   7.8192   7.9308
     8.0851   8.3920   8.4953   8.5483   8.5504   8.7312   8.9277   9.0088
     9.0136   9.2538   9.2565   9.3656   9.3865   9.3881   9.3910   9.4033
     9.4601   9.6913   9.7037   9.7470   9.8284   9.9585   9.9893  10.0481
    10.0797  10.1446  10.2870  10.3223  10.4039  10.5714  10.5991  10.6452
    10.6886  10.7564  11.1065  11.2645  11.2842  11.3001  11.4727  13.0095

     occupation numbers 
     1.0000   1.0000   1.0000   1.0000   1.0000   1.0000   1.0000   1.0000
     1.0000   1.0000   1.0000   1.0000   1.0000   1.0000   1.0000   1.0000
     1.0000   1.0000   1.0000   1.0000   1.0000   1.0000   1.0000   1.0000
     1.0000   1.0000   1.0000   1.0000   1.0000   1.0000   1.0000   1.0000
     1.0000   1.0000   1.0000   1.0000   1.0000   1.0000   1.0000   1.0000
     1.0000   1.0000   1.0000   1.0000   1.0000   1.0000   1.0000   1.0000
     1.0000   1.0000   1.0000   1.0000   1.0000   1.0000   1.0000   1.0000
     1.0000   1.0000   1.0000   1.0000   1.0000   1.0000   1.0000   1.0000
     1.0000   1.0000   1.0000   1.0000   1.0000   1.0000   1.0000   1.0000
     1.0000   1.0000   1.0000   1.0000   1.0000   1.0000   1.0000   1.0000
     1.0000   1.0000   1.0000   1.0000   1.0000   1.0000   1.0000   1.0000
     1.0000   1.0000   1.0000   1.0000   1.0000   1.0000   1.0000   1.0000
     1.0000   1.0000   1.0000   1.0000   1.0000   1.0000   1.0000   1.0000
     1.0000   1.0000   1.0000   1.0000   1.0000   1.0000   1.0000   1.0000
     1.0000   1.0000   1.0000   1.0000   1.0000   1.0000   1.0000   1.0000
     1.0000   1.0000   1.0000   1.0000   1.0000   1.0000   1.0000   1.0000
     1.0000   1.0000   1.0000   1.0000   1.0000   1.0000   1.0000   1.0000
     1.0000   1.0000   1.0000   1.0000   1.0000   1.0000   1.0000   1.0000
     1.0000   1.0000   1.0000   1.0000   1.0000   1.0000   1.0000   1.0000
     1.0000   1.0000   1.0000   1.0000   1.0000   1.0000   1.0000   1.0000
     1.0000   1.0000   1.0000   1.0000   1.0000   1.0000   1.0000   1.0000
     1.0000   1.0000   1.0000   1.0000   1.0000   1.0000   1.0000   1.0000
     1.0000   1.0000   1.0000   1.0000   1.0000   1.0000   1.0000   1.0000
     1.0000   1.0000   1.0000   1.0000   1.0000   1.0000   1.0000   1.0000
     1.0000   1.0000   1.0000   1.0000   1.0000   1.0000   1.0000   1.0000
     1.0000   1.0000   1.0000   1.0000   1.0000   1.0000   1.0000   1.0000
     1.0000   1.0000   1.0000   1.0000   1.0000   1.0000   1.0000   1.0000
     1.0000   1.0000   1.0000   1.0000   1.0000   1.0000   1.0000   1.0000

          k = 0.3333 0.3333-0.3222 ( 36486 PWs)   bands (ev):

   -34.5845 -34.5838 -34.5588 -34.5587 -34.5473 -34.5340 -34.5311 -34.5301
   -34.5283 -34.5271 -34.5235 -34.5228 -34.5226 -34.5188 -34.5188 -34.5187
   -34.5162 -34.5153 -34.5145 -34.5141 -34.5130 -34.5121 -34.5113 -34.5040
   -34.5026 -34.3689 -34.3644 -34.3621 -34.3619 -34.3538 -34.3533 -34.3480
   -34.3475 -34.3462 -34.3374 -11.0111 -11.0034 -10.9993 -10.9948 -10.9944
   -10.9852 -10.9723 -10.9646 -10.9461 -10.9347 -10.8840 -10.8801 -10.8690
   -10.8656 -10.8164 -10.8092 -10.7962 -10.7921 -10.7803 -10.7705 -10.7578
   -10.7525 -10.7430 -10.7411 -10.7339 -10.7335 -10.7295 -10.7247 -10.7182
   -10.7151 -10.7124 -10.7124 -10.7081 -10.7055 -10.7002 -10.6928 -10.6928
   -10.6898 -10.6894 -10.6870 -10.6856 -10.6809 -10.6699 -10.6691 -10.6621
   -10.6620 -10.6579 -10.6569 -10.6549 -10.6547 -10.6504 -10.6492 -10.6472
   -10.6401 -10.6377 -10.6337 -10.6333 -10.6279 -10.6278 -10.6269 -10.6200
   -10.6195 -10.6171 -10.6087 -10.6009 -10.6002 -10.5990 -10.5962 -10.5954
   -10.5953 -10.5860 -10.5858 -10.5840 -10.5835 -10.5768 -10.5747 -10.5652
   -10.5496 -10.5494 -10.5420  -7.7510  -7.7504  -7.2027  -7.2007  -7.1780
    -7.1779  -6.7583  -6.7573  -5.9469  -5.9469  -5.8502  -5.8496  -5.8297
    -5.8296  -5.4843  -5.4843  -1.1993  -0.9534  -0.6412  -0.6388  -0.4442
    -0.2819  -0.2297   0.5197   0.6543   0.8153   0.9456   0.9605   1.0083
     1.0894   1.1722   1.5086   1.5097   2.0909   2.1246   2.1424   2.1434
     2.9462   3.0214   5.3446   5.4066   5.4763   5.5722   5.5743   5.5845
     5.6012   5.7195   6.4178   6.5069   6.5744   6.6037   6.6968   6.7361
     6.8128   6.8188   6.8650   7.0114   7.2596   7.2919   7.3267   7.3338
     7.3716   7.3931   7.3993   7.4835   7.7064   7.7800   7.7966   7.8793
     8.1894   8.3128   8.6893   8.7656   8.8095   8.8102   8.8371   8.8382
     9.0406   9.0901   9.2744   9.2787   9.3018   9.3027   9.3824   9.3851
     9.4712   9.6915   9.7071   9.7947   9.8127   9.8680  10.0063  10.0609
    10.0810  10.1250  10.3031  10.4088  10.5069  10.5345  10.5784  10.6198
    10.6348  10.7329  11.1470  11.2790  11.2835  11.3221  11.4530  13.0881

     occupation numbers 
     1.0000   1.0000   1.0000   1.0000   1.0000   1.0000   1.0000   1.0000
     1.0000   1.0000   1.0000   1.0000   1.0000   1.0000   1.0000   1.0000
     1.0000   1.0000   1.0000   1.0000   1.0000   1.0000   1.0000   1.0000
     1.0000   1.0000   1.0000   1.0000   1.0000   1.0000   1.0000   1.0000
     1.0000   1.0000   1.0000   1.0000   1.0000   1.0000   1.0000   1.0000
     1.0000   1.0000   1.0000   1.0000   1.0000   1.0000   1.0000   1.0000
     1.0000   1.0000   1.0000   1.0000   1.0000   1.0000   1.0000   1.0000
     1.0000   1.0000   1.0000   1.0000   1.0000   1.0000   1.0000   1.0000
     1.0000   1.0000   1.0000   1.0000   1.0000   1.0000   1.0000   1.0000
     1.0000   1.0000   1.0000   1.0000   1.0000   1.0000   1.0000   1.0000
     1.0000   1.0000   1.0000   1.0000   1.0000   1.0000   1.0000   1.0000
     1.0000   1.0000   1.0000   1.0000   1.0000   1.0000   1.0000   1.0000
     1.0000   1.0000   1.0000   1.0000   1.0000   1.0000   1.0000   1.0000
     1.0000   1.0000   1.0000   1.0000   1.0000   1.0000   1.0000   1.0000
     1.0000   1.0000   1.0000   1.0000   1.0000   1.0000   1.0000   1.0000
     1.0000   1.0000   1.0000   1.0000   1.0000   1.0000   1.0000   1.0000
     1.0000   1.0000   1.0000   1.0000   1.0000   1.0000   1.0000   1.0000
     1.0000   1.0000   1.0000   1.0000   1.0000   1.0000   1.0000   1.0000
     1.0000   1.0000   1.0000   1.0000   1.0000   1.0000   1.0000   1.0000
     1.0000   1.0000   1.0000   1.0000   1.0000   1.0000   1.0000   1.0000
     1.0000   1.0000   1.0000   1.0000   1.0000   1.0000   1.0000   1.0000
     1.0000   1.0000   1.0000   1.0000   1.0000   1.0000   1.0000   1.0000
     1.0000   1.0000   1.0000   1.0000   1.0000   1.0000   1.0000   1.0000
     1.0000   1.0000   1.0000   1.0000   1.0000   1.0000   1.0000   1.0000
     1.0000   1.0000   1.0000   1.0000   1.0000   1.0000   1.0000   1.0000
     1.0000   1.0000   1.0000   1.0000   1.0000   1.0000   1.0000   1.0000
     1.0000   1.0000   1.0000   1.0000   1.0000   1.0000   1.0000   1.0000
     1.0000   1.0000   1.0000   1.0000   1.0000   1.0000   1.0000   1.0000

          k = 0.3333-0.5000 0.0000 ( 36510 PWs)   bands (ev):

   -34.5827 -34.5823 -34.5613 -34.5602 -34.5509 -34.5303 -34.5299 -34.5280
   -34.5280 -34.5267 -34.5255 -34.5209 -34.5204 -34.5200 -34.5199 -34.5189
   -34.5188 -34.5174 -34.5169 -34.5153 -34.5149 -34.5112 -34.5110 -34.5090
   -34.5086 -34.3654 -34.3644 -34.3616 -34.3612 -34.3560 -34.3544 -34.3504
   -34.3488 -34.3440 -34.3435 -11.0144 -11.0017 -11.0016 -10.9974 -10.9850
   -10.9842 -10.9779 -10.9605 -10.9270 -10.9170 -10.8979 -10.8869 -10.8488
   -10.8435 -10.8174 -10.8143 -10.8133 -10.7954 -10.7944 -10.7685 -10.7593
   -10.7490 -10.7474 -10.7354 -10.7345 -10.7296 -10.7247 -10.7234 -10.7211
   -10.7157 -10.7127 -10.7118 -10.7077 -10.7074 -10.7060 -10.7059 -10.6905
   -10.6892 -10.6819 -10.6813 -10.6789 -10.6746 -10.6714 -10.6696 -10.6670
   -10.6647 -10.6628 -10.6611 -10.6540 -10.6482 -10.6477 -10.6472 -10.6461
   -10.6422 -10.6422 -10.6372 -10.6347 -10.6338 -10.6321 -10.6293 -10.6248
   -10.6247 -10.6194 -10.6190 -10.5987 -10.5984 -10.5968 -10.5944 -10.5935
   -10.5933 -10.5889 -10.5865 -10.5840 -10.5815 -10.5794 -10.5771 -10.5584
   -10.5569 -10.5464 -10.5459  -7.5460  -7.5144  -7.4911  -7.4630  -7.0349
    -7.0068  -6.9849  -6.9596  -5.8977  -5.8880  -5.8519  -5.8428  -5.6521
    -5.6465  -5.6053  -5.5998  -1.1323  -1.0168  -0.6292  -0.5454  -0.5259
    -0.3551  -0.2195   0.5811   0.7817   0.7828   0.8142   0.8568   0.8572
     1.0782   1.2287   1.6150   1.6634   2.0310   2.0315   2.3995   2.5534
     2.7329   2.7528   5.2995   5.3322   5.3396   5.4119   5.5040   5.5488
     5.7203   5.7887   6.2083   6.3457   6.7372   6.7967   6.8421   6.8582
     6.9327   6.9977   7.0396   7.0573   7.0587   7.1381   7.3569   7.4031
     7.4524   7.4984   7.5577   7.5715   7.8872   7.8935   7.9419   7.9600
     7.9884   8.0025   8.0640   8.0756   8.0827   8.1235   9.3328   9.3338
     9.3630   9.3818   9.4024   9.4085   9.4761   9.5029   9.5121   9.5125
     9.5734   9.5840   9.7165   9.7553   9.8012   9.9143   9.9417   9.9727
    10.0143  10.0481  10.2085  10.3977  10.4034  10.4347  10.7531  10.7531
    10.8162  10.9097  10.9369  11.2357  11.2725  11.3649  11.3757  12.7266

     occupation numbers 
     1.0000   1.0000   1.0000   1.0000   1.0000   1.0000   1.0000   1.0000
     1.0000   1.0000   1.0000   1.0000   1.0000   1.0000   1.0000   1.0000
     1.0000   1.0000   1.0000   1.0000   1.0000   1.0000   1.0000   1.0000
     1.0000   1.0000   1.0000   1.0000   1.0000   1.0000   1.0000   1.0000
     1.0000   1.0000   1.0000   1.0000   1.0000   1.0000   1.0000   1.0000
     1.0000   1.0000   1.0000   1.0000   1.0000   1.0000   1.0000   1.0000
     1.0000   1.0000   1.0000   1.0000   1.0000   1.0000   1.0000   1.0000
     1.0000   1.0000   1.0000   1.0000   1.0000   1.0000   1.0000   1.0000
     1.0000   1.0000   1.0000   1.0000   1.0000   1.0000   1.0000   1.0000
     1.0000   1.0000   1.0000   1.0000   1.0000   1.0000   1.0000   1.0000
     1.0000   1.0000   1.0000   1.0000   1.0000   1.0000   1.0000   1.0000
     1.0000   1.0000   1.0000   1.0000   1.0000   1.0000   1.0000   1.0000
     1.0000   1.0000   1.0000   1.0000   1.0000   1.0000   1.0000   1.0000
     1.0000   1.0000   1.0000   1.0000   1.0000   1.0000   1.0000   1.0000
     1.0000   1.0000   1.0000   1.0000   1.0000   1.0000   1.0000   1.0000
     1.0000   1.0000   1.0000   1.0000   1.0000   1.0000   1.0000   1.0000
     1.0000   1.0000   1.0000   1.0000   1.0000   1.0000   1.0000   1.0000
     1.0000   1.0000   1.0000   1.0000   1.0000   1.0000   1.0000   1.0000
     1.0000   1.0000   1.0000   1.0000   1.0000   1.0000   1.0000   1.0000
     1.0000   1.0000   1.0000   1.0000   1.0000   1.0000   1.0000   1.0000
     1.0000   1.0000   1.0000   1.0000   1.0000   1.0000   1.0000   1.0000
     1.0000   1.0000   1.0000   1.0000   1.0000   1.0000   1.0000   1.0000
     1.0000   1.0000   1.0000   1.0000   1.0000   1.0000   1.0000   1.0000
     1.0000   1.0000   1.0000   1.0000   1.0000   1.0000   1.0000   1.0000
     1.0000   1.0000   1.0000   1.0000   1.0000   1.0000   1.0000   1.0000
     1.0000   1.0000   1.0000   1.0000   1.0000   1.0000   1.0000   1.0000
     1.0000   1.0000   1.0000   1.0000   1.0000   1.0000   1.0000   1.0000
     1.0000   1.0000   1.0000   1.0000   1.0000   1.0000   1.0000   1.0000

          k = 0.3333-0.5000 0.1074 ( 36500 PWs)   bands (ev):

   -34.5833 -34.5828 -34.5602 -34.5593 -34.5489 -34.5305 -34.5301 -34.5286
   -34.5284 -34.5266 -34.5255 -34.5230 -34.5224 -34.5187 -34.5186 -34.5181
   -34.5180 -34.5163 -34.5162 -34.5150 -34.5149 -34.5098 -34.5096 -34.5073
   -34.5072 -34.3656 -34.3650 -34.3627 -34.3621 -34.3549 -34.3538 -34.3493
   -34.3483 -34.3425 -34.3423 -11.0134 -11.0008 -11.0007 -10.9984 -10.9861
   -10.9853 -10.9770 -10.9615 -10.9255 -10.9157 -10.8997 -10.8886 -10.8481
   -10.8428 -10.8186 -10.8144 -10.8140 -10.7951 -10.7942 -10.7682 -10.7589
   -10.7493 -10.7470 -10.7352 -10.7342 -10.7302 -10.7254 -10.7228 -10.7217
   -10.7166 -10.7141 -10.7131 -10.7076 -10.7069 -10.7063 -10.7028 -10.6907
   -10.6895 -10.6825 -10.6812 -10.6785 -10.6749 -10.6723 -10.6677 -10.6672
   -10.6641 -10.6606 -10.6598 -10.6530 -10.6484 -10.6476 -10.6474 -10.6461
   -10.6436 -10.6423 -10.6369 -10.6348 -10.6341 -10.6332 -10.6288 -10.6237
   -10.6236 -10.6191 -10.6187 -10.5995 -10.5993 -10.5964 -10.5951 -10.5941
   -10.5931 -10.5893 -10.5869 -10.5838 -10.5813 -10.5796 -10.5773 -10.5586
   -10.5571 -10.5465 -10.5459  -7.5439  -7.5165  -7.4893  -7.4648  -7.0331
    -7.0087  -6.9832  -6.9613  -5.8971  -5.8887  -5.8514  -5.8434  -5.6517
    -5.6469  -5.6049  -5.6002  -1.1070  -1.0012  -0.6659  -0.5363  -0.5254
    -0.3827  -0.2423   0.5603   0.7859   0.8197   0.8337   0.8582   0.8595
     1.0858   1.2098   1.6481   1.6921   2.0079   2.0094   2.4161   2.5603
     2.7171   2.7288   5.3203   5.3458   5.3568   5.3660   5.5280   5.5454
     5.7022   5.7528   6.2538   6.3895   6.7649   6.8150   6.8464   6.8575
     6.8827   6.9440   7.0010   7.0305   7.1099   7.1837   7.3715   7.4128
     7.4198   7.4877   7.5450   7.5730   7.6906   7.7041   7.7602   7.8665
     7.9469   7.9767   8.2757   8.3144   8.3408   8.3561   9.3007   9.3226
     9.3255   9.3335   9.3834   9.4000   9.4822   9.4928   9.5132   9.5156
     9.5971   9.6107   9.6347   9.6676   9.8421   9.9170   9.9312  10.0082
    10.0118  10.0371  10.2540  10.3783  10.4311  10.4351  10.6405  10.7159
    10.8638  10.8815  10.8824  11.2673  11.2999  11.3797  11.3892  12.7856

     occupation numbers 
     1.0000   1.0000   1.0000   1.0000   1.0000   1.0000   1.0000   1.0000
     1.0000   1.0000   1.0000   1.0000   1.0000   1.0000   1.0000   1.0000
     1.0000   1.0000   1.0000   1.0000   1.0000   1.0000   1.0000   1.0000
     1.0000   1.0000   1.0000   1.0000   1.0000   1.0000   1.0000   1.0000
     1.0000   1.0000   1.0000   1.0000   1.0000   1.0000   1.0000   1.0000
     1.0000   1.0000   1.0000   1.0000   1.0000   1.0000   1.0000   1.0000
     1.0000   1.0000   1.0000   1.0000   1.0000   1.0000   1.0000   1.0000
     1.0000   1.0000   1.0000   1.0000   1.0000   1.0000   1.0000   1.0000
     1.0000   1.0000   1.0000   1.0000   1.0000   1.0000   1.0000   1.0000
     1.0000   1.0000   1.0000   1.0000   1.0000   1.0000   1.0000   1.0000
     1.0000   1.0000   1.0000   1.0000   1.0000   1.0000   1.0000   1.0000
     1.0000   1.0000   1.0000   1.0000   1.0000   1.0000   1.0000   1.0000
     1.0000   1.0000   1.0000   1.0000   1.0000   1.0000   1.0000   1.0000
     1.0000   1.0000   1.0000   1.0000   1.0000   1.0000   1.0000   1.0000
     1.0000   1.0000   1.0000   1.0000   1.0000   1.0000   1.0000   1.0000
     1.0000   1.0000   1.0000   1.0000   1.0000   1.0000   1.0000   1.0000
     1.0000   1.0000   1.0000   1.0000   1.0000   1.0000   1.0000   1.0000
     1.0000   1.0000   1.0000   1.0000   1.0000   1.0000   1.0000   1.0000
     1.0000   1.0000   1.0000   1.0000   1.0000   1.0000   1.0000   1.0000
     1.0000   1.0000   1.0000   1.0000   1.0000   1.0000   1.0000   1.0000
     1.0000   1.0000   1.0000   1.0000   1.0000   1.0000   1.0000   1.0000
     1.0000   1.0000   1.0000   1.0000   1.0000   1.0000   1.0000   1.0000
     1.0000   1.0000   1.0000   1.0000   1.0000   1.0000   1.0000   1.0000
     1.0000   1.0000   1.0000   1.0000   1.0000   1.0000   1.0000   1.0000
     1.0000   1.0000   1.0000   1.0000   1.0000   1.0000   1.0000   1.0000
     1.0000   1.0000   1.0000   1.0000   1.0000   1.0000   1.0000   1.0000
     1.0000   1.0000   1.0000   1.0000   1.0000   1.0000   1.0000   1.0000
     1.0000   1.0000   1.0000   1.0000   1.0000   1.0000   1.0000   1.0000

          k = 0.3333-0.5000 0.2148 ( 36496 PWs)   bands (ev):

   -34.5835 -34.5835 -34.5608 -34.5589 -34.5472 -34.5302 -34.5299 -34.5289
   -34.5282 -34.5282 -34.5279 -34.5228 -34.5221 -34.5195 -34.5194 -34.5179
   -34.5178 -34.5163 -34.5161 -34.5149 -34.5148 -34.5084 -34.5081 -34.5060
   -34.5059 -34.3668 -34.3657 -34.3629 -34.3615 -34.3556 -34.3536 -34.3500
   -34.3479 -34.3411 -34.3408 -11.0110 -11.0009 -10.9986 -10.9982 -10.9886
   -10.9878 -10.9747 -10.9642 -10.9219 -10.9126 -10.9041 -10.8925 -10.8465
   -10.8411 -10.8210 -10.8168 -10.8136 -10.7947 -10.7939 -10.7678 -10.7580
   -10.7500 -10.7461 -10.7345 -10.7336 -10.7316 -10.7267 -10.7228 -10.7216
   -10.7198 -10.7143 -10.7132 -10.7084 -10.7079 -10.7069 -10.6964 -10.6911
   -10.6899 -10.6856 -10.6794 -10.6790 -10.6743 -10.6736 -10.6688 -10.6636
   -10.6609 -10.6566 -10.6561 -10.6512 -10.6502 -10.6478 -10.6469 -10.6463
   -10.6457 -10.6424 -10.6397 -10.6363 -10.6349 -10.6329 -10.6275 -10.6215
   -10.6214 -10.6184 -10.6180 -10.6013 -10.6013 -10.5967 -10.5958 -10.5954
   -10.5920 -10.5904 -10.5880 -10.5833 -10.5807 -10.5801 -10.5779 -10.5589
   -10.5575 -10.5467 -10.5461  -7.5382  -7.5223  -7.4842  -7.4699  -7.0280
    -7.0139  -6.9787  -6.9659  -5.8953  -5.8904  -5.8497  -5.8450  -5.6507
    -5.6479  -5.6039  -5.6012  -1.0368  -0.9652  -0.7662  -0.5337  -0.4983
    -0.4310  -0.2974   0.5244   0.7945   0.8095   0.8343   0.9335   0.9407
     1.0834   1.1522   1.7344   1.7667   1.9416   1.9489   2.4611   2.5815
     2.6688   2.6779   5.2950   5.3608   5.4114   5.4254   5.4760   5.5603
     5.6586   5.6736   6.3779   6.5013   6.7349   6.8214   6.8568   6.8596
     6.8701   6.8939   6.9607   6.9964   7.1874   7.2436   7.2716   7.2883
     7.4103   7.4494   7.4597   7.5088   7.6123   7.6238   7.7197   7.7892
     7.9001   7.9341   8.5930   8.6256   8.6506   8.6837   9.1303   9.1586
     9.2404   9.2705   9.3837   9.3993   9.4667   9.4706   9.4920   9.4977
     9.5177   9.5192   9.6364   9.6614   9.9045   9.9353   9.9451   9.9983
    10.0189  10.0806  10.3478  10.3738  10.3800  10.4697  10.5425  10.5958
    10.7340  10.8772  10.9077  11.3067  11.3311  11.4026  11.4102  12.9498

     occupation numbers 
     1.0000   1.0000   1.0000   1.0000   1.0000   1.0000   1.0000   1.0000
     1.0000   1.0000   1.0000   1.0000   1.0000   1.0000   1.0000   1.0000
     1.0000   1.0000   1.0000   1.0000   1.0000   1.0000   1.0000   1.0000
     1.0000   1.0000   1.0000   1.0000   1.0000   1.0000   1.0000   1.0000
     1.0000   1.0000   1.0000   1.0000   1.0000   1.0000   1.0000   1.0000
     1.0000   1.0000   1.0000   1.0000   1.0000   1.0000   1.0000   1.0000
     1.0000   1.0000   1.0000   1.0000   1.0000   1.0000   1.0000   1.0000
     1.0000   1.0000   1.0000   1.0000   1.0000   1.0000   1.0000   1.0000
     1.0000   1.0000   1.0000   1.0000   1.0000   1.0000   1.0000   1.0000
     1.0000   1.0000   1.0000   1.0000   1.0000   1.0000   1.0000   1.0000
     1.0000   1.0000   1.0000   1.0000   1.0000   1.0000   1.0000   1.0000
     1.0000   1.0000   1.0000   1.0000   1.0000   1.0000   1.0000   1.0000
     1.0000   1.0000   1.0000   1.0000   1.0000   1.0000   1.0000   1.0000
     1.0000   1.0000   1.0000   1.0000   1.0000   1.0000   1.0000   1.0000
     1.0000   1.0000   1.0000   1.0000   1.0000   1.0000   1.0000   1.0000
     1.0000   1.0000   1.0000   1.0000   1.0000   1.0000   1.0000   1.0000
     1.0000   1.0000   1.0000   1.0000   1.0000   1.0000   1.0000   1.0000
     1.0000   1.0000   1.0000   1.0000   1.0000   1.0000   1.0000   1.0000
     1.0000   1.0000   1.0000   1.0000   1.0000   1.0000   1.0000   1.0000
     1.0000   1.0000   1.0000   1.0000   1.0000   1.0000   1.0000   1.0000
     1.0000   1.0000   1.0000   1.0000   1.0000   1.0000   1.0000   1.0000
     1.0000   1.0000   1.0000   1.0000   1.0000   1.0000   1.0000   1.0000
     1.0000   1.0000   1.0000   1.0000   1.0000   1.0000   1.0000   1.0000
     1.0000   1.0000   1.0000   1.0000   1.0000   1.0000   1.0000   1.0000
     1.0000   1.0000   1.0000   1.0000   1.0000   1.0000   1.0000   1.0000
     1.0000   1.0000   1.0000   1.0000   1.0000   1.0000   1.0000   1.0000
     1.0000   1.0000   1.0000   1.0000   1.0000   1.0000   1.0000   1.0000
     1.0000   1.0000   1.0000   1.0000   1.0000   1.0000   1.0000   1.0000

          k = 0.3333-0.5000-0.3222 ( 36484 PWs)   bands (ev):

   -34.5840 -34.5827 -34.5597 -34.5583 -34.5470 -34.5308 -34.5305 -34.5296
   -34.5287 -34.5277 -34.5270 -34.5210 -34.5203 -34.5193 -34.5192 -34.5179
   -34.5178 -34.5150 -34.5149 -34.5134 -34.5131 -34.5086 -34.5081 -34.5064
   -34.5060 -34.3670 -34.3662 -34.3620 -34.3602 -34.3547 -34.3529 -34.3491
   -34.3473 -34.3417 -34.3408 -11.0091 -11.0027 -10.9971 -10.9963 -10.9903
   -10.9898 -10.9730 -10.9660 -10.9193 -10.9105 -10.9071 -10.8950 -10.8456
   -10.8401 -10.8222 -10.8181 -10.8134 -10.7945 -10.7937 -10.7675 -10.7576
   -10.7504 -10.7457 -10.7334 -10.7332 -10.7331 -10.7274 -10.7233 -10.7212
   -10.7208 -10.7150 -10.7123 -10.7096 -10.7080 -10.7070 -10.6913 -10.6904
   -10.6902 -10.6900 -10.6795 -10.6774 -10.6764 -10.6718 -10.6706 -10.6608
   -10.6575 -10.6561 -10.6533 -10.6517 -10.6508 -10.6480 -10.6458 -10.6458
   -10.6456 -10.6448 -10.6427 -10.6374 -10.6352 -10.6321 -10.6267 -10.6204
   -10.6202 -10.6179 -10.6175 -10.6024 -10.6024 -10.5976 -10.5968 -10.5947
   -10.5912 -10.5911 -10.5888 -10.5830 -10.5804 -10.5803 -10.5783 -10.5590
   -10.5576 -10.5468 -10.5462  -7.5310  -7.5295  -7.4786  -7.4755  -7.0213
    -7.0206  -6.9736  -6.9710  -5.8930  -5.8928  -5.8476  -5.8471  -5.6493
    -5.6492  -5.6026  -5.6025  -0.9690  -0.9438  -0.8494  -0.5477  -0.4660
    -0.4477  -0.3367   0.5077   0.7993   0.8009   0.8283   0.9809   1.0535
     1.0614   1.0681   1.8301   1.8561   1.8608   1.8616   2.4987   2.6047
     2.6235   2.6457   5.2718   5.4060   5.4217   5.4683   5.5199   5.5278
     5.5470   5.6705   6.5180   6.5928   6.5930   6.7448   6.8769   6.8804
     6.9181   6.9192   6.9973   7.0265   7.0614   7.1518   7.2807   7.2915
     7.3385   7.4230   7.4482   7.5371   7.5700   7.5745   7.7966   7.8089
     7.8411   7.8959   8.8501   8.8751   8.9167   8.9508   8.9785   8.9798
     8.9827   9.0708   9.3919   9.3982   9.4049   9.4133   9.4902   9.5028
     9.5156   9.5198   9.6542   9.6916   9.8957   9.9237   9.9605   9.9960
    10.1056  10.1340  10.2165  10.4323  10.4450  10.4624  10.5058  10.5608
    10.6164  10.8823  10.9164  11.3213  11.3404  11.4107  11.4171  13.1251

     occupation numbers 
     1.0000   1.0000   1.0000   1.0000   1.0000   1.0000   1.0000   1.0000
     1.0000   1.0000   1.0000   1.0000   1.0000   1.0000   1.0000   1.0000
     1.0000   1.0000   1.0000   1.0000   1.0000   1.0000   1.0000   1.0000
     1.0000   1.0000   1.0000   1.0000   1.0000   1.0000   1.0000   1.0000
     1.0000   1.0000   1.0000   1.0000   1.0000   1.0000   1.0000   1.0000
     1.0000   1.0000   1.0000   1.0000   1.0000   1.0000   1.0000   1.0000
     1.0000   1.0000   1.0000   1.0000   1.0000   1.0000   1.0000   1.0000
     1.0000   1.0000   1.0000   1.0000   1.0000   1.0000   1.0000   1.0000
     1.0000   1.0000   1.0000   1.0000   1.0000   1.0000   1.0000   1.0000
     1.0000   1.0000   1.0000   1.0000   1.0000   1.0000   1.0000   1.0000
     1.0000   1.0000   1.0000   1.0000   1.0000   1.0000   1.0000   1.0000
     1.0000   1.0000   1.0000   1.0000   1.0000   1.0000   1.0000   1.0000
     1.0000   1.0000   1.0000   1.0000   1.0000   1.0000   1.0000   1.0000
     1.0000   1.0000   1.0000   1.0000   1.0000   1.0000   1.0000   1.0000
     1.0000   1.0000   1.0000   1.0000   1.0000   1.0000   1.0000   1.0000
     1.0000   1.0000   1.0000   1.0000   1.0000   1.0000   1.0000   1.0000
     1.0000   1.0000   1.0000   1.0000   1.0000   1.0000   1.0000   1.0000
     1.0000   1.0000   1.0000   1.0000   1.0000   1.0000   1.0000   1.0000
     1.0000   1.0000   1.0000   1.0000   1.0000   1.0000   1.0000   1.0000
     1.0000   1.0000   1.0000   1.0000   1.0000   1.0000   1.0000   1.0000
     1.0000   1.0000   1.0000   1.0000   1.0000   1.0000   1.0000   1.0000
     1.0000   1.0000   1.0000   1.0000   1.0000   1.0000   1.0000   1.0000
     1.0000   1.0000   1.0000   1.0000   1.0000   1.0000   1.0000   1.0000
     1.0000   1.0000   1.0000   1.0000   1.0000   1.0000   1.0000   1.0000
     1.0000   1.0000   1.0000   1.0000   1.0000   1.0000   1.0000   1.0000
     1.0000   1.0000   1.0000   1.0000   1.0000   1.0000   1.0000   1.0000
     1.0000   1.0000   1.0000   1.0000   1.0000   1.0000   1.0000   1.0000
     1.0000   1.0000   1.0000   1.0000   1.0000   1.0000   1.0000   1.0000

          k =-0.5000-0.5000 0.0000 ( 36452 PWs)   bands (ev):

   -34.5805 -34.5787 -34.5575 -34.5575 -34.5504 -34.5286 -34.5285 -34.5261
   -34.5257 -34.5220 -34.5210 -34.5210 -34.5199 -34.5161 -34.5161 -34.5151
   -34.5151 -34.5140 -34.5139 -34.5117 -34.5117 -34.5102 -34.5097 -34.5078
   -34.5078 -34.3642 -34.3642 -34.3582 -34.3582 -34.3525 -34.3508 -34.3468
   -34.3452 -34.3426 -34.3426 -11.0133 -11.0019 -11.0019 -10.9979 -10.9849
   -10.9849 -10.9781 -10.9610 -10.8942 -10.8809 -10.8809 -10.8761 -10.8636
   -10.8501 -10.8501 -10.8455 -10.8129 -10.7948 -10.7948 -10.7624 -10.7591
   -10.7449 -10.7421 -10.7421 -10.7351 -10.7284 -10.7277 -10.7242 -10.7242
   -10.7154 -10.7154 -10.7125 -10.7101 -10.7095 -10.7071 -10.7071 -10.6900
   -10.6900 -10.6828 -10.6763 -10.6706 -10.6706 -10.6680 -10.6643 -10.6591
   -10.6589 -10.6547 -10.6547 -10.6529 -10.6529 -10.6483 -10.6455 -10.6455
   -10.6450 -10.6449 -10.6426 -10.6424 -10.6373 -10.6365 -10.6365 -10.6278
   -10.6278 -10.6251 -10.6238 -10.5993 -10.5993 -10.5961 -10.5942 -10.5919
   -10.5894 -10.5894 -10.5861 -10.5852 -10.5838 -10.5838 -10.5804 -10.5542
   -10.5527 -10.5527 -10.5522  -7.3578  -7.3268  -7.2823  -7.2823  -7.2529
    -7.2522  -7.2522  -7.2284  -5.7604  -5.7533  -5.7259  -5.7259  -5.7191
    -5.7191  -5.6677  -5.6611  -0.9272  -0.8497  -0.8497  -0.7385  -0.4888
    -0.3723  -0.3723   0.6130   0.7760   0.8061   0.8093   0.8093   0.9847
     1.0202   1.0202   1.9490   2.1646   2.1667   2.1667   2.4113   2.4113
     2.4310   2.4502   5.2088   5.2463   5.2463   5.3774   5.4159   5.6328
     5.6723   5.6723   6.7094   6.7621   6.7622   6.7622   6.7724   6.8727
     6.9353   6.9353   7.1656   7.1891   7.2553   7.2879   7.2879   7.2973
     7.2973   7.3658   7.5195   7.5195   7.5195   7.5576   7.8838   7.9094
     7.9398   7.9919   7.9919   8.0083   8.0083   8.0682   9.5084   9.5288
     9.5288   9.5460   9.5489   9.5489   9.5501   9.5650   9.5684   9.5697
     9.5948   9.5948   9.6449   9.6515   9.6843   9.6843   9.8546   9.9022
     9.9022   9.9967  10.0628  10.2932  10.4588  10.4588  10.9093  10.9631
    10.9631  11.1759  11.2011  11.2403  11.2403  11.4405  11.4921  12.3953

     occupation numbers 
     1.0000   1.0000   1.0000   1.0000   1.0000   1.0000   1.0000   1.0000
     1.0000   1.0000   1.0000   1.0000   1.0000   1.0000   1.0000   1.0000
     1.0000   1.0000   1.0000   1.0000   1.0000   1.0000   1.0000   1.0000
     1.0000   1.0000   1.0000   1.0000   1.0000   1.0000   1.0000   1.0000
     1.0000   1.0000   1.0000   1.0000   1.0000   1.0000   1.0000   1.0000
     1.0000   1.0000   1.0000   1.0000   1.0000   1.0000   1.0000   1.0000
     1.0000   1.0000   1.0000   1.0000   1.0000   1.0000   1.0000   1.0000
     1.0000   1.0000   1.0000   1.0000   1.0000   1.0000   1.0000   1.0000
     1.0000   1.0000   1.0000   1.0000   1.0000   1.0000   1.0000   1.0000
     1.0000   1.0000   1.0000   1.0000   1.0000   1.0000   1.0000   1.0000
     1.0000   1.0000   1.0000   1.0000   1.0000   1.0000   1.0000   1.0000
     1.0000   1.0000   1.0000   1.0000   1.0000   1.0000   1.0000   1.0000
     1.0000   1.0000   1.0000   1.0000   1.0000   1.0000   1.0000   1.0000
     1.0000   1.0000   1.0000   1.0000   1.0000   1.0000   1.0000   1.0000
     1.0000   1.0000   1.0000   1.0000   1.0000   1.0000   1.0000   1.0000
     1.0000   1.0000   1.0000   1.0000   1.0000   1.0000   1.0000   1.0000
     1.0000   1.0000   1.0000   1.0000   1.0000   1.0000   1.0000   1.0000
     1.0000   1.0000   1.0000   1.0000   1.0000   1.0000   1.0000   1.0000
     1.0000   1.0000   1.0000   1.0000   1.0000   1.0000   1.0000   1.0000
     1.0000   1.0000   1.0000   1.0000   1.0000   1.0000   1.0000   1.0000
     1.0000   1.0000   1.0000   1.0000   1.0000   1.0000   1.0000   1.0000
     1.0000   1.0000   1.0000   1.0000   1.0000   1.0000   1.0000   1.0000
     1.0000   1.0000   1.0000   1.0000   1.0000   1.0000   1.0000   1.0000
     1.0000   1.0000   1.0000   1.0000   1.0000   1.0000   1.0000   1.0000
     1.0000   1.0000   1.0000   1.0000   1.0000   1.0000   1.0000   1.0000
     1.0000   1.0000   1.0000   1.0000   1.0000   1.0000   1.0000   1.0000
     1.0000   1.0000   1.0000   1.0000   1.0000   1.0000   1.0000   1.0000
     1.0000   1.0000   1.0000   1.0000   1.0000   1.0000   1.0000   1.0000

          k =-0.5000-0.5000 0.1074 ( 36548 PWs)   bands (ev):

   -34.5843 -34.5843 -34.5619 -34.5619 -34.5507 -34.5309 -34.5309 -34.5288
   -34.5286 -34.5277 -34.5266 -34.5266 -34.5256 -34.5203 -34.5203 -34.5201
   -34.5200 -34.5177 -34.5176 -34.5174 -34.5174 -34.5110 -34.5107 -34.5090
   -34.5090 -34.3669 -34.3669 -34.3636 -34.3636 -34.3564 -34.3563 -34.3507
   -34.3506 -34.3437 -34.3437 -11.0124 -11.0010 -11.0010 -10.9988 -10.9859
   -10.9859 -10.9772 -10.9620 -10.8931 -10.8798 -10.8798 -10.8751 -10.8652
   -10.8517 -10.8517 -10.8470 -10.8128 -10.7946 -10.7946 -10.7624 -10.7587
   -10.7452 -10.7418 -10.7418 -10.7349 -10.7290 -10.7277 -10.7248 -10.7248
   -10.7162 -10.7154 -10.7154 -10.7097 -10.7075 -10.7075 -10.7051 -10.6901
   -10.6901 -10.6840 -10.6767 -10.6688 -10.6688 -10.6675 -10.6630 -10.6594
   -10.6581 -10.6547 -10.6547 -10.6527 -10.6527 -10.6479 -10.6452 -10.6452
   -10.6448 -10.6447 -10.6435 -10.6430 -10.6380 -10.6380 -10.6378 -10.6266
   -10.6266 -10.6243 -10.6229 -10.6003 -10.6003 -10.5969 -10.5951 -10.5917
   -10.5891 -10.5891 -10.5858 -10.5855 -10.5841 -10.5841 -10.5808 -10.5543
   -10.5528 -10.5528 -10.5523  -7.3558  -7.3289  -7.2803  -7.2803  -7.2542
    -7.2542  -7.2514  -7.2300  -5.7599  -5.7539  -5.7254  -5.7254  -5.7196
    -5.7196  -5.6673  -5.6616  -0.9038  -0.8292  -0.8292  -0.7333  -0.5258
    -0.4069  -0.4069   0.5620   0.8002   0.8339   0.8339   0.8470   0.9777
     1.0134   1.0134   1.9806   2.1799   2.1803   2.1803   2.3931   2.3931
     2.4112   2.4238   5.2346   5.2722   5.2722   5.2889   5.5096   5.6017
     5.6412   5.6412   6.7459   6.7779   6.7866   6.7866   6.8034   6.8858
     6.9433   6.9433   7.1064   7.1321   7.2132   7.2132   7.3290   7.3608
     7.3608   7.3879   7.5109   7.5109   7.5141   7.5479   7.5834   7.6247
     7.7080   7.7080   8.2717   8.3369   8.3369   8.3720   9.4975   9.5112
     9.5156   9.5156   9.5310   9.5310   9.5438   9.5510   9.5538   9.5538
     9.5565   9.5812   9.5987   9.6665   9.6941   9.6941   9.9136   9.9600
     9.9600   9.9717  10.0378  10.2778  10.4508  10.4508  10.8153  10.8680
    10.8680  11.1908  11.2159  11.2422  11.2422  11.4338  11.4786  12.4808

     occupation numbers 
     1.0000   1.0000   1.0000   1.0000   1.0000   1.0000   1.0000   1.0000
     1.0000   1.0000   1.0000   1.0000   1.0000   1.0000   1.0000   1.0000
     1.0000   1.0000   1.0000   1.0000   1.0000   1.0000   1.0000   1.0000
     1.0000   1.0000   1.0000   1.0000   1.0000   1.0000   1.0000   1.0000
     1.0000   1.0000   1.0000   1.0000   1.0000   1.0000   1.0000   1.0000
     1.0000   1.0000   1.0000   1.0000   1.0000   1.0000   1.0000   1.0000
     1.0000   1.0000   1.0000   1.0000   1.0000   1.0000   1.0000   1.0000
     1.0000   1.0000   1.0000   1.0000   1.0000   1.0000   1.0000   1.0000
     1.0000   1.0000   1.0000   1.0000   1.0000   1.0000   1.0000   1.0000
     1.0000   1.0000   1.0000   1.0000   1.0000   1.0000   1.0000   1.0000
     1.0000   1.0000   1.0000   1.0000   1.0000   1.0000   1.0000   1.0000
     1.0000   1.0000   1.0000   1.0000   1.0000   1.0000   1.0000   1.0000
     1.0000   1.0000   1.0000   1.0000   1.0000   1.0000   1.0000   1.0000
     1.0000   1.0000   1.0000   1.0000   1.0000   1.0000   1.0000   1.0000
     1.0000   1.0000   1.0000   1.0000   1.0000   1.0000   1.0000   1.0000
     1.0000   1.0000   1.0000   1.0000   1.0000   1.0000   1.0000   1.0000
     1.0000   1.0000   1.0000   1.0000   1.0000   1.0000   1.0000   1.0000
     1.0000   1.0000   1.0000   1.0000   1.0000   1.0000   1.0000   1.0000
     1.0000   1.0000   1.0000   1.0000   1.0000   1.0000   1.0000   1.0000
     1.0000   1.0000   1.0000   1.0000   1.0000   1.0000   1.0000   1.0000
     1.0000   1.0000   1.0000   1.0000   1.0000   1.0000   1.0000   1.0000
     1.0000   1.0000   1.0000   1.0000   1.0000   1.0000   1.0000   1.0000
     1.0000   1.0000   1.0000   1.0000   1.0000   1.0000   1.0000   1.0000
     1.0000   1.0000   1.0000   1.0000   1.0000   1.0000   1.0000   1.0000
     1.0000   1.0000   1.0000   1.0000   1.0000   1.0000   1.0000   1.0000
     1.0000   1.0000   1.0000   1.0000   1.0000   1.0000   1.0000   1.0000
     1.0000   1.0000   1.0000   1.0000   1.0000   1.0000   1.0000   1.0000
     1.0000   1.0000   1.0000   1.0000   1.0000   1.0000   1.0000   1.0000

          k =-0.5000-0.5000 0.2148 ( 36520 PWs)   bands (ev):

   -34.5854 -34.5854 -34.5592 -34.5592 -34.5483 -34.5315 -34.5315 -34.5297
   -34.5296 -34.5287 -34.5276 -34.5276 -34.5264 -34.5182 -34.5181 -34.5176
   -34.5176 -34.5155 -34.5154 -34.5151 -34.5150 -34.5094 -34.5089 -34.5075
   -34.5075 -34.3678 -34.3678 -34.3646 -34.3646 -34.3544 -34.3537 -34.3487
   -34.3481 -34.3420 -34.3420 -11.0102 -11.0012 -10.9987 -10.9987 -10.9884
   -10.9884 -10.9748 -10.9645 -10.8904 -10.8772 -10.8772 -10.8727 -10.8688
   -10.8551 -10.8551 -10.8503 -10.8124 -10.7942 -10.7942 -10.7622 -10.7577
   -10.7457 -10.7411 -10.7411 -10.7340 -10.7306 -10.7276 -10.7260 -10.7260
   -10.7192 -10.7153 -10.7153 -10.7100 -10.7084 -10.7084 -10.6985 -10.6903
   -10.6903 -10.6872 -10.6776 -10.6660 -10.6646 -10.6646 -10.6605 -10.6593
   -10.6564 -10.6564 -10.6552 -10.6505 -10.6505 -10.6468 -10.6467 -10.6463
   -10.6447 -10.6447 -10.6439 -10.6439 -10.6415 -10.6415 -10.6382 -10.6239
   -10.6239 -10.6224 -10.6206 -10.6026 -10.6026 -10.5986 -10.5970 -10.5911
   -10.5883 -10.5883 -10.5863 -10.5851 -10.5847 -10.5847 -10.5816 -10.5544
   -10.5531 -10.5531 -10.5525  -7.3502  -7.3346  -7.2748  -7.2748  -7.2598
    -7.2598  -7.2473  -7.2341  -5.7587  -5.7552  -5.7242  -5.7242  -5.7209
    -5.7209  -5.6661  -5.6628  -0.8378  -0.7763  -0.7763  -0.7227  -0.6178
    -0.4865  -0.4865   0.4892   0.8559   0.8901   0.8901   0.8993   0.9552
     0.9917   0.9917   2.0601   2.2195   2.2195   2.2240   2.3449   2.3449
     2.3551   2.3584   5.2153   5.3076   5.3457   5.3457   5.5194   5.5585
     5.5585   5.5941   6.8257   6.8524   6.8524   6.8583   6.8945   6.9253
     6.9662   6.9662   7.0008   7.0638   7.1274   7.1274   7.3079   7.3116
     7.4054   7.4054   7.4118   7.4261   7.4698   7.4698   7.5022   7.5217
     7.5261   7.5261   8.6402   8.6891   8.6891   8.7395   9.2952   9.3226
     9.3226   9.3877   9.5146   9.5302   9.5302   9.5424   9.5482   9.5482
     9.5515   9.5535   9.6577   9.7137   9.7137   9.7227   9.9103   9.9766
    10.0807  10.1184  10.1184  10.2486  10.4350  10.4350  10.5931  10.6509
    10.6509  11.2239  11.2422  11.2422  11.2496  11.4127  11.4454  12.7209

     occupation numbers 
     1.0000   1.0000   1.0000   1.0000   1.0000   1.0000   1.0000   1.0000
     1.0000   1.0000   1.0000   1.0000   1.0000   1.0000   1.0000   1.0000
     1.0000   1.0000   1.0000   1.0000   1.0000   1.0000   1.0000   1.0000
     1.0000   1.0000   1.0000   1.0000   1.0000   1.0000   1.0000   1.0000
     1.0000   1.0000   1.0000   1.0000   1.0000   1.0000   1.0000   1.0000
     1.0000   1.0000   1.0000   1.0000   1.0000   1.0000   1.0000   1.0000
     1.0000   1.0000   1.0000   1.0000   1.0000   1.0000   1.0000   1.0000
     1.0000   1.0000   1.0000   1.0000   1.0000   1.0000   1.0000   1.0000
     1.0000   1.0000   1.0000   1.0000   1.0000   1.0000   1.0000   1.0000
     1.0000   1.0000   1.0000   1.0000   1.0000   1.0000   1.0000   1.0000
     1.0000   1.0000   1.0000   1.0000   1.0000   1.0000   1.0000   1.0000
     1.0000   1.0000   1.0000   1.0000   1.0000   1.0000   1.0000   1.0000
     1.0000   1.0000   1.0000   1.0000   1.0000   1.0000   1.0000   1.0000
     1.0000   1.0000   1.0000   1.0000   1.0000   1.0000   1.0000   1.0000
     1.0000   1.0000   1.0000   1.0000   1.0000   1.0000   1.0000   1.0000
     1.0000   1.0000   1.0000   1.0000   1.0000   1.0000   1.0000   1.0000
     1.0000   1.0000   1.0000   1.0000   1.0000   1.0000   1.0000   1.0000
     1.0000   1.0000   1.0000   1.0000   1.0000   1.0000   1.0000   1.0000
     1.0000   1.0000   1.0000   1.0000   1.0000   1.0000   1.0000   1.0000
     1.0000   1.0000   1.0000   1.0000   1.0000   1.0000   1.0000   1.0000
     1.0000   1.0000   1.0000   1.0000   1.0000   1.0000   1.0000   1.0000
     1.0000   1.0000   1.0000   1.0000   1.0000   1.0000   1.0000   1.0000
     1.0000   1.0000   1.0000   1.0000   1.0000   1.0000   1.0000   1.0000
     1.0000   1.0000   1.0000   1.0000   1.0000   1.0000   1.0000   1.0000
     1.0000   1.0000   1.0000   1.0000   1.0000   1.0000   1.0000   1.0000
     1.0000   1.0000   1.0000   1.0000   1.0000   1.0000   1.0000   1.0000
     1.0000   1.0000   1.0000   1.0000   1.0000   1.0000   1.0000   1.0000
     1.0000   1.0000   1.0000   1.0000   1.0000   1.0000   1.0000   1.0000

          k =-0.5000-0.5000-0.3222 ( 36544 PWs)   bands (ev):

   -34.5866 -34.5836 -34.5611 -34.5611 -34.5496 -34.5330 -34.5330 -34.5312
   -34.5311 -34.5270 -34.5259 -34.5259 -34.5248 -34.5208 -34.5207 -34.5188
   -34.5188 -34.5182 -34.5182 -34.5162 -34.5159 -34.5109 -34.5102 -34.5086
   -34.5086 -34.3692 -34.3692 -34.3631 -34.3631 -34.3570 -34.3550 -34.3514
   -34.3493 -34.3431 -34.3431 -11.0083 -11.0032 -10.9969 -10.9969 -10.9903
   -10.9903 -10.9730 -10.9665 -10.8886 -10.8756 -10.8756 -10.8712 -10.8711
   -10.8571 -10.8571 -10.8522 -10.8122 -10.7940 -10.7940 -10.7620 -10.7572
   -10.7460 -10.7407 -10.7407 -10.7326 -10.7324 -10.7275 -10.7265 -10.7265
   -10.7202 -10.7153 -10.7153 -10.7102 -10.7088 -10.7088 -10.6927 -10.6918
   -10.6903 -10.6903 -10.6780 -10.6651 -10.6613 -10.6606 -10.6606 -10.6591
   -10.6591 -10.6564 -10.6518 -10.6502 -10.6486 -10.6480 -10.6480 -10.6458
   -10.6448 -10.6446 -10.6446 -10.6444 -10.6444 -10.6435 -10.6380 -10.6224
   -10.6224 -10.6213 -10.6194 -10.6040 -10.6040 -10.5996 -10.5982 -10.5907
   -10.5879 -10.5879 -10.5868 -10.5852 -10.5852 -10.5845 -10.5823 -10.5545
   -10.5533 -10.5533 -10.5526  -7.3434  -7.3414  -7.2674  -7.2674  -7.2673
    -7.2672  -7.2437  -7.2377  -5.7571  -5.7567  -5.7228  -5.7228  -5.7223
    -5.7223  -5.6645  -5.6644  -0.7619  -0.7363  -0.7363  -0.7172  -0.7060
    -0.5391  -0.5391   0.4591   0.9073   0.9188   0.9198   0.9371   0.9371
     0.9611   0.9611   2.1203   2.2667   2.2667   2.2848   2.2931   2.2931
     2.2932   2.3003   5.1889   5.4011   5.4211   5.4402   5.4402   5.4595
     5.4595   5.6258   6.8890   6.9030   6.9030   6.9170   6.9734   6.9930
     6.9930   6.9963   7.0039   7.0292   7.0606   7.0606   7.0702   7.1430
     7.3756   7.3756   7.4468   7.4590   7.4590   7.4727   7.4803   7.4915
     7.4950   7.4950   8.9613   8.9963   8.9963   9.0272   9.0274   9.0653
     9.0653   9.1571   9.5156   9.5298   9.5298   9.5420   9.5472   9.5472
     9.5513   9.5528   9.7011   9.7236   9.7236   9.7654   9.8650   9.9316
    10.2344  10.2771  10.2771  10.2863  10.3645  10.4400  10.4400  10.4544
    10.4544  11.2414  11.2414  11.2445  11.2710  11.3961  11.4239  13.0409

     occupation numbers 
     1.0000   1.0000   1.0000   1.0000   1.0000   1.0000   1.0000   1.0000
     1.0000   1.0000   1.0000   1.0000   1.0000   1.0000   1.0000   1.0000
     1.0000   1.0000   1.0000   1.0000   1.0000   1.0000   1.0000   1.0000
     1.0000   1.0000   1.0000   1.0000   1.0000   1.0000   1.0000   1.0000
     1.0000   1.0000   1.0000   1.0000   1.0000   1.0000   1.0000   1.0000
     1.0000   1.0000   1.0000   1.0000   1.0000   1.0000   1.0000   1.0000
     1.0000   1.0000   1.0000   1.0000   1.0000   1.0000   1.0000   1.0000
     1.0000   1.0000   1.0000   1.0000   1.0000   1.0000   1.0000   1.0000
     1.0000   1.0000   1.0000   1.0000   1.0000   1.0000   1.0000   1.0000
     1.0000   1.0000   1.0000   1.0000   1.0000   1.0000   1.0000   1.0000
     1.0000   1.0000   1.0000   1.0000   1.0000   1.0000   1.0000   1.0000
     1.0000   1.0000   1.0000   1.0000   1.0000   1.0000   1.0000   1.0000
     1.0000   1.0000   1.0000   1.0000   1.0000   1.0000   1.0000   1.0000
     1.0000   1.0000   1.0000   1.0000   1.0000   1.0000   1.0000   1.0000
     1.0000   1.0000   1.0000   1.0000   1.0000   1.0000   1.0000   1.0000
     1.0000   1.0000   1.0000   1.0000   1.0000   1.0000   1.0000   1.0000
     1.0000   1.0000   1.0000   1.0000   1.0000   1.0000   1.0000   1.0000
     1.0000   1.0000   1.0000   1.0000   1.0000   1.0000   1.0000   1.0000
     1.0000   1.0000   1.0000   1.0000   1.0000   1.0000   1.0000   1.0000
     1.0000   1.0000   1.0000   1.0000   1.0000   1.0000   1.0000   1.0000
     1.0000   1.0000   1.0000   1.0000   1.0000   1.0000   1.0000   1.0000
     1.0000   1.0000   1.0000   1.0000   1.0000   1.0000   1.0000   1.0000
     1.0000   1.0000   1.0000   1.0000   1.0000   1.0000   1.0000   1.0000
     1.0000   1.0000   1.0000   1.0000   1.0000   1.0000   1.0000   1.0000
     1.0000   1.0000   1.0000   1.0000   1.0000   1.0000   1.0000   1.0000
     1.0000   1.0000   1.0000   1.0000   1.0000   1.0000   1.0000   1.0000
     1.0000   1.0000   1.0000   1.0000   1.0000   1.0000   1.0000   1.0000
     1.0000   1.0000   1.0000   1.0000   1.0000   1.0000   1.0000   1.0000

     highest occupied level (ev):    13.2586

!    total energy              =   -4833.99138274 Ry
     estimated scf accuracy    <          2.6E-14 Ry

     The total energy is the sum of the following terms:
     one-electron contribution =   -1603.23911084 Ry
     hartree contribution      =    1080.98850629 Ry
     xc contribution           =   -1147.41517339 Ry
     ewald contribution        =   -3164.32560481 Ry

     convergence has been achieved in  29 iterations

     Forces acting on atoms (cartesian axes, Ry/au):

     atom    1 type  1   force =    -0.00537665   -0.00537665    0.00915763
     atom    2 type  1   force =    -0.00537665   -0.00537665   -0.00915763
     atom    3 type  1   force =     0.00000000    0.00000000   -0.00436096
     atom    4 type  1   force =     0.00000000    0.00000000    0.00436096
     atom    5 type  1   force =    -0.00537665    0.00537665    0.00915763
     atom    6 type  1   force =    -0.00537665    0.00537665   -0.00915763
     atom    7 type  1   force =     0.00537665   -0.00537665    0.00915763
     atom    8 type  1   force =     0.00537665   -0.00537665   -0.00915763
     atom    9 type  1   force =     0.00000000    0.00000000   -0.00730775
     atom   10 type  1   force =     0.00000000    0.00000000    0.00730775
     atom   11 type  1   force =     0.00000000    0.00000000   -0.00730775
     atom   12 type  1   force =     0.00000000    0.00000000    0.00730775
     atom   13 type  1   force =     0.00537665    0.00537665    0.00915763
     atom   14 type  1   force =     0.00537665    0.00537665   -0.00915763
     atom   15 type  1   force =     0.00000000    0.00000000   -0.00835305
     atom   16 type  1   force =     0.00000000    0.00000000    0.00835305
     atom   17 type  3   force =     0.00083292    0.00083292    0.00000000
     atom   18 type  3   force =     0.00000000    0.00000000    0.00000000
     atom   19 type  3   force =     0.00083292   -0.00083292    0.00000000
     atom   20 type  3   force =    -0.00083292    0.00083292    0.00000000
     atom   21 type  3   force =     0.00000000    0.00000000    0.00000000
     atom   22 type  3   force =     0.00000000    0.00000000    0.00000000
     atom   23 type  3   force =    -0.00083292   -0.00083292    0.00000000
     atom   24 type  2   force =    -0.00155292    0.00000000   -0.00563812
     atom   25 type  2   force =     0.00113162    0.00000000    0.00443646
     atom   26 type  2   force =     0.00113162    0.00000000   -0.00443646
     atom   27 type  2   force =    -0.00155292    0.00000000    0.00563812
     atom   28 type  2   force =     0.00000000    0.00113162   -0.00443646
     atom   29 type  2   force =     0.00000000   -0.00155292    0.00563812
     atom   30 type  2   force =     0.00000000   -0.00155292   -0.00563812
     atom   31 type  2   force =     0.00000000    0.00113162    0.00443646
     atom   32 type  2   force =     0.00000000    0.00155292    0.00563812
     atom   33 type  2   force =     0.00000000    0.00155292   -0.00563812
     atom   34 type  2   force =     0.00155292    0.00000000   -0.00563812
     atom   35 type  2   force =     0.00155292    0.00000000    0.00563812
     atom   36 type  2   force =    -0.00113162    0.00000000   -0.00443646
     atom   37 type  2   force =    -0.00113162    0.00000000    0.00443646
     atom   38 type  2   force =     0.00000000   -0.00113162    0.00443646
     atom   39 type  2   force =     0.00000000   -0.00113162   -0.00443646
     The non-local contrib.  to forces
     atom    1 type  1   force =     0.02867988    0.02867988   -0.42852034
     atom    2 type  1   force =     0.02867988    0.02867988    0.42852034
     atom    3 type  1   force =     0.00000000    0.00000000   -0.42285106
     atom    4 type  1   force =     0.00000000    0.00000000    0.42285106
     atom    5 type  1   force =     0.02867988   -0.02867988   -0.42852034
     atom    6 type  1   force =     0.02867988   -0.02867988    0.42852034
     atom    7 type  1   force =    -0.02867988    0.02867988   -0.42852034
     atom    8 type  1   force =    -0.02867988    0.02867988    0.42852034
     atom    9 type  1   force =     0.00000000    0.00000000   -0.42120805
     atom   10 type  1   force =     0.00000000    0.00000000    0.42120805
     atom   11 type  1   force =     0.00000000    0.00000000   -0.42120805
     atom   12 type  1   force =     0.00000000    0.00000000    0.42120805
     atom   13 type  1   force =    -0.02867988   -0.02867988   -0.42852034
     atom   14 type  1   force =    -0.02867988   -0.02867988    0.42852034
     atom   15 type  1   force =     0.00000000    0.00000000   -0.44412419
     atom   16 type  1   force =     0.00000000    0.00000000    0.44412419
     atom   17 type  3   force =     0.00706390    0.00706390    0.00000000
     atom   18 type  3   force =     0.00000000    0.00000000    0.00000000
     atom   19 type  3   force =     0.00706390   -0.00706390    0.00000000
     atom   20 type  3   force =    -0.00706390    0.00706390    0.00000000
     atom   21 type  3   force =     0.00000000    0.00000000    0.00000000
     atom   22 type  3   force =     0.00000000    0.00000000    0.00000000
     atom   23 type  3   force =    -0.00706390   -0.00706390    0.00000000
     atom   24 type  2   force =    -0.00687491    0.00000000   -0.00754902
     atom   25 type  2   force =     0.00024081    0.00000000    0.01190617
     atom   26 type  2   force =     0.00024081    0.00000000   -0.01190617
     atom   27 type  2   force =    -0.00687491    0.00000000    0.00754902
     atom   28 type  2   force =     0.00000000    0.00024081   -0.01190617
     atom   29 type  2   force =     0.00000000   -0.00687491    0.00754902
     atom   30 type  2   force =     0.00000000   -0.00687491   -0.00754902
     atom   31 type  2   force =     0.00000000    0.00024081    0.01190617
     atom   32 type  2   force =     0.00000000    0.00687491    0.00754902
     atom   33 type  2   force =     0.00000000    0.00687491   -0.00754902
     atom   34 type  2   force =     0.00687491    0.00000000   -0.00754902
     atom   35 type  2   force =     0.00687491    0.00000000    0.00754902
     atom   36 type  2   force =    -0.00024081    0.00000000   -0.01190617
     atom   37 type  2   force =    -0.00024081    0.00000000    0.01190617
     atom   38 type  2   force =     0.00000000   -0.00024081    0.01190617
     atom   39 type  2   force =     0.00000000   -0.00024081   -0.01190617
     The ionic contribution  to forces
     atom    1 type  1   force =    -6.28106054   -6.28106054   15.99649280
     atom    2 type  1   force =    -6.28106054   -6.28106054  -15.99649280
     atom    3 type  1   force =     0.00003134    0.00003134    4.91570604
     atom    4 type  1   force =     0.00003134    0.00003134   -4.91570604
     atom    5 type  1   force =    -6.28105955    6.28106048   15.99648411
     atom    6 type  1   force =    -6.28105955    6.28106048  -15.99648411
     atom    7 type  1   force =     6.28106048   -6.28105955   15.99648411
     atom    8 type  1   force =     6.28106048   -6.28105955  -15.99648411
     atom    9 type  1   force =     0.00003103   -0.00003240    3.81610996
     atom   10 type  1   force =     0.00003103   -0.00003240   -3.81610996
     atom   11 type  1   force =    -0.00003240    0.00003103    3.81610996
     atom   12 type  1   force =    -0.00003240    0.00003103   -3.81610996
     atom   13 type  1   force =     6.28105995    6.28105995   15.99647335
     atom   14 type  1   force =     6.28105995    6.28105995  -15.99647335
     atom   15 type  1   force =    -0.00003265   -0.00003265    1.46135862
     atom   16 type  1   force =    -0.00003265   -0.00003265   -1.46135862
     atom   17 type  3   force =    -0.59662381   -0.59662381    0.00000000
     atom   18 type  3   force =     0.00000708    0.00000708    0.00000000
     atom   19 type  3   force =    -0.59662370    0.59662391   -0.00000000
     atom   20 type  3   force =     0.59662391   -0.59662370   -0.00000000
     atom   21 type  3   force =     0.00000473   -0.00000793    0.00000000
     atom   22 type  3   force =    -0.00000793    0.00000473    0.00000000
     atom   23 type  3   force =     0.59662380    0.59662380    0.00000000
     atom   24 type  2   force =    -0.71898920    0.00000718    1.73894380
     atom   25 type  2   force =    -1.56839162   -0.00000689   -3.84933010
     atom   26 type  2   force =    -1.56839162   -0.00000689    3.84933010
     atom   27 type  2   force =    -0.71898920    0.00000718   -1.73894380
     atom   28 type  2   force =    -0.00000689   -1.56839162    3.84933010
     atom   29 type  2   force =     0.00000718   -0.71898920   -1.73894380
     atom   30 type  2   force =     0.00000718   -0.71898920    1.73894380
     atom   31 type  2   force =    -0.00000689   -1.56839162   -3.84933010
     atom   32 type  2   force =     0.00000755    0.71898922   -1.73892571
     atom   33 type  2   force =     0.00000755    0.71898922    1.73892571
     atom   34 type  2   force =     0.71898922    0.00000755    1.73892571
     atom   35 type  2   force =     0.71898922    0.00000755   -1.73892571
     atom   36 type  2   force =     1.56839130   -0.00000722    3.84931141
     atom   37 type  2   force =     1.56839130   -0.00000722   -3.84931141
     atom   38 type  2   force =    -0.00000722    1.56839130   -3.84931141
     atom   39 type  2   force =    -0.00000722    1.56839130    3.84931141
     The local contribution  to forces
     atom    1 type  1   force =     6.24807248    6.24806632  -15.58058803
     atom    2 type  1   force =     6.24807210    6.24806594   15.58056957
     atom    3 type  1   force =     0.00009048    0.00008442   -4.51850159
     atom    4 type  1   force =     0.00009048    0.00008442    4.51848227
     atom    5 type  1   force =     6.24807283   -6.24807283  -15.58059526
     atom    6 type  1   force =     6.24807197   -6.24807197   15.58057559
     atom    7 type  1   force =    -6.24806684    6.24806684  -15.58059442
     atom    8 type  1   force =    -6.24806598    6.24806598   15.58057475
     atom    9 type  1   force =     0.00009064   -0.00008969   -3.42353090
     atom   10 type  1   force =     0.00009064   -0.00008969    3.42351140
     atom   11 type  1   force =    -0.00008308    0.00008461   -3.42353090
     atom   12 type  1   force =    -0.00008308    0.00008461    3.42351140
     atom   13 type  1   force =    -6.24806716   -6.24807332  -15.58061443
     atom   14 type  1   force =    -6.24806678   -6.24807294   15.58059598
     atom   15 type  1   force =    -0.00008269   -0.00008934   -1.04849362
     atom   16 type  1   force =    -0.00008269   -0.00008934    1.04847367
     atom   17 type  3   force =     0.59055135    0.59053982   -0.00002687
     atom   18 type  3   force =     0.00005259    0.00004121   -0.00002781
     atom   19 type  3   force =     0.59055133   -0.59055133   -0.00002687
     atom   20 type  3   force =    -0.59053984    0.59053984   -0.00002687
     atom   21 type  3   force =     0.00005444   -0.00004917   -0.00002765
     atom   22 type  3   force =    -0.00004275    0.00004179   -0.00002765
     atom   23 type  3   force =    -0.59053982   -0.59055135   -0.00002687
     atom   24 type  2   force =     0.72385719   -0.00001333   -1.73801658
     atom   25 type  2   force =     1.56943589    0.00000980    3.84242544
     atom   26 type  2   force =     1.56943619    0.00000984   -3.84243528
     atom   27 type  2   force =     0.72385714   -0.00001329    1.73800700
     atom   28 type  2   force =     0.00001316    1.56943313   -3.84243524
     atom   29 type  2   force =    -0.00001030    0.72385407    1.73800699
     atom   30 type  2   force =    -0.00001033    0.72385412   -1.73801657
     atom   31 type  2   force =     0.00001312    1.56943283    3.84242540
     atom   32 type  2   force =    -0.00001135   -0.72385711    1.73800021
     atom   33 type  2   force =    -0.00001131   -0.72385716   -1.73800980
     atom   34 type  2   force =    -0.72385409   -0.00001431   -1.73800978
     atom   35 type  2   force =    -0.72385404   -0.00001434    1.73800020
     atom   36 type  2   force =    -1.56943294    0.00001079   -3.84242830
     atom   37 type  2   force =    -1.56943264    0.00001083    3.84241845
     atom   38 type  2   force =     0.00001415   -1.56943570    3.84241849
     atom   39 type  2   force =     0.00001411   -1.56943600   -3.84242834
     The core correction contribution to forces
     atom    1 type  1   force =    -0.00106576   -0.00106610    0.02178292
     atom    2 type  1   force =    -0.00106576   -0.00106610   -0.02178393
     atom    3 type  1   force =     0.00000510    0.00000476    0.02127568
     atom    4 type  1   force =     0.00000510    0.00000476   -0.02127670
     atom    5 type  1   force =    -0.00106577    0.00106577    0.02178256
     atom    6 type  1   force =    -0.00106577    0.00106577   -0.02178359
     atom    7 type  1   force =     0.00106610   -0.00106610    0.02178256
     atom    8 type  1   force =     0.00106610   -0.00106610   -0.02178358
     atom    9 type  1   force =     0.00000509   -0.00000510    0.02131122
     atom   10 type  1   force =     0.00000509   -0.00000510   -0.02131224
     atom   11 type  1   force =    -0.00000476    0.00000476    0.02131122
     atom   12 type  1   force =    -0.00000476    0.00000476   -0.02131224
     atom   13 type  1   force =     0.00106610    0.00106576    0.02178142
     atom   14 type  1   force =     0.00106610    0.00106576   -0.02178244
     atom   15 type  1   force =    -0.00000476   -0.00000510    0.02289591
     atom   16 type  1   force =    -0.00000476   -0.00000510   -0.02289693
     atom   17 type  3   force =    -0.00015274   -0.00015287   -0.00000010
     atom   18 type  3   force =     0.00000030    0.00000019   -0.00000011
     atom   19 type  3   force =    -0.00015274    0.00015274   -0.00000010
     atom   20 type  3   force =     0.00015287   -0.00015287   -0.00000010
     atom   21 type  3   force =     0.00000033   -0.00000029   -0.00000011
     atom   22 type  3   force =    -0.00000020    0.00000015   -0.00000011
     atom   23 type  3   force =     0.00015287    0.00015274   -0.00000010
     atom   24 type  2   force =     0.00045556    0.00000018    0.00098459
     atom   25 type  2   force =    -0.00015216   -0.00000018   -0.00057572
     atom   26 type  2   force =    -0.00015216   -0.00000018    0.00057588
     atom   27 type  2   force =     0.00045556    0.00000018   -0.00098443
     atom   28 type  2   force =    -0.00000018   -0.00015215    0.00057588
     atom   29 type  2   force =     0.00000018    0.00045557   -0.00098443
     atom   30 type  2   force =     0.00000018    0.00045557    0.00098459
     atom   31 type  2   force =    -0.00000018   -0.00015216   -0.00057572
     atom   32 type  2   force =     0.00000019   -0.00045556   -0.00098433
     atom   33 type  2   force =     0.00000019   -0.00045556    0.00098450
     atom   34 type  2   force =    -0.00045557    0.00000020    0.00098449
     atom   35 type  2   force =    -0.00045557    0.00000020   -0.00098433
     atom   36 type  2   force =     0.00015216   -0.00000020    0.00057579
     atom   37 type  2   force =     0.00015216   -0.00000020   -0.00057563
     atom   38 type  2   force =    -0.00000020    0.00015216   -0.00057563
     atom   39 type  2   force =    -0.00000020    0.00015216    0.00057579
     The Hubbard contrib.    to forces
     atom    1 type  1   force =     0.00000000    0.00000000    0.00000000
     atom    2 type  1   force =     0.00000000    0.00000000    0.00000000
     atom    3 type  1   force =     0.00000000    0.00000000    0.00000000
     atom    4 type  1   force =     0.00000000    0.00000000    0.00000000
     atom    5 type  1   force =     0.00000000    0.00000000    0.00000000
     atom    6 type  1   force =     0.00000000    0.00000000    0.00000000
     atom    7 type  1   force =     0.00000000    0.00000000    0.00000000
     atom    8 type  1   force =     0.00000000    0.00000000    0.00000000
     atom    9 type  1   force =     0.00000000    0.00000000    0.00000000
     atom   10 type  1   force =     0.00000000    0.00000000    0.00000000
     atom   11 type  1   force =     0.00000000    0.00000000    0.00000000
     atom   12 type  1   force =     0.00000000    0.00000000    0.00000000
     atom   13 type  1   force =     0.00000000    0.00000000    0.00000000
     atom   14 type  1   force =     0.00000000    0.00000000    0.00000000
     atom   15 type  1   force =     0.00000000    0.00000000    0.00000000
     atom   16 type  1   force =     0.00000000    0.00000000    0.00000000
     atom   17 type  3   force =     0.00000000    0.00000000    0.00000000
     atom   18 type  3   force =     0.00000000    0.00000000    0.00000000
     atom   19 type  3   force =     0.00000000    0.00000000    0.00000000
     atom   20 type  3   force =     0.00000000    0.00000000    0.00000000
     atom   21 type  3   force =     0.00000000    0.00000000    0.00000000
     atom   22 type  3   force =     0.00000000    0.00000000    0.00000000
     atom   23 type  3   force =     0.00000000    0.00000000    0.00000000
     atom   24 type  2   force =     0.00000000    0.00000000    0.00000000
     atom   25 type  2   force =     0.00000000    0.00000000    0.00000000
     atom   26 type  2   force =     0.00000000    0.00000000    0.00000000
     atom   27 type  2   force =     0.00000000    0.00000000    0.00000000
     atom   28 type  2   force =     0.00000000    0.00000000    0.00000000
     atom   29 type  2   force =     0.00000000    0.00000000    0.00000000
     atom   30 type  2   force =     0.00000000    0.00000000    0.00000000
     atom   31 type  2   force =     0.00000000    0.00000000    0.00000000
     atom   32 type  2   force =     0.00000000    0.00000000    0.00000000
     atom   33 type  2   force =     0.00000000    0.00000000    0.00000000
     atom   34 type  2   force =     0.00000000    0.00000000    0.00000000
     atom   35 type  2   force =     0.00000000    0.00000000    0.00000000
     atom   36 type  2   force =     0.00000000    0.00000000    0.00000000
     atom   37 type  2   force =     0.00000000    0.00000000    0.00000000
     atom   38 type  2   force =     0.00000000    0.00000000    0.00000000
     atom   39 type  2   force =     0.00000000    0.00000000    0.00000000
     The SCF correction term to forces
     atom    1 type  1   force =     0.00000001    0.00000001    0.00000001
     atom    2 type  1   force =     0.00000001    0.00000001   -0.00000001
     atom    3 type  1   force =     0.00000000    0.00000000   -0.00000019
     atom    4 type  1   force =     0.00000000    0.00000000    0.00000019
     atom    5 type  1   force =     0.00000001   -0.00000001    0.00000001
     atom    6 type  1   force =     0.00000001   -0.00000001   -0.00000001
     atom    7 type  1   force =    -0.00000001    0.00000001    0.00000001
     atom    8 type  1   force =    -0.00000001    0.00000001   -0.00000001
     atom    9 type  1   force =     0.00000000   -0.00000000   -0.00000024
     atom   10 type  1   force =     0.00000000   -0.00000000    0.00000024
     atom   11 type  1   force =    -0.00000000    0.00000000   -0.00000024
     atom   12 type  1   force =    -0.00000000    0.00000000    0.00000024
     atom   13 type  1   force =    -0.00000001   -0.00000001    0.00000001
     atom   14 type  1   force =    -0.00000001   -0.00000001   -0.00000001
     atom   15 type  1   force =    -0.00000000   -0.00000000   -0.00000026
     atom   16 type  1   force =    -0.00000000   -0.00000000    0.00000026
     atom   17 type  3   force =     0.00000005    0.00000005   -0.00000000
     atom   18 type  3   force =     0.00000000    0.00000000   -0.00000000
     atom   19 type  3   force =     0.00000005   -0.00000005   -0.00000000
     atom   20 type  3   force =    -0.00000005    0.00000005   -0.00000000
     atom   21 type  3   force =     0.00000000   -0.00000000   -0.00000000
     atom   22 type  3   force =    -0.00000000    0.00000000   -0.00000000
     atom   23 type  3   force =    -0.00000005   -0.00000005   -0.00000000
     atom   24 type  2   force =     0.00000002    0.00000000    0.00000007
     atom   25 type  2   force =     0.00000001   -0.00000000   -0.00000006
     atom   26 type  2   force =     0.00000001   -0.00000000    0.00000006
     atom   27 type  2   force =     0.00000002    0.00000000   -0.00000007
     atom   28 type  2   force =    -0.00000000    0.00000001    0.00000006
     atom   29 type  2   force =     0.00000000    0.00000002   -0.00000007
     atom   30 type  2   force =     0.00000000    0.00000002    0.00000007
     atom   31 type  2   force =    -0.00000000    0.00000001   -0.00000006
     atom   32 type  2   force =     0.00000000   -0.00000002   -0.00000007
     atom   33 type  2   force =     0.00000000   -0.00000002    0.00000007
     atom   34 type  2   force =    -0.00000002    0.00000000    0.00000007
     atom   35 type  2   force =    -0.00000002    0.00000000   -0.00000007
     atom   36 type  2   force =    -0.00000001   -0.00000000    0.00000006
     atom   37 type  2   force =    -0.00000001   -0.00000000   -0.00000006
     atom   38 type  2   force =    -0.00000000   -0.00000001   -0.00000006
     atom   39 type  2   force =    -0.00000000   -0.00000001    0.00000006

     Total force =     0.044401     Total SCF correction =     0.000001


     Computing stress (Cartesian axis) and pressure

          total   stress  (Ry/bohr**3)                   (kbar)     P=     -227.99
  -0.00152688   0.00000000   0.00000000         -224.61        0.00        0.00
   0.00000000  -0.00152688   0.00000000            0.00     -224.61        0.00
   0.00000000   0.00000000  -0.00159577            0.00        0.00     -234.75

     kinetic stress (kbar)  56790.86      0.00      0.00
                                0.00  56790.86      0.00
                                0.00      0.00  56738.03

     local   stress (kbar)     24.62      0.00      0.00
                                0.00     24.62     -0.00
                                0.00     -0.00   7233.72

     nonloc. stress (kbar) -29455.20      0.00      0.00
                                0.00 -29455.20      0.00
                                0.00      0.00 -29415.91

     hartree stress (kbar)  12445.06      0.00     -0.00
                                0.00  12445.06      0.00
                               -0.00      0.00   9304.84

     exc-cor stress (kbar)  11411.20      0.00      0.00
                                0.00  11411.20      0.00
                                0.00      0.00  11411.20

     corecor stress (kbar) -19431.15     -0.00     -0.00
                               -0.00 -19431.15     -0.00
                               -0.00     -0.00 -19429.37

     ewald   stress (kbar) -32010.00     -0.00      0.00
                               -0.00 -32010.00      0.00
                                0.00      0.00 -36077.26

     hubbard stress (kbar)      0.00      0.00      0.00
                                0.00      0.00      0.00
                                0.00      0.00      0.00

     DFT-D   stress (kbar)      0.00      0.00      0.00
                                0.00      0.00      0.00
                                0.00      0.00      0.00

     XDM     stress (kbar)      0.00      0.00      0.00
                                0.00      0.00      0.00
                                0.00      0.00      0.00

     dft-nl  stress (kbar)      0.00      0.00      0.00
                                0.00      0.00      0.00
                                0.00      0.00      0.00

     TS-vdW  stress (kbar)      0.00      0.00      0.00
                                0.00      0.00      0.00
                                0.00      0.00      0.00

     MDB     stress (kbar)      0.00      0.00      0.00
                                0.00      0.00      0.00
                                0.00      0.00      0.00

     3D-RISM stress (kbar)      0.00      0.00      0.00
                                0.00      0.00      0.00
                                0.00      0.00      0.00


     Writing all to output data dir ./out/ga.save/ :
     XML data file, charge density, pseudopotentials, collected wavefunctions
 
     init_run     :      8.24s CPU      8.39s WALL (       1 calls)
     electrons    :    767.83s CPU    773.59s WALL (       1 calls)
     forces       :      4.61s CPU      4.63s WALL (       1 calls)
     stress       :    191.50s CPU    191.62s WALL (       1 calls)

     Called by init_run:
     wfcinit      :      7.85s CPU      7.98s WALL (       1 calls)
     wfcinit:atom :      0.07s CPU      0.08s WALL (      20 calls)
     wfcinit:wfcr :      7.33s CPU      7.43s WALL (      20 calls)
     potinit      :      0.01s CPU      0.01s WALL (       1 calls)
     hinit0       :      0.18s CPU      0.18s WALL (       1 calls)

     Called by electrons:
     c_bands      :    720.70s CPU    725.60s WALL (      29 calls)
     sum_band     :     46.77s CPU     47.46s WALL (      29 calls)
     v_of_rho     :      0.08s CPU      0.09s WALL (      30 calls)
     v_h          :      0.03s CPU      0.03s WALL (      30 calls)
     v_xc         :      0.05s CPU      0.06s WALL (      32 calls)
     mix_rho      :      0.18s CPU      0.22s WALL (      29 calls)

     Called by c_bands:
     init_us_2    :     10.13s CPU     10.17s WALL (    1220 calls)
     cegterg      :    668.11s CPU    672.37s WALL (     580 calls)

     Called by sum_band:
     sum_band:wei :      0.00s CPU      0.00s WALL (      29 calls)
     sum_band:loo :     46.64s CPU     47.32s WALL (      29 calls)
     sum_band:buf :      1.18s CPU      1.24s WALL (     580 calls)
     sum_band:ini :      4.81s CPU      4.82s WALL (     580 calls)

     Called by *egterg:
     cdiaghg      :    212.67s CPU    213.32s WALL (    3507 calls)
     cegterg:over :     52.04s CPU     52.16s WALL (    2927 calls)
     cegterg:upda :     33.89s CPU     34.04s WALL (    2927 calls)
     cegterg:last :     45.48s CPU     45.53s WALL (    1120 calls)
     cdiaghg:chol :     10.58s CPU     10.64s WALL (    3507 calls)
     cdiaghg:inve :      4.46s CPU      4.48s WALL (    3507 calls)
     cdiaghg:para :     42.65s CPU     42.87s WALL (    7014 calls)
     h_psi        :    310.35s CPU    313.71s WALL (    3527 calls)
     g_psi        :      2.18s CPU      2.19s WALL (    2927 calls)

     Called by h_psi:
     h_psi:calbec :     60.34s CPU     60.41s WALL (    3527 calls)
     vloc_psi     :    187.26s CPU    190.48s WALL (    3527 calls)
     add_vuspsi   :     59.91s CPU     59.97s WALL (    3527 calls)

     General routines
     calbec       :     67.38s CPU     67.46s WALL (    3627 calls)
     fft          :      0.16s CPU      0.16s WALL (     155 calls)
     ffts         :      0.04s CPU      0.04s WALL (      59 calls)
     fftw         :    198.67s CPU    201.91s WALL (  767394 calls)
     interpolate  :      0.05s CPU      0.05s WALL (      30 calls)
 
     Parallel routines
 
     PWSCF        :  16m15.66s CPU  16m25.25s WALL

 
   This run was terminated on:   8:41:36  18Sep2026            

=------------------------------------------------------------------------------=
   JOB DONE.
=------------------------------------------------------------------------------=
