Attaching 28722 to 984662.pbshpc
Attaching 17334 to 984662.pbshpc
Attaching 5848 to 984662.pbshpc

     Program PWSCF v.7.3.1 starts on 14Aug2026 at  0:42:50 

     This program is part of the open-source Quantum ESPRESSO suite
     for quantum simulation of materials; please cite
         "P. Giannozzi et al., J. Phys.:Condens. Matter 21 395502 (2009);
         "P. Giannozzi et al., J. Phys.:Condens. Matter 29 465901 (2017);
         "P. Giannozzi et al., J. Chem. Phys. 152 154105 (2020);
          URL http://www.quantum-espresso.org", 
     in publications or presentations arising from this work. More details at
     http://www.quantum-espresso.org/quote

     Parallel version (MPI & OpenMP), running on      64 processor cores
     Number of MPI processes:                64
     Threads/MPI process:                     1

     MPI processes distributed on     4 nodes
     58614 MiB available memory on the printing compute node when the environment starts
 
     Waiting for input...
     Reading input from standard input
Warning: card &CELL ignored
Warning: card / ignored

     Current dimensions of program PWSCF are:
     Max number of different atomic species (ntypx) = 10
     Max number of k-points (npk) =  40000
     Max angular momentum in pseudopotentials (lmaxx) =  4
     file Bi.pbesol-dn-kjpaw_psl.1.0.0.UPF: wavefunction(s)  6P 5D renormalized
     file O.pbesol-n-kjpaw_psl.1.0.0.UPF: wavefunction(s)  2S 2P renormalized
     file Se.pbesol-dn-kjpaw_psl.1.0.0.UPF: wavefunction(s)  4S 4P 3D renormalized
     Message from routine setup:
     using ibrav=0 with symmetry is DISCOURAGED, use correct ibrav instead
 
     K-points division:     npool     =       2
     R & G space division:  proc/nbgrp/npool/nimage =      32
     Subspace diagonalization in iterative solution of the eigenvalue problem:
     one sub-group per band group will be used
     scalapack distributed-memory algorithm (size of sub-group:  3*  3 procs)

 
     Parallelization info
     --------------------
     sticks:   dense  smooth     PW     G-vecs:    dense   smooth      PW
     Min         212     106     29                20621     7291    1045
     Max         214     108     30                20626     7298    1048
     Sum        6793    3397    941               659969   233475   33497
 
     Using Slab Decomposition
 


     bravais-lattice index     =            0
     lattice parameter (alat)  =      14.6148  a.u.
     unit-cell volume          =    4887.0944 (a.u.)^3
     number of atoms/cell      =           39
     number of atomic types    =            3
     number of electrons       =       458.00
     number of Kohn-Sham states=          275
     kinetic-energy cutoff     =      50.0000  Ry
     charge density cutoff     =     400.0000  Ry
     scf convergence threshold =      7.8E-09
     mixing beta               =       0.4000
     number of iterations used =            8  plain     mixing
     energy convergence thresh.=      1.0E-04
     force convergence thresh. =      1.0E-02
     Exchange-correlation= SLA  PW   PSX  PSC
                           (   1   4  10   8   0   0   0)
     nstep                     =           50


     celldm(1)=  14.614797  celldm(2)=   0.000000  celldm(3)=   0.000000
     celldm(4)=   0.000000  celldm(5)=   0.000000  celldm(6)=   0.000000

     crystal axes: (cart. coord. in units of alat)
               a(1) = (   1.000000   0.000000   0.000000 )  
               a(2) = (   0.000000   1.000000   0.000000 )  
               a(3) = (   0.000000   0.000000   1.565570 )  

     reciprocal axes: (cart. coord. in units 2 pi/alat)
               b(1) = (  1.000000  0.000000  0.000000 )  
               b(2) = (  0.000000  1.000000  0.000000 )  
               b(3) = (  0.000000  0.000000  0.638745 )  


     PseudoPot. # 1 for Bi read from file:
     ./Bi.pbesol-dn-kjpaw_psl.1.0.0.UPF
     MD5 check sum: 7be8f0579536e02bffb20a5e6d7f8f09
     Pseudo is Projector augmented-wave + core cor, Zval = 15.0
     Generated using 'atomic' code by A. Dal Corso  v.7.5
     Shape of augmentation charge: PSQ
     Using radial grid of 1283 points,  6 beta functions with: 
                l(1) =   0
                l(2) =   0
                l(3) =   1
                l(4) =   1
                l(5) =   2
                l(6) =   2
     Q(r) pseudized with 0 coefficients 


     PseudoPot. # 2 for O  read from file:
     ./O.pbesol-n-kjpaw_psl.1.0.0.UPF
     MD5 check sum: 0da0a744fc221d9787b91fb8f66090a3
     Pseudo is Projector augmented-wave + core cor, Zval =  6.0
     Generated using 'atomic' code by A. Dal Corso  v.7.5
     Shape of augmentation charge: PSQ
     Using radial grid of 1095 points,  4 beta functions with: 
                l(1) =   0
                l(2) =   0
                l(3) =   1
                l(4) =   1
     Q(r) pseudized with 0 coefficients 


     PseudoPot. # 3 for Se read from file:
     ./Se.pbesol-dn-kjpaw_psl.1.0.0.UPF
     MD5 check sum: d41405d669a01b338432c3f197775ddd
     Pseudo is Projector augmented-wave + core cor, Zval = 16.0
     Generated using 'atomic' code by A. Dal Corso  v.7.5
     Shape of augmentation charge: PSQ
     Using radial grid of 1211 points,  6 beta functions with: 
                l(1) =   0
                l(2) =   0
                l(3) =   1
                l(4) =   1
                l(5) =   2
                l(6) =   2
     Q(r) pseudized with 0 coefficients 


     atomic species   valence    mass     pseudopotential
     Bi               15.00   208.98040     Bi( 1.00)
     O                 6.00    15.99940     O ( 1.00)
     Se               16.00    78.96000     Se( 1.00)

      8 Sym. Ops. (no inversion) found ( 6 have fractional translation)



   Cartesian axes

     site n.     atom                  positions (alat units)
         1        Bi     tau(   1) = (   0.0000000   0.0000000   0.5556106  )
         2        Bi     tau(   2) = (   0.0000000   0.0000000   1.0099589  )
         3        Bi     tau(   3) = (   0.2500001   0.2500001   1.3383953  )
         4        Bi     tau(   4) = (   0.2500001   0.2500001   0.2271742  )
         5        Bi     tau(   5) = (   0.0000000   0.5000000   0.5556106  )
         6        Bi     tau(   6) = (   0.0000000   0.5000000   1.0099589  )
         7        Bi     tau(   7) = (   0.5000000   0.0000000   0.5556106  )
         8        Bi     tau(   8) = (   0.5000000   0.0000000   1.0099589  )
         9        Bi     tau(   9) = (   0.2500001   0.7500000   1.3383953  )
        10        Bi     tau(  10) = (   0.2500001   0.7500000   0.2271742  )
        11        Bi     tau(  11) = (   0.7500000   0.2500001   1.3383953  )
        12        Bi     tau(  12) = (   0.7500000   0.2500001   0.2271742  )
        13        Bi     tau(  13) = (   0.5000000   0.5000000   0.5556106  )
        14        Bi     tau(  14) = (   0.5000000   0.5000000   1.0099589  )
        15        Bi     tau(  15) = (   0.7500000   0.7500000   1.3383953  )
        16        Bi     tau(  16) = (   0.7500000   0.7500000   0.2271742  )
        17        Se     tau(  17) = (   0.0000000   0.0000000   0.0000000  )
        18        Se     tau(  18) = (   0.2500001   0.2500001   0.7827848  )
        19        Se     tau(  19) = (   0.0000000   0.5000000   0.0000000  )
        20        Se     tau(  20) = (   0.5000000   0.0000000   0.0000000  )
        21        Se     tau(  21) = (   0.2500001   0.7500000   0.7827848  )
        22        Se     tau(  22) = (   0.7500000   0.2500001   0.7827848  )
        23        Se     tau(  23) = (   0.5000000   0.5000000   0.0000000  )
        24        Se     tau(  24) = (   0.7500000   0.7500000   0.7827848  )
        25        O      tau(  25) = (   0.0000000   0.2500001   0.3913923  )
        26        O      tau(  26) = (   0.0000000   0.7500000   1.1741772  )
        27        O      tau(  27) = (   0.0000000   0.7500000   0.3913923  )
        28        O      tau(  28) = (   0.0000000   0.2500001   1.1741772  )
        29        O      tau(  29) = (   0.7500000   0.0000000   0.3913923  )
        30        O      tau(  30) = (   0.2500001   0.0000000   1.1741772  )
        31        O      tau(  31) = (   0.2500001   0.0000000   0.3913923  )
        32        O      tau(  32) = (   0.7500000   0.0000000   1.1741772  )
        33        O      tau(  33) = (   0.2500001   0.5000000   1.1741772  )
        34        O      tau(  34) = (   0.2500001   0.5000000   0.3913923  )
        35        O      tau(  35) = (   0.5000000   0.2500001   0.3913923  )
        36        O      tau(  36) = (   0.5000000   0.2500001   1.1741772  )
        37        O      tau(  37) = (   0.5000000   0.7500000   1.1741772  )
        38        O      tau(  38) = (   0.7500000   0.5000000   1.1741772  )
        39        O      tau(  39) = (   0.7500000   0.5000000   0.3913923  )

     number of k points=    40  Marzari-Vanderbilt smearing, width (Ry)=  0.0200
                       cart. coord. in units 2pi/alat
        k(    1) = (   0.0000000   0.0000000   0.0000000), wk =   0.0092593
        k(    2) = (   0.0000000   0.0000000   0.1064575), wk =   0.0185185
        k(    3) = (   0.0000000   0.0000000   0.2129151), wk =   0.0185185
        k(    4) = (   0.0000000   0.0000000  -0.3193726), wk =   0.0092593
        k(    5) = (   0.0000000   0.1666667   0.0000000), wk =   0.0370370
        k(    6) = (   0.0000000   0.1666667   0.1064575), wk =   0.0740741
        k(    7) = (   0.0000000   0.1666667   0.2129151), wk =   0.0740741
        k(    8) = (   0.0000000   0.1666667  -0.3193726), wk =   0.0370370
        k(    9) = (   0.0000000   0.3333333   0.0000000), wk =   0.0370370
        k(   10) = (   0.0000000   0.3333333   0.1064575), wk =   0.0740741
        k(   11) = (   0.0000000   0.3333333   0.2129151), wk =   0.0740741
        k(   12) = (   0.0000000   0.3333333  -0.3193726), wk =   0.0370370
        k(   13) = (   0.0000000  -0.5000000   0.0000000), wk =   0.0185185
        k(   14) = (   0.0000000  -0.5000000   0.1064575), wk =   0.0370370
        k(   15) = (   0.0000000  -0.5000000   0.2129151), wk =   0.0370370
        k(   16) = (   0.0000000  -0.5000000  -0.3193726), wk =   0.0185185
        k(   17) = (   0.1666667   0.1666667   0.0000000), wk =   0.0370370
        k(   18) = (   0.1666667   0.1666667   0.1064575), wk =   0.0740741
        k(   19) = (   0.1666667   0.1666667   0.2129151), wk =   0.0740741
        k(   20) = (   0.1666667   0.1666667  -0.3193726), wk =   0.0370370
        k(   21) = (   0.1666667   0.3333333   0.0000000), wk =   0.0740741
        k(   22) = (   0.1666667   0.3333333   0.1064575), wk =   0.1481481
        k(   23) = (   0.1666667   0.3333333   0.2129151), wk =   0.1481481
        k(   24) = (   0.1666667   0.3333333  -0.3193726), wk =   0.0740741
        k(   25) = (   0.1666667  -0.5000000   0.0000000), wk =   0.0370370
        k(   26) = (   0.1666667  -0.5000000   0.1064575), wk =   0.0740741
        k(   27) = (   0.1666667  -0.5000000   0.2129151), wk =   0.0740741
        k(   28) = (   0.1666667  -0.5000000  -0.3193726), wk =   0.0370370
        k(   29) = (   0.3333333   0.3333333   0.0000000), wk =   0.0370370
        k(   30) = (   0.3333333   0.3333333   0.1064575), wk =   0.0740741
        k(   31) = (   0.3333333   0.3333333   0.2129151), wk =   0.0740741
        k(   32) = (   0.3333333   0.3333333  -0.3193726), wk =   0.0370370
        k(   33) = (   0.3333333  -0.5000000   0.0000000), wk =   0.0370370
        k(   34) = (   0.3333333  -0.5000000   0.1064575), wk =   0.0740741
        k(   35) = (   0.3333333  -0.5000000   0.2129151), wk =   0.0740741
        k(   36) = (   0.3333333  -0.5000000  -0.3193726), wk =   0.0370370
        k(   37) = (  -0.5000000  -0.5000000   0.0000000), wk =   0.0092593
        k(   38) = (  -0.5000000  -0.5000000   0.1064575), wk =   0.0185185
        k(   39) = (  -0.5000000  -0.5000000   0.2129151), wk =   0.0185185
        k(   40) = (  -0.5000000  -0.5000000  -0.3193726), wk =   0.0092593

     Dense  grid:   659969 G-vectors     FFT dimensions: (  96,  96, 150)

     Smooth grid:   233475 G-vectors     FFT dimensions: (  72,  72, 108)

     Estimated max dynamical RAM per process >     142.39 MB

     Estimated total dynamical RAM >       8.74 GB

     Initial potential from superposition of free atoms

     starting charge     457.9876, renormalised to     458.0000
     Starting wfcs are  276 randomized atomic wfcs
     Checking if some PAW data can be deallocated... 

     total cpu time spent up to now is        9.5 secs

     Self-consistent Calculation

     iteration #  1     ecut=    50.00 Ry     beta= 0.40
     Davidson diagonalization with overlap
     ethr =  1.00E-02,  avg # of iterations =  2.0
     Minimization algorithm failed to find Fermi energy: reverting to bisection
     Possible cause: smearing is larger than the electronic band-gap.

     total cpu time spent up to now is       34.1 secs

     total energy              =  -18122.63999287 Ry
     estimated scf accuracy    <      10.18511587 Ry

     iteration #  2     ecut=    50.00 Ry     beta= 0.40
     Davidson diagonalization with overlap
     ethr =  2.22E-03,  avg # of iterations =  4.0

     total cpu time spent up to now is       65.2 secs

     total energy              =  -18125.21201943 Ry
     estimated scf accuracy    <       6.80537538 Ry

     iteration #  3     ecut=    50.00 Ry     beta= 0.40
     Davidson diagonalization with overlap
     ethr =  1.49E-03,  avg # of iterations =  2.0

     total cpu time spent up to now is       89.3 secs

     total energy              =  -18126.54955037 Ry
     estimated scf accuracy    <       0.55184390 Ry

     iteration #  4     ecut=    50.00 Ry     beta= 0.40
     Davidson diagonalization with overlap
     ethr =  1.20E-04,  avg # of iterations =  5.5

     total cpu time spent up to now is      123.7 secs

     total energy              =  -18126.62754709 Ry
     estimated scf accuracy    <       0.13912079 Ry

     iteration #  5     ecut=    50.00 Ry     beta= 0.40
     Davidson diagonalization with overlap
     c_bands:  3 eigenvalues not converged
     c_bands:  2 eigenvalues not converged
     ethr =  3.04E-05,  avg # of iterations =  6.0

     total cpu time spent up to now is      158.6 secs

     total energy              =  -18126.64041976 Ry
     estimated scf accuracy    <       0.07637371 Ry

     iteration #  6     ecut=    50.00 Ry     beta= 0.40
     Davidson diagonalization with overlap
     c_bands:  2 eigenvalues not converged
     c_bands:  1 eigenvalues not converged
     ethr =  1.67E-05,  avg # of iterations =  3.6

     total cpu time spent up to now is      188.2 secs

     total energy              =  -18126.64878708 Ry
     estimated scf accuracy    <       0.01279282 Ry

     iteration #  7     ecut=    50.00 Ry     beta= 0.40
     Davidson diagonalization with overlap
     c_bands:  1 eigenvalues not converged
     c_bands:  1 eigenvalues not converged
     c_bands:  3 eigenvalues not converged
     c_bands:  1 eigenvalues not converged
     c_bands:  1 eigenvalues not converged
     c_bands:  3 eigenvalues not converged
     c_bands:  2 eigenvalues not converged
     c_bands:  2 eigenvalues not converged
     ethr =  2.79E-06,  avg # of iterations = 12.4

     total cpu time spent up to now is      237.3 secs

     total energy              =  -18126.65007969 Ry
     estimated scf accuracy    <       0.00319560 Ry

     iteration #  8     ecut=    50.00 Ry     beta= 0.40
     Davidson diagonalization with overlap
     c_bands:  1 eigenvalues not converged
     ethr =  6.98E-07,  avg # of iterations =  3.6

     total cpu time spent up to now is      264.8 secs

     total energy              =  -18126.65001387 Ry
     estimated scf accuracy    <       0.00063435 Ry

     iteration #  9     ecut=    50.00 Ry     beta= 0.40
     Davidson diagonalization with overlap
     ethr =  1.39E-07,  avg # of iterations =  4.4

     total cpu time spent up to now is      297.0 secs

     total energy              =  -18126.65017478 Ry
     estimated scf accuracy    <       0.00005077 Ry

     iteration # 10     ecut=    50.00 Ry     beta= 0.40
     Davidson diagonalization with overlap
     ethr =  1.11E-08,  avg # of iterations =  5.0

     total cpu time spent up to now is      332.0 secs

     total energy              =  -18126.65018395 Ry
     estimated scf accuracy    <       0.00002414 Ry

     iteration # 11     ecut=    50.00 Ry     beta= 0.40
     Davidson diagonalization with overlap
     ethr =  5.27E-09,  avg # of iterations =  4.4

     total cpu time spent up to now is      363.5 secs

     total energy              =  -18126.65018833 Ry
     estimated scf accuracy    <       0.00000638 Ry

     iteration # 12     ecut=    50.00 Ry     beta= 0.40
     Davidson diagonalization with overlap
     ethr =  1.39E-09,  avg # of iterations =  2.0

     total cpu time spent up to now is      388.6 secs

     total energy              =  -18126.65018859 Ry
     estimated scf accuracy    <       0.00000092 Ry

     iteration # 13     ecut=    50.00 Ry     beta= 0.40
     Davidson diagonalization with overlap
     ethr =  2.00E-10,  avg # of iterations =  4.0

     total cpu time spent up to now is      420.7 secs

     total energy              =  -18126.65018892 Ry
     estimated scf accuracy    <       0.00000006 Ry

     iteration # 14     ecut=    50.00 Ry     beta= 0.40
     Davidson diagonalization with overlap
     ethr =  1.23E-11,  avg # of iterations =  3.2

     total cpu time spent up to now is      454.1 secs

     total energy              =  -18126.65018892 Ry
     estimated scf accuracy    <       0.00000003 Ry

     iteration # 15     ecut=    50.00 Ry     beta= 0.40
     Davidson diagonalization with overlap
     ethr =  6.35E-12,  avg # of iterations =  2.0

     total cpu time spent up to now is      479.3 secs

     total energy              =  -18126.65018892 Ry
     estimated scf accuracy    <       0.00000004 Ry

     iteration # 16     ecut=    50.00 Ry     beta= 0.40
     Davidson diagonalization with overlap
     ethr =  6.35E-12,  avg # of iterations =  2.0

     total cpu time spent up to now is      503.1 secs

     End of self-consistent calculation

          k = 0.0000 0.0000 0.0000 ( 29231 PWs)   bands (ev):

   -35.4245 -35.4245 -35.4244 -35.4244 -35.4234 -35.4233 -35.4233 -35.4232
   -35.4122 -35.4122 -35.4121 -35.4121 -35.4110 -35.4109 -35.4109 -35.4108
   -35.4065 -35.4065 -35.4065 -35.4064 -35.3337 -35.3337 -35.3336 -35.3336
   -35.3320 -35.3320 -35.3319 -35.3318 -35.3272 -35.3272 -35.3271 -35.3270
   -35.3249 -35.3248 -35.3248 -35.3247 -35.3225 -35.3225 -35.3224 -35.3223
   -11.9975 -11.9974 -11.9940 -11.9843 -11.9765 -11.9626 -11.9309 -11.9309
   -11.9281 -11.9243 -11.9142 -11.9142 -11.9118 -11.8150 -11.7992 -11.7991
   -11.7975 -11.7920 -11.7920 -11.7909 -11.7841 -11.7752 -11.7751 -11.7738
   -11.7731 -11.7721 -11.7721 -11.7721 -11.7720 -11.7669 -11.7669 -11.7587
   -11.7576 -11.7576 -11.7539 -11.7533 -11.7522 -11.7522 -11.7522 -11.7416
   -11.7354 -11.7354 -11.7331 -11.7303 -11.7303 -11.7254 -11.7238 -11.7219
   -11.7216 -11.7210 -11.7210 -11.7147 -11.7147 -11.7134 -11.7108 -11.7092
   -11.7062 -11.7012 -11.7009 -11.7009 -11.6989 -11.6988 -11.6988 -11.6973
   -11.6972 -11.6918 -11.6911 -11.6911 -11.6900 -11.6897 -11.6863 -11.6863
   -11.6843 -11.6823 -11.6752 -11.6712 -11.6712 -11.6669 -11.6629 -11.6629
    -8.5863  -8.4329  -7.1751  -7.1605  -7.1605  -7.1435  -7.1352  -7.1352
    -7.1213  -6.9063  -6.8042  -6.7685  -6.7632  -6.1268  -5.9274  -2.1273
    -1.5504  -0.6328  -0.6297  -0.6296  -0.6197  -0.2526  -0.2525  -0.0432
    -0.0432   0.0505   0.0604   0.2198   0.2198   0.4153   0.4220   0.4221
     0.8619   1.1234   1.1235   1.1256   1.4411   2.3854   3.1996   5.3516
     5.3946   5.3946   5.4528   5.5641   5.5641   5.6365   5.9254   5.9307
     5.9557   5.9557   6.0596   6.1133   6.1266   6.1266   6.3045   6.3045
     6.3563   6.7870   6.7921   6.8279   6.8279   6.8368   6.8374   6.9252
     6.9403   6.9403   7.2481   7.2482   7.3854   7.4526   7.4697   7.6804
     7.6804   8.1356   8.3192   8.4106   8.4106   8.4458   8.4648   8.4648
     8.4836   8.7979   8.8847   8.8847   8.9423   9.0739   9.2200   9.2200
     9.5031   9.7410   9.7700   9.7700   9.7869   9.8408   9.8408  10.0039
    10.0040  10.1883  10.2486  10.2486  10.5435  10.5436  10.5887  10.6212
    10.7637  10.8525  10.8527  10.8616  10.8616  11.5674  11.8011  12.0221
    12.8089  12.9435  13.1790  13.1791  13.6440  13.6440  13.9359  14.0103
    14.0103  14.1342  14.3452  14.3452  14.4895  14.4916  14.5731  14.6189
    14.7707  14.7707  15.0003  15.0719  15.0988  15.3449  15.3449  15.4404
    15.6013  15.6445  15.7498  15.7499  15.7948  15.7948  15.8036  15.8055
    15.9215  15.9696  15.9696  16.0098  16.2334  16.2334  16.3215  16.6694
    17.0395  17.1468  17.1468

          k = 0.0000 0.0000 0.1065 ( 29155 PWs)   bands (ev):

   -35.4244 -35.4244 -35.4244 -35.4243 -35.4233 -35.4232 -35.4232 -35.4231
   -35.4121 -35.4121 -35.4120 -35.4119 -35.4108 -35.4108 -35.4108 -35.4107
   -35.4066 -35.4065 -35.4064 -35.4062 -35.3336 -35.3336 -35.3335 -35.3335
   -35.3319 -35.3319 -35.3318 -35.3318 -35.3270 -35.3270 -35.3270 -35.3270
   -35.3248 -35.3247 -35.3247 -35.3246 -35.3225 -35.3224 -35.3224 -35.3221
   -11.9973 -11.9962 -11.9930 -11.9846 -11.9778 -11.9633 -11.9307 -11.9307
   -11.9281 -11.9239 -11.9144 -11.9144 -11.9121 -11.8139 -11.7985 -11.7984
   -11.7980 -11.7911 -11.7911 -11.7903 -11.7841 -11.7758 -11.7751 -11.7751
   -11.7736 -11.7734 -11.7734 -11.7726 -11.7718 -11.7665 -11.7665 -11.7592
   -11.7588 -11.7588 -11.7547 -11.7535 -11.7533 -11.7533 -11.7495 -11.7440
   -11.7354 -11.7354 -11.7311 -11.7294 -11.7294 -11.7251 -11.7217 -11.7213
   -11.7202 -11.7201 -11.7201 -11.7136 -11.7136 -11.7134 -11.7112 -11.7091
   -11.7057 -11.7019 -11.7008 -11.7008 -11.6989 -11.6988 -11.6988 -11.6973
   -11.6973 -11.6923 -11.6916 -11.6916 -11.6900 -11.6899 -11.6863 -11.6863
   -11.6848 -11.6824 -11.6758 -11.6714 -11.6714 -11.6669 -11.6630 -11.6630
    -8.5861  -8.4331  -7.1748  -7.1600  -7.1600  -7.1435  -7.1357  -7.1357
    -7.1215  -6.9063  -6.8040  -6.7686  -6.7632  -6.1268  -5.9274  -2.0987
    -1.6061  -0.6328  -0.6286  -0.6286  -0.6186  -0.2447  -0.2446  -0.0595
    -0.0595   0.0450   0.1521   0.2279   0.2279   0.4151   0.4198   0.4198
     0.8604   1.1186   1.1255   1.1255   1.3257   2.4783   3.1704   5.3790
     5.3977   5.3977   5.4742   5.5581   5.5581   5.6074   5.8708   5.8753
     5.9322   5.9322   6.0760   6.1423   6.1423   6.1652   6.3305   6.3305
     6.3779   6.7876   6.7930   6.8277   6.8277   6.8354   6.8371   6.8741
     6.8865   6.8865   7.2740   7.2740   7.3826   7.5240   7.5560   7.7017
     7.7017   8.1356   8.3179   8.4211   8.4211   8.4645   8.4697   8.4697
     8.5152   8.7193   8.8226   8.8846   8.8846   9.0137   9.2200   9.2200
     9.5001   9.7283   9.7583   9.7583   9.8020   9.8632   9.8632   9.9784
     9.9784  10.1917  10.2173  10.2173  10.5424  10.5425  10.5880  10.6229
    10.8002  10.8528  10.8530  10.8618  10.8619  11.6766  11.9554  11.9833
    12.7682  13.0010  13.2007  13.2007  13.6326  13.6327  13.7680  14.0827
    14.0827  14.1279  14.1375  14.3596  14.3597  14.4857  14.4879  14.7545
    14.7644  14.7644  14.9322  15.1702  15.3075  15.3076  15.3206  15.5078
    15.5078  15.5275  15.5608  15.6859  15.7663  15.7664  15.8096  15.8115
    15.9812  16.0092  16.1892  16.1892  16.2954  16.2954  16.3426  16.6421
    16.9835  17.1262  17.1262

          k = 0.0000 0.0000 0.2129 ( 29220 PWs)   bands (ev):

   -35.4245 -35.4245 -35.4245 -35.4244 -35.4234 -35.4234 -35.4233 -35.4232
   -35.4122 -35.4121 -35.4121 -35.4120 -35.4109 -35.4109 -35.4108 -35.4107
   -35.4065 -35.4064 -35.4064 -35.4063 -35.3337 -35.3337 -35.3337 -35.3336
   -35.3321 -35.3320 -35.3319 -35.3319 -35.3272 -35.3271 -35.3270 -35.3270
   -35.3248 -35.3248 -35.3247 -35.3247 -35.3224 -35.3223 -35.3223 -35.3223
   -11.9972 -11.9930 -11.9909 -11.9858 -11.9815 -11.9648 -11.9304 -11.9304
   -11.9282 -11.9232 -11.9150 -11.9150 -11.9128 -11.8104 -11.8005 -11.7970
   -11.7970 -11.7892 -11.7891 -11.7889 -11.7840 -11.7799 -11.7779 -11.7779
   -11.7735 -11.7734 -11.7732 -11.7731 -11.7713 -11.7662 -11.7662 -11.7614
   -11.7614 -11.7601 -11.7561 -11.7552 -11.7552 -11.7540 -11.7479 -11.7459
   -11.7359 -11.7359 -11.7279 -11.7274 -11.7274 -11.7229 -11.7215 -11.7186
   -11.7186 -11.7173 -11.7168 -11.7143 -11.7136 -11.7113 -11.7112 -11.7084
   -11.7055 -11.7032 -11.7010 -11.7010 -11.6993 -11.6987 -11.6987 -11.6974
   -11.6973 -11.6934 -11.6930 -11.6930 -11.6901 -11.6901 -11.6863 -11.6863
   -11.6862 -11.6826 -11.6773 -11.6718 -11.6718 -11.6671 -11.6633 -11.6633
    -8.5857  -8.4336  -7.1744  -7.1589  -7.1589  -7.1434  -7.1368  -7.1368
    -7.1220  -6.9063  -6.8037  -6.7689  -6.7633  -6.1268  -5.9274  -2.0164
    -1.7377  -0.6329  -0.6265  -0.6265  -0.6166  -0.2245  -0.2244  -0.0947
    -0.0947   0.0461   0.2421   0.2421   0.3498   0.4154   0.4155   0.4371
     0.8536   1.0059   1.1295   1.1295   1.1720   2.6567   3.0909   5.4046
     5.4046   5.4588   5.5174   5.5455   5.5455   5.5799   5.7333   5.7869
     5.8989   5.8990   6.0309   6.1427   6.1427   6.3001   6.4300   6.4300
     6.4812   6.7439   6.7541   6.7541   6.7888   6.7949   6.8286   6.8286
     6.8331   6.8362   7.2693   7.3219   7.3219   7.7423   7.7423   7.7741
     7.8203   8.1356   8.2994   8.4372   8.4372   8.4849   8.4849   8.4903
     8.5083   8.5282   8.6045   8.8844   8.8844   8.8923   9.2200   9.2200
     9.5025   9.7072   9.7353   9.7353   9.8628   9.9093   9.9094   9.9429
     9.9429  10.1230  10.1361  10.1361  10.5409  10.5409  10.6036  10.6240
    10.8534  10.8536  10.8623  10.8624  10.9158  11.8001  12.0303  12.3546
    12.6408  13.1087  13.2512  13.2512  13.4839  13.5023  13.5997  13.5997
    14.2531  14.2828  14.2828  14.3933  14.3933  14.4780  14.4805  14.7454
    14.7454  14.7892  14.9350  15.0338  15.0338  15.0418  15.3652  15.3864
    15.3864  15.5232  15.7083  15.7837  15.7837  15.8213  15.8231  15.9854
    16.1034  16.1774  16.2154  16.2154  16.4032  16.5678  16.5743  16.5744
    16.7801  17.0489  17.0535

          k = 0.0000 0.0000-0.3194 ( 29204 PWs)   bands (ev):

   -35.4245 -35.4245 -35.4244 -35.4244 -35.4234 -35.4233 -35.4232 -35.4232
   -35.4121 -35.4121 -35.4121 -35.4120 -35.4109 -35.4108 -35.4107 -35.4106
   -35.4066 -35.4064 -35.4064 -35.4063 -35.3337 -35.3337 -35.3337 -35.3336
   -35.3320 -35.3319 -35.3319 -35.3318 -35.3271 -35.3271 -35.3269 -35.3269
   -35.3248 -35.3247 -35.3246 -35.3246 -35.3225 -35.3224 -35.3223 -35.3223
   -11.9971 -11.9901 -11.9887 -11.9874 -11.9847 -11.9656 -11.9302 -11.9302
   -11.9283 -11.9228 -11.9153 -11.9153 -11.9133 -11.8067 -11.8041 -11.7962
   -11.7962 -11.7878 -11.7876 -11.7876 -11.7839 -11.7817 -11.7801 -11.7801
   -11.7739 -11.7732 -11.7725 -11.7725 -11.7709 -11.7662 -11.7662 -11.7626
   -11.7626 -11.7606 -11.7572 -11.7561 -11.7561 -11.7542 -11.7477 -11.7463
   -11.7362 -11.7362 -11.7264 -11.7264 -11.7249 -11.7216 -11.7214 -11.7179
   -11.7179 -11.7171 -11.7150 -11.7142 -11.7137 -11.7099 -11.7099 -11.7084
   -11.7068 -11.7028 -11.7012 -11.7012 -11.7000 -11.6986 -11.6986 -11.6973
   -11.6972 -11.6939 -11.6938 -11.6938 -11.6901 -11.6899 -11.6872 -11.6863
   -11.6862 -11.6827 -11.6781 -11.6720 -11.6720 -11.6671 -11.6634 -11.6634
    -8.5856  -8.4338  -7.1741  -7.1584  -7.1584  -7.1434  -7.1374  -7.1374
    -7.1223  -6.9063  -6.8035  -6.7691  -6.7633  -6.1268  -5.9274  -1.9077
    -1.8689  -0.6330  -0.6255  -0.6254  -0.6157  -0.2098  -0.2098  -0.1161
    -0.1161   0.0469   0.2484   0.2484   0.3922   0.4134   0.4134   0.6371
     0.7371   0.8746   1.1315   1.1315   1.1573   2.7649   3.0236   5.4084
     5.4084   5.5188   5.5388   5.5388   5.5778   5.5883   5.6173   5.7224
     5.8857   5.8858   5.9967   6.1364   6.1365   6.4026   6.5494   6.5494
     6.5809   6.6136   6.6247   6.6247   6.7894   6.7960   6.8284   6.8284
     6.8319   6.8356   7.1987   7.3442   7.3442   7.7622   7.7622   8.0430
     8.1357   8.1461   8.1626   8.1717   8.3846   8.4426   8.4426   8.4954
     8.4954   8.5209   8.6842   8.7970   8.8843   8.8843   9.2200   9.2200
     9.5066   9.6959   9.7237   9.7238   9.8915   9.8915   9.9523  10.0094
    10.0094  10.0189  10.0512  10.0513  10.5404  10.5404  10.6140  10.6230
    10.8536  10.8539  10.8626  10.8626  11.0012  11.7375  12.3067  12.4243
    12.8877  12.9003  13.1815  13.2822  13.2822  13.3404  13.5764  13.5765
    14.3851  14.3851  14.3971  14.4742  14.4769  14.5654  14.5654  14.6244
    14.6244  14.7191  14.8349  14.8349  14.8671  14.9575  15.3732  15.3732
    15.4927  15.4929  15.7100  15.7915  15.7916  15.8273  15.8291  15.9794
    16.2209  16.2209  16.3917  16.4689  16.5029  16.5349  16.6215  16.6307
    16.7378  16.7378  16.9705

          k = 0.0000 0.1667 0.0000 ( 29199 PWs)   bands (ev):

   -35.4245 -35.4245 -35.4244 -35.4243 -35.4234 -35.4233 -35.4233 -35.4232
   -35.4122 -35.4122 -35.4121 -35.4120 -35.4109 -35.4109 -35.4109 -35.4107
   -35.4066 -35.4065 -35.4064 -35.4063 -35.3337 -35.3336 -35.3336 -35.3335
   -35.3320 -35.3319 -35.3319 -35.3318 -35.3272 -35.3271 -35.3271 -35.3269
   -35.3248 -35.3248 -35.3247 -35.3247 -35.3225 -35.3224 -35.3224 -35.3222
   -11.9947 -11.9929 -11.9900 -11.9815 -11.9722 -11.9624 -11.9501 -11.9357
   -11.9350 -11.9254 -11.9179 -11.9001 -11.8853 -11.8143 -11.8017 -11.7973
   -11.7953 -11.7915 -11.7907 -11.7877 -11.7820 -11.7775 -11.7763 -11.7736
   -11.7729 -11.7710 -11.7710 -11.7701 -11.7689 -11.7661 -11.7642 -11.7602
   -11.7587 -11.7561 -11.7560 -11.7509 -11.7507 -11.7503 -11.7484 -11.7430
   -11.7378 -11.7352 -11.7331 -11.7311 -11.7310 -11.7281 -11.7260 -11.7237
   -11.7235 -11.7226 -11.7197 -11.7192 -11.7156 -11.7116 -11.7112 -11.7089
   -11.7069 -11.7040 -11.7026 -11.7018 -11.7011 -11.7010 -11.7001 -11.6991
   -11.6979 -11.6950 -11.6921 -11.6912 -11.6906 -11.6905 -11.6887 -11.6877
   -11.6848 -11.6825 -11.6766 -11.6729 -11.6715 -11.6675 -11.6658 -11.6633
    -8.5350  -8.3902  -7.5007  -7.4447  -7.1385  -7.1126  -7.1104  -7.0065
    -6.8300  -6.8071  -6.7953  -6.7927  -6.7796  -6.1481  -5.9593  -2.0736
    -1.5077  -0.8973  -0.7141  -0.6027  -0.5987  -0.2636  -0.2523  -0.0461
    -0.0320   0.0658   0.1142   0.2680   0.3124   0.4042   0.4122   0.6651
     0.7982   0.9706   1.0731   1.3444   1.4570   2.3602   3.0573   5.2777
     5.3571   5.4111   5.4247   5.4403   5.5882   5.6535   5.7902   5.8021
     5.8160   5.8362   5.9366   5.9512   6.1518   6.2285   6.2491   6.4056
     6.4419   6.5475   6.6935   6.8622   6.9159   7.0380   7.0494   7.1283
     7.1845   7.2225   7.3268   7.4195   7.5068   7.6033   7.6428   7.7085
     7.7981   7.9453   8.2089   8.2698   8.3669   8.4104   8.4307   8.4469
     8.5946   8.7994   8.8292   8.8788   8.9770   9.0831   9.1204   9.1265
     9.4997   9.5689   9.7394   9.7513   9.8099   9.8359   9.8601   9.8858
     9.9027  10.1601  10.2564  10.2842  10.3559  10.4013  10.4224  10.5660
    10.5958  10.6087  10.7296  10.8339  11.0116  11.9319  12.1268  12.2805
    12.8109  13.0181  13.0475  13.3445  13.6226  13.7289  13.7780  13.9964
    14.0530  14.2737  14.3240  14.4404  14.4663  14.5127  14.6325  14.6767
    14.9081  14.9389  15.0588  15.0751  15.1110  15.1386  15.1874  15.3242
    15.4166  15.4678  15.5066  15.5313  15.6718  15.7618  15.8291  15.8709
    16.0065  16.0600  16.0689  16.0834  16.2449  16.3790  16.4465  16.8575
    16.9933  17.0324  17.1160

          k = 0.0000 0.1667 0.1065 ( 29197 PWs)   bands (ev):

   -35.4245 -35.4244 -35.4244 -35.4243 -35.4234 -35.4233 -35.4233 -35.4232
   -35.4122 -35.4122 -35.4121 -35.4120 -35.4109 -35.4108 -35.4108 -35.4107
   -35.4066 -35.4064 -35.4064 -35.4063 -35.3336 -35.3336 -35.3336 -35.3335
   -35.3320 -35.3319 -35.3319 -35.3318 -35.3271 -35.3271 -35.3271 -35.3270
   -35.3248 -35.3248 -35.3247 -35.3247 -35.3225 -35.3224 -35.3224 -35.3222
   -11.9947 -11.9917 -11.9892 -11.9817 -11.9736 -11.9631 -11.9499 -11.9360
   -11.9347 -11.9256 -11.9183 -11.8991 -11.8862 -11.8132 -11.8010 -11.7967
   -11.7959 -11.7908 -11.7903 -11.7871 -11.7821 -11.7773 -11.7771 -11.7742
   -11.7736 -11.7721 -11.7717 -11.7701 -11.7699 -11.7657 -11.7639 -11.7610
   -11.7590 -11.7567 -11.7567 -11.7517 -11.7510 -11.7509 -11.7479 -11.7451
   -11.7364 -11.7354 -11.7317 -11.7310 -11.7299 -11.7261 -11.7258 -11.7234
   -11.7222 -11.7211 -11.7187 -11.7184 -11.7157 -11.7115 -11.7107 -11.7091
   -11.7065 -11.7041 -11.7030 -11.7017 -11.7015 -11.7008 -11.7000 -11.6991
   -11.6979 -11.6954 -11.6927 -11.6918 -11.6907 -11.6907 -11.6886 -11.6878
   -11.6853 -11.6827 -11.6771 -11.6731 -11.6717 -11.6676 -11.6660 -11.6634
    -8.5348  -8.3905  -7.5004  -7.4450  -7.1380  -7.1131  -7.1104  -7.0065
    -6.8299  -6.8067  -6.7955  -6.7930  -6.7796  -6.1481  -5.9593  -2.0455
    -1.5620  -0.8856  -0.7265  -0.6018  -0.5983  -0.2581  -0.2475  -0.0598
    -0.0420   0.0939   0.1732   0.2723   0.3161   0.4096   0.4112   0.6103
     0.8355   1.0040   1.0745   1.2474   1.4280   2.4332   3.0316   5.2913
     5.3656   5.4070   5.4271   5.4432   5.5713   5.6476   5.7034   5.7483
     5.7973   5.8716   5.9589   6.0163   6.1062   6.2930   6.2978   6.4423
     6.4568   6.5753   6.6921   6.8275   6.8285   6.9761   7.0957   7.1357
     7.1840   7.2225   7.3092   7.3937   7.4518   7.6727   7.6895   7.7680
     7.8567   7.9444   8.2177   8.3001   8.3717   8.4228   8.4331   8.4498
     8.5827   8.7387   8.7803   8.8488   8.8932   8.9837   9.1344   9.1416
     9.4700   9.6536   9.7314   9.7531   9.8054   9.8622   9.8810   9.9005
     9.9230  10.1163  10.2362  10.2763  10.3567  10.4121  10.4323  10.5595
    10.5876  10.6055  10.7366  10.8272  11.0538  12.0016  12.2292  12.2483
    12.8145  13.0278  13.0754  13.3576  13.6194  13.7389  13.7578  13.8949
    14.0809  14.1860  14.2295  14.3275  14.4465  14.4592  14.6396  14.6580
    14.7980  14.9340  15.0335  15.0595  15.1340  15.2095  15.3751  15.4237
    15.4465  15.5218  15.5333  15.5378  15.6386  15.7381  15.8114  15.8937
    16.0129  16.0564  16.0788  16.2366  16.2371  16.3908  16.4433  16.8409
    16.9716  16.9750  17.1011

          k = 0.0000 0.1667 0.2129 ( 29192 PWs)   bands (ev):

   -35.4245 -35.4245 -35.4244 -35.4243 -35.4234 -35.4233 -35.4233 -35.4232
   -35.4122 -35.4121 -35.4121 -35.4120 -35.4109 -35.4108 -35.4108 -35.4107
   -35.4066 -35.4064 -35.4064 -35.4063 -35.3337 -35.3336 -35.3336 -35.3335
   -35.3320 -35.3319 -35.3319 -35.3318 -35.3271 -35.3271 -35.3271 -35.3270
   -35.3248 -35.3248 -35.3247 -35.3247 -35.3224 -35.3224 -35.3223 -35.3223
   -11.9946 -11.9885 -11.9871 -11.9827 -11.9772 -11.9647 -11.9495 -11.9367
   -11.9340 -11.9260 -11.9191 -11.8964 -11.8887 -11.8098 -11.8005 -11.7971
   -11.7954 -11.7891 -11.7888 -11.7856 -11.7829 -11.7796 -11.7778 -11.7752
   -11.7750 -11.7737 -11.7719 -11.7717 -11.7695 -11.7655 -11.7639 -11.7623
   -11.7597 -11.7581 -11.7576 -11.7538 -11.7536 -11.7518 -11.7485 -11.7453
   -11.7358 -11.7349 -11.7302 -11.7277 -11.7276 -11.7255 -11.7235 -11.7225
   -11.7199 -11.7182 -11.7170 -11.7165 -11.7158 -11.7135 -11.7092 -11.7090
   -11.7060 -11.7045 -11.7039 -11.7018 -11.7016 -11.7001 -11.7000 -11.6989
   -11.6981 -11.6960 -11.6941 -11.6930 -11.6910 -11.6908 -11.6885 -11.6880
   -11.6865 -11.6829 -11.6784 -11.6735 -11.6721 -11.6678 -11.6663 -11.6636
    -8.5344  -8.3909  -7.4998  -7.4457  -7.1370  -7.1142  -7.1103  -7.0066
    -6.8295  -6.8059  -6.7959  -6.7938  -6.7797  -6.1481  -5.9593  -1.9644
    -1.6906  -0.8540  -0.7593  -0.6000  -0.5977  -0.2448  -0.2366  -0.0870
    -0.0626   0.1073   0.2799   0.3121   0.3801   0.4096   0.4300   0.5415
     0.8520   0.9871   1.0773   1.1357   1.3549   2.5788   2.9627   5.3249
     5.3739   5.4068   5.4346   5.4499   5.5394   5.6266   5.6570   5.6591
     5.7555   5.8107   5.9591   6.1627   6.1824   6.3498   6.3757   6.4427
     6.5312   6.6400   6.6481   6.7175   6.7559   6.8633   7.1174   7.1414
     7.1815   7.2227   7.3030   7.3887   7.3887   7.7331   7.7419   7.9286
     7.9457   8.0172   8.2179   8.3801   8.3913   8.4373   8.4387   8.4866
     8.4978   8.5456   8.6006   8.7848   8.8527   8.8631   9.1434   9.1507
     9.4566   9.7130   9.7160   9.7703   9.8248   9.8956   9.9058   9.9647
     9.9758  10.0253  10.1675  10.2245  10.3716  10.4371  10.4567  10.5405
    10.5683  10.5967  10.7554  10.8088  11.1566  12.0938  12.2584  12.5186
    12.7461  13.1128  13.1246  13.3773  13.5597  13.5729  13.6902  13.8060
    13.8295  14.1507  14.2117  14.3330  14.3669  14.4812  14.5381  14.6124
    14.7489  14.9374  14.9943  15.0792  15.2163  15.2360  15.2757  15.4250
    15.4953  15.5543  15.6036  15.6087  15.7467  15.7779  15.9382  15.9781
    16.0005  16.0597  16.1593  16.2873  16.4205  16.4460  16.4932  16.7284
    16.8825  16.8992  16.9831

          k = 0.0000 0.1667-0.3194 ( 29188 PWs)   bands (ev):

   -35.4245 -35.4245 -35.4244 -35.4243 -35.4233 -35.4233 -35.4233 -35.4232
   -35.4121 -35.4121 -35.4120 -35.4120 -35.4109 -35.4108 -35.4108 -35.4107
   -35.4065 -35.4064 -35.4064 -35.4063 -35.3337 -35.3336 -35.3336 -35.3335
   -35.3319 -35.3319 -35.3319 -35.3318 -35.3271 -35.3270 -35.3270 -35.3270
   -35.3248 -35.3247 -35.3247 -35.3246 -35.3224 -35.3223 -35.3223 -35.3222
   -11.9946 -11.9857 -11.9847 -11.9844 -11.9802 -11.9655 -11.9492 -11.9370
   -11.9336 -11.9262 -11.9196 -11.8941 -11.8909 -11.8062 -11.8033 -11.7965
   -11.7947 -11.7882 -11.7872 -11.7846 -11.7842 -11.7799 -11.7795 -11.7775
   -11.7744 -11.7732 -11.7725 -11.7720 -11.7693 -11.7655 -11.7642 -11.7627
   -11.7596 -11.7592 -11.7579 -11.7554 -11.7544 -11.7522 -11.7492 -11.7451
   -11.7360 -11.7346 -11.7285 -11.7261 -11.7260 -11.7258 -11.7223 -11.7212
   -11.7188 -11.7179 -11.7167 -11.7162 -11.7143 -11.7141 -11.7094 -11.7083
   -11.7068 -11.7047 -11.7038 -11.7019 -11.7015 -11.7002 -11.6998 -11.6988
   -11.6981 -11.6963 -11.6949 -11.6937 -11.6909 -11.6908 -11.6884 -11.6881
   -11.6874 -11.6830 -11.6791 -11.6737 -11.6723 -11.6678 -11.6665 -11.6638
    -8.5342  -8.3912  -7.4994  -7.4460  -7.1364  -7.1147  -7.1102  -7.0067
    -6.8294  -6.8054  -6.7960  -6.7943  -6.7798  -6.1481  -5.9593  -1.8578
    -1.8190  -0.8214  -0.7926  -0.5990  -0.5974  -0.2365  -0.2303  -0.1014
    -0.0735   0.1113   0.2832   0.3192   0.4090   0.4318   0.4921   0.6277
     0.7281   0.8893   1.0786   1.2326   1.2630   2.6675   2.9065   5.3474
     5.3701   5.4131   5.4424   5.4542   5.5239   5.6084   5.6217   5.6369
     5.7442   5.7853   5.9385   6.2577   6.2589   6.3684   6.4103   6.4427
     6.5576   6.5654   6.6673   6.6982   6.7085   6.8259   7.0898   7.1594
     7.1773   7.2229   7.3054   7.3684   7.3999   7.7583   7.7638   7.9417
     8.0668   8.1783   8.1955   8.3365   8.3671   8.3842   8.4380   8.4446
     8.4861   8.5055   8.5975   8.6558   8.8394   8.8601   9.1459   9.1528
     9.4555   9.7085   9.7141   9.7598   9.8996   9.9022   9.9052   9.9397
    10.0427  10.0687  10.0915  10.1417  10.3836  10.4508  10.4796  10.5208
    10.5565  10.5911  10.7759  10.7885  11.2205  12.0513  12.4245  12.6145
    12.8738  12.9793  13.2488  13.3119  13.3409  13.4922  13.6495  13.7430
    14.0214  14.0724  14.1373  14.1812  14.4690  14.5449  14.5834  14.6292
    14.6612  14.7370  15.0509  15.1721  15.1822  15.2872  15.3117  15.3912
    15.4525  15.5468  15.5858  15.6655  15.7640  15.7968  15.8491  15.9666
    16.0329  16.2868  16.3244  16.4459  16.4523  16.4540  16.5635  16.6412
    16.6697  16.8358  16.8786

          k = 0.0000 0.3333 0.0000 ( 29167 PWs)   bands (ev):

   -35.4245 -35.4244 -35.4244 -35.4243 -35.4233 -35.4233 -35.4232 -35.4231
   -35.4122 -35.4121 -35.4120 -35.4119 -35.4109 -35.4108 -35.4108 -35.4108
   -35.4065 -35.4065 -35.4063 -35.4062 -35.3337 -35.3336 -35.3336 -35.3335
   -35.3319 -35.3319 -35.3318 -35.3317 -35.3271 -35.3271 -35.3270 -35.3270
   -35.3248 -35.3248 -35.3247 -35.3246 -35.3225 -35.3224 -35.3223 -35.3221
   -11.9882 -11.9806 -11.9799 -11.9757 -11.9650 -11.9605 -11.9604 -11.9479
   -11.9467 -11.9355 -11.9286 -11.8684 -11.8483 -11.8130 -11.8049 -11.7950
   -11.7934 -11.7901 -11.7869 -11.7826 -11.7813 -11.7805 -11.7793 -11.7733
   -11.7723 -11.7705 -11.7693 -11.7682 -11.7624 -11.7622 -11.7604 -11.7582
   -11.7569 -11.7556 -11.7503 -11.7485 -11.7484 -11.7476 -11.7456 -11.7455
   -11.7438 -11.7418 -11.7381 -11.7373 -11.7353 -11.7319 -11.7277 -11.7265
   -11.7252 -11.7234 -11.7215 -11.7181 -11.7176 -11.7150 -11.7122 -11.7109
   -11.7104 -11.7095 -11.7078 -11.7067 -11.7049 -11.7027 -11.7013 -11.7009
   -11.6985 -11.6977 -11.6951 -11.6937 -11.6932 -11.6920 -11.6911 -11.6898
   -11.6858 -11.6831 -11.6792 -11.6762 -11.6715 -11.6714 -11.6691 -11.6637
    -8.3856  -8.2729  -7.8471  -7.7225  -7.0771  -7.0497  -7.0474  -6.9799
    -6.8990  -6.8669  -6.8622  -6.6103  -6.4744  -6.2057  -6.0579  -1.9138
    -1.3859  -1.2935  -0.9484  -0.5283  -0.5243  -0.3182  -0.3037  -0.0390
     0.0448   0.1161   0.1908   0.2937   0.3881   0.4792   0.4875   0.6448
     0.7881   0.9341   1.1552   1.3936   1.7561   2.2850   2.6645   5.1790
     5.2244   5.2775   5.4132   5.4272   5.4452   5.5769   5.5848   5.6302
     5.6702   5.7705   5.7953   5.8973   6.0963   6.1030   6.3716   6.4778
     6.5502   6.7491   6.8320   6.8634   6.9485   7.1250   7.3785   7.4656
     7.5314   7.6021   7.6165   7.6772   7.6938   7.7466   7.7678   7.8962
     7.9145   8.0576   8.1018   8.1477   8.2123   8.2305   8.3285   8.3567
     8.5359   8.6327   8.6890   8.8996   8.9686   9.0568   9.0993   9.1302
     9.5025   9.5636   9.6481   9.6818   9.7107   9.7967   9.8365   9.8534
     9.9016   9.9967  10.0206  10.0386  10.0616  10.1065  10.2038  10.2352
    10.3855  10.4591  10.4982  10.6999  11.4815  12.5554  12.7179  12.7766
    12.9001  12.9473  13.3111  13.5198  13.6753  13.7296  13.8111  13.9163
    14.0317  14.2136  14.3868  14.5562  14.5726  14.5761  14.6133  14.6793
    14.7318  14.8025  14.8194  14.8694  14.8777  14.9420  15.0898  15.1244
    15.1690  15.4042  15.4173  15.5530  15.5775  15.7165  15.9009  16.0251
    16.1333  16.1901  16.2099  16.2921  16.3265  16.4952  16.5786  16.6058
    16.9028  16.9662  16.9870

          k = 0.0000 0.3333 0.1065 ( 29197 PWs)   bands (ev):

   -35.4246 -35.4244 -35.4244 -35.4243 -35.4233 -35.4233 -35.4232 -35.4232
   -35.4122 -35.4122 -35.4121 -35.4120 -35.4109 -35.4109 -35.4108 -35.4107
   -35.4066 -35.4065 -35.4064 -35.4063 -35.3338 -35.3336 -35.3336 -35.3335
   -35.3319 -35.3319 -35.3319 -35.3318 -35.3272 -35.3271 -35.3271 -35.3270
   -35.3249 -35.3248 -35.3247 -35.3247 -35.3225 -35.3224 -35.3224 -35.3222
   -11.9881 -11.9795 -11.9792 -11.9756 -11.9649 -11.9618 -11.9613 -11.9479
   -11.9461 -11.9359 -11.9293 -11.8680 -11.8491 -11.8120 -11.8038 -11.7959
   -11.7928 -11.7895 -11.7867 -11.7832 -11.7817 -11.7799 -11.7786 -11.7738
   -11.7730 -11.7714 -11.7713 -11.7682 -11.7636 -11.7625 -11.7608 -11.7580
   -11.7568 -11.7550 -11.7511 -11.7493 -11.7489 -11.7482 -11.7463 -11.7456
   -11.7428 -11.7406 -11.7380 -11.7361 -11.7347 -11.7316 -11.7276 -11.7263
   -11.7243 -11.7219 -11.7214 -11.7181 -11.7171 -11.7145 -11.7120 -11.7116
   -11.7097 -11.7094 -11.7074 -11.7062 -11.7044 -11.7034 -11.7016 -11.7008
   -11.6984 -11.6976 -11.6949 -11.6941 -11.6937 -11.6924 -11.6913 -11.6901
   -11.6863 -11.6833 -11.6795 -11.6765 -11.6717 -11.6716 -11.6691 -11.6638
    -8.3853  -8.2731  -7.8469  -7.7227  -7.0767  -7.0501  -7.0473  -6.9800
    -6.8988  -6.8671  -6.8622  -6.6103  -6.4744  -6.2057  -6.0579  -1.8870
    -1.4345  -1.2754  -0.9767  -0.5278  -0.5242  -0.3171  -0.3031  -0.0428
     0.0432   0.1465   0.2339   0.2933   0.3938   0.4803   0.4946   0.6433
     0.7859   0.9342   1.0873   1.4158   1.7375   2.3126   2.6499   5.1635
     5.2131   5.2734   5.3704   5.4016   5.4383   5.5806   5.6113   5.6652
     5.7003   5.7499   5.8119   5.9425   6.0730   6.0965   6.3980   6.5283
     6.5751   6.7678   6.7897   6.8646   6.9511   7.1079   7.3616   7.4823
     7.5141   7.6028   7.6136   7.6507   7.6695   7.7040   7.7623   7.9082
     7.9128   8.0962   8.1379   8.1879   8.2165   8.2180   8.3495   8.3523
     8.5288   8.6053   8.6650   8.8525   8.9517   8.9949   9.0616   9.0671
     9.4355   9.6339   9.6573   9.7407   9.7537   9.8172   9.8727   9.8844
     9.9092  10.0079  10.0154  10.0628  10.0721  10.1018  10.1997  10.2841
    10.3601  10.4543  10.5103  10.6860  11.4841  12.5609  12.7266  12.7585
    12.9446  12.9592  13.3023  13.5292  13.6752  13.7009  13.7865  13.9226
    13.9791  14.2389  14.2969  14.3082  14.3335  14.5214  14.6048  14.6634
    14.7071  14.8001  14.8411  14.9216  15.0162  15.0909  15.1391  15.1614
    15.3523  15.4706  15.4814  15.5641  15.5825  15.7298  15.9044  16.0071
    16.1555  16.1819  16.2103  16.2843  16.3273  16.4497  16.5646  16.5891
    16.8468  16.9472  16.9977

          k = 0.0000 0.3333 0.2129 ( 29173 PWs)   bands (ev):

   -35.4245 -35.4244 -35.4244 -35.4243 -35.4233 -35.4233 -35.4232 -35.4232
   -35.4122 -35.4121 -35.4120 -35.4119 -35.4109 -35.4109 -35.4108 -35.4107
   -35.4065 -35.4064 -35.4064 -35.4063 -35.3337 -35.3336 -35.3336 -35.3335
   -35.3319 -35.3319 -35.3318 -35.3318 -35.3271 -35.3271 -35.3271 -35.3270
   -35.3248 -35.3247 -35.3247 -35.3247 -35.3224 -35.3224 -35.3223 -35.3223
   -11.9880 -11.9779 -11.9765 -11.9749 -11.9651 -11.9647 -11.9633 -11.9478
   -11.9446 -11.9367 -11.9311 -11.8670 -11.8506 -11.8091 -11.8017 -11.7976
   -11.7918 -11.7877 -11.7866 -11.7848 -11.7822 -11.7787 -11.7771 -11.7761
   -11.7754 -11.7723 -11.7717 -11.7697 -11.7646 -11.7633 -11.7607 -11.7593
   -11.7567 -11.7541 -11.7526 -11.7508 -11.7492 -11.7489 -11.7475 -11.7459
   -11.7415 -11.7384 -11.7374 -11.7344 -11.7335 -11.7307 -11.7274 -11.7244
   -11.7226 -11.7213 -11.7199 -11.7178 -11.7156 -11.7145 -11.7125 -11.7119
   -11.7097 -11.7078 -11.7059 -11.7058 -11.7045 -11.7038 -11.7015 -11.7008
   -11.6982 -11.6976 -11.6956 -11.6947 -11.6945 -11.6926 -11.6916 -11.6905
   -11.6872 -11.6837 -11.6804 -11.6771 -11.6722 -11.6720 -11.6693 -11.6641
    -8.3848  -8.2737  -7.8466  -7.7231  -7.0759  -7.0510  -7.0471  -6.9801
    -6.8983  -6.8676  -6.8622  -6.6103  -6.4744  -6.2057  -6.0579  -1.8101
    -1.5526  -1.2220  -1.0481  -0.5267  -0.5242  -0.3148  -0.3020  -0.0497
     0.0399   0.1623   0.2924   0.3789   0.4258   0.4824   0.5100   0.6395
     0.7710   0.9266   0.9345   1.4734   1.6837   2.3737   2.6131   5.1338
     5.1896   5.2463   5.3032   5.4140   5.4575   5.5864   5.6100   5.6630
     5.7129   5.7427   5.9026   6.0004   6.0704   6.0970   6.4299   6.6295
     6.6450   6.7045   6.7517   6.8743   6.9755   7.0976   7.3165   7.4603
     7.5149   7.5478   7.6049   7.6165   7.6479   7.6832   7.7474   7.8971
     7.9401   8.1422   8.2054   8.2104   8.2336   8.2375   8.3438   8.3903
     8.5251   8.5541   8.6132   8.7104   8.8690   8.9228   9.0159   9.0478
     9.3759   9.5899   9.6912   9.8260   9.8545   9.8842   9.9103   9.9366
     9.9378  10.0210  10.0230  10.0533  10.1230  10.1516  10.2319  10.2923
    10.3337  10.4383  10.5450  10.6486  11.4928  12.5700  12.7310  12.7524
    12.9848  13.0983  13.2890  13.5392  13.5828  13.6449  13.7312  13.8526
    13.9383  13.9965  14.0317  14.2572  14.2662  14.4820  14.5666  14.6662
    14.7075  14.8047  14.8469  14.9844  15.0209  15.1679  15.1811  15.3353
    15.4628  15.5421  15.5994  15.7044  15.7407  15.9086  15.9141  15.9603
    16.0664  16.1572  16.2594  16.2804  16.3247  16.3806  16.5246  16.5629
    16.7230  16.8417  17.0152

          k = 0.0000 0.3333-0.3194 ( 29180 PWs)   bands (ev):

   -35.4245 -35.4244 -35.4244 -35.4243 -35.4233 -35.4233 -35.4233 -35.4232
   -35.4122 -35.4121 -35.4121 -35.4120 -35.4110 -35.4108 -35.4108 -35.4107
   -35.4065 -35.4064 -35.4064 -35.4063 -35.3337 -35.3336 -35.3336 -35.3335
   -35.3320 -35.3319 -35.3319 -35.3318 -35.3272 -35.3270 -35.3270 -35.3270
   -35.3248 -35.3248 -35.3247 -35.3247 -35.3224 -35.3224 -35.3223 -35.3223
   -11.9879 -11.9775 -11.9740 -11.9740 -11.9678 -11.9654 -11.9640 -11.9478
   -11.9437 -11.9371 -11.9320 -11.8664 -11.8514 -11.8066 -11.8025 -11.7975
   -11.7914 -11.7869 -11.7862 -11.7861 -11.7824 -11.7793 -11.7768 -11.7767
   -11.7753 -11.7720 -11.7720 -11.7714 -11.7642 -11.7638 -11.7604 -11.7604
   -11.7570 -11.7540 -11.7531 -11.7515 -11.7497 -11.7491 -11.7480 -11.7456
   -11.7414 -11.7372 -11.7371 -11.7337 -11.7326 -11.7308 -11.7273 -11.7220
   -11.7217 -11.7212 -11.7199 -11.7178 -11.7153 -11.7146 -11.7124 -11.7118
   -11.7098 -11.7068 -11.7061 -11.7049 -11.7044 -11.7039 -11.7012 -11.7008
   -11.6981 -11.6976 -11.6969 -11.6951 -11.6944 -11.6927 -11.6918 -11.6907
   -11.6877 -11.6839 -11.6809 -11.6774 -11.6725 -11.6722 -11.6694 -11.6643
    -8.3845  -8.2740  -7.8464  -7.7233  -7.0754  -7.0514  -7.0470  -6.9802
    -6.8981  -6.8678  -6.8622  -6.6103  -6.4744  -6.2057  -6.0580  -1.7102
    -1.6717  -1.1588  -1.1197  -0.5262  -0.5242  -0.3135  -0.3015  -0.0530
     0.0382   0.1656   0.2919   0.3990   0.4835   0.5171   0.5988   0.6243
     0.6850   0.8383   0.9347   1.5214   1.6365   2.4112   2.5870   5.1197
     5.1780   5.2286   5.2785   5.4364   5.4803   5.5805   5.5895   5.6618
     5.6970   5.7465   5.9655   5.9908   6.0971   6.1217   6.4385   6.6308
     6.6742   6.7172   6.7326   6.8714   6.9916   7.1170   7.2853   7.4247
     7.4901   7.5332   7.6054   7.6193   7.6459   7.6770   7.7372   7.8913
     7.9503   8.1586   8.2039   8.2133   8.2379   8.2861   8.3370   8.4354
     8.5376   8.5595   8.5649   8.5915   8.8147   8.9147   9.0058   9.0467
     9.3531   9.5711   9.6944   9.8379   9.9056   9.9113   9.9359   9.9575
     9.9717   9.9903  10.0212  10.0743  10.2014  10.2088  10.2089  10.2232
    10.3613  10.4211  10.5851  10.6074  11.4989  12.5721  12.7267  12.7598
    13.0452  13.2319  13.2893  13.4418  13.4684  13.6321  13.7670  13.8201
    13.8351  13.8772  13.9561  14.2076  14.3011  14.4875  14.5981  14.7513
    14.7516  14.7665  14.7890  14.8712  15.0032  15.2070  15.2461  15.3879
    15.5040  15.6265  15.6825  15.7393  15.8028  15.9247  15.9491  15.9730
    16.1285  16.1320  16.2170  16.2516  16.3715  16.4010  16.4813  16.5518
    16.6435  16.7146  17.0081

          k = 0.0000-0.5000 0.0000 ( 29172 PWs)   bands (ev):

   -35.4246 -35.4245 -35.4244 -35.4244 -35.4234 -35.4233 -35.4232 -35.4232
   -35.4122 -35.4122 -35.4120 -35.4119 -35.4109 -35.4109 -35.4108 -35.4107
   -35.4065 -35.4065 -35.4064 -35.4062 -35.3338 -35.3337 -35.3336 -35.3336
   -35.3320 -35.3319 -35.3318 -35.3318 -35.3271 -35.3271 -35.3271 -35.3269
   -35.3248 -35.3248 -35.3247 -35.3246 -35.3225 -35.3224 -35.3223 -35.3221
   -11.9818 -11.9770 -11.9715 -11.9658 -11.9653 -11.9647 -11.9613 -11.9489
   -11.9466 -11.9458 -11.9419 -11.8489 -11.8129 -11.8122 -11.8088 -11.8062
   -11.7951 -11.7915 -11.7890 -11.7852 -11.7818 -11.7815 -11.7740 -11.7719
   -11.7717 -11.7706 -11.7699 -11.7689 -11.7655 -11.7639 -11.7604 -11.7509
   -11.7508 -11.7508 -11.7503 -11.7499 -11.7484 -11.7462 -11.7454 -11.7439
   -11.7432 -11.7431 -11.7422 -11.7393 -11.7346 -11.7338 -11.7300 -11.7277
   -11.7274 -11.7268 -11.7241 -11.7202 -11.7199 -11.7181 -11.7163 -11.7132
   -11.7128 -11.7093 -11.7090 -11.7064 -11.7054 -11.7032 -11.7015 -11.6999
   -11.6993 -11.6976 -11.6974 -11.6967 -11.6942 -11.6942 -11.6926 -11.6893
   -11.6855 -11.6836 -11.6810 -11.6792 -11.6730 -11.6709 -11.6702 -11.6639
    -8.1736  -8.1475  -8.1446  -7.8852  -6.9968  -6.9832  -6.9781  -6.9630
    -6.9610  -6.9597  -6.9473  -6.5107  -6.2529  -6.2336  -6.2248  -1.6729
    -1.6288  -1.1994  -1.1754  -0.4492  -0.4244  -0.4146  -0.3809  -0.0337
     0.1346   0.1740   0.2301   0.2466   0.3027   0.5259   0.6152   0.7002
     0.7969   0.8917   0.9125   1.7641   2.1204   2.1420   2.2156   5.1816
     5.1940   5.2151   5.2440   5.2809   5.4186   5.5841   5.6045   5.6279
     5.6388   5.7570   5.8118   5.8370   5.9018   6.1015   6.3660   6.6592
     6.6875   6.6907   6.7762   7.1571   7.2315   7.2870   7.3772   7.4240
     7.4343   7.5719   7.6605   7.8113   7.8153   7.9043   7.9469   7.9589
     7.9724   8.0029   8.0866   8.1724   8.2033   8.2173   8.3426   8.3468
     8.3942   8.4256   8.6985   9.0520   9.1722   9.2688   9.2893   9.3222
     9.3491   9.3766   9.3857   9.4008   9.5847   9.6203   9.6435   9.6442
     9.7745   9.8338   9.9809   9.9978  10.1073  10.1680  10.2300  10.2401
    10.2428  10.3255  10.5333  10.5351  11.7057  12.6639  12.7446  13.0838
    13.4320  13.4982  13.6220  13.6384  13.6501  13.6601  13.7092  13.7165
    13.8151  14.1449  14.2268  14.3313  14.3402  14.3557  14.4274  14.4445
    14.5476  14.8990  14.9541  15.0136  15.0270  15.0661  15.1054  15.1283
    15.1518  15.1643  15.4239  15.4422  15.4735  15.8502  15.9633  16.0508
    16.1001  16.1684  16.3499  16.3618  16.4279  16.6376  16.6639  16.6875
    16.7344  16.7711  16.7928

          k = 0.0000-0.5000 0.1065 ( 29170 PWs)   bands (ev):

   -35.4246 -35.4245 -35.4244 -35.4244 -35.4233 -35.4233 -35.4232 -35.4232
   -35.4122 -35.4122 -35.4120 -35.4119 -35.4109 -35.4108 -35.4108 -35.4107
   -35.4065 -35.4065 -35.4064 -35.4063 -35.3338 -35.3337 -35.3336 -35.3335
   -35.3319 -35.3319 -35.3318 -35.3318 -35.3271 -35.3270 -35.3270 -35.3270
   -35.3248 -35.3247 -35.3247 -35.3246 -35.3225 -35.3225 -35.3224 -35.3223
   -11.9815 -11.9768 -11.9717 -11.9648 -11.9647 -11.9645 -11.9604 -11.9492
   -11.9478 -11.9468 -11.9430 -11.8490 -11.8128 -11.8115 -11.8103 -11.8040
   -11.7952 -11.7910 -11.7885 -11.7862 -11.7818 -11.7812 -11.7741 -11.7735
   -11.7724 -11.7718 -11.7700 -11.7686 -11.7649 -11.7643 -11.7612 -11.7520
   -11.7509 -11.7508 -11.7505 -11.7494 -11.7475 -11.7462 -11.7451 -11.7441
   -11.7431 -11.7431 -11.7415 -11.7395 -11.7348 -11.7340 -11.7295 -11.7277
   -11.7267 -11.7265 -11.7233 -11.7199 -11.7189 -11.7176 -11.7161 -11.7136
   -11.7117 -11.7097 -11.7076 -11.7065 -11.7050 -11.7038 -11.7015 -11.6999
   -11.6989 -11.6977 -11.6975 -11.6964 -11.6946 -11.6944 -11.6931 -11.6896
   -11.6860 -11.6838 -11.6814 -11.6794 -11.6734 -11.6710 -11.6703 -11.6640
    -8.1723  -8.1488  -8.1445  -7.8854  -6.9966  -6.9829  -6.9775  -6.9637
    -6.9612  -6.9601  -6.9473  -6.5107  -6.2529  -6.2336  -6.2248  -1.6474
    -1.6067  -1.2355  -1.2214  -0.4492  -0.4247  -0.4146  -0.3808  -0.0326
     0.1348   0.1826   0.2304   0.2935   0.3411   0.5295   0.6150   0.6963
     0.7966   0.8633   0.8841   1.7641   2.1217   2.1408   2.2085   5.1427
     5.1755   5.1885   5.2076   5.2934   5.4312   5.6239   5.6385   5.6536
     5.6538   5.7620   5.8122   5.8315   5.9302   6.0920   6.3654   6.6694
     6.6996   6.7032   6.7831   7.1803   7.2384   7.2852   7.3749   7.4261
     7.4342   7.5619   7.6291   7.7610   7.7637   7.9080   7.9476   7.9478
     7.9558   8.0119   8.0846   8.1815   8.2078   8.2224   8.3505   8.3667
     8.4050   8.4410   8.6678   8.9570   9.1249   9.2269   9.2649   9.2717
     9.3057   9.3272   9.3610   9.3820   9.6500   9.7096   9.7371   9.7534
     9.8288   9.8704   9.9997  10.0123  10.1293  10.1695  10.2484  10.2485
    10.2579  10.3248  10.5111  10.5158  11.6762  12.6735  12.7335  13.0849
    13.4393  13.4920  13.5789  13.5946  13.6309  13.6490  13.6772  13.7059
    13.7910  14.1070  14.1232  14.1829  14.2016  14.4497  14.5868  14.6082
    14.6140  14.8190  14.8345  14.8926  14.9531  15.0703  15.1308  15.2587
    15.3022  15.3630  15.3932  15.4348  15.5252  15.8721  15.9745  16.0540
    16.1234  16.1511  16.3597  16.3609  16.4230  16.6335  16.6473  16.6571
    16.7163  16.7409  16.7640

          k = 0.0000-0.5000 0.2129 ( 29198 PWs)   bands (ev):

   -35.4246 -35.4245 -35.4245 -35.4244 -35.4233 -35.4233 -35.4232 -35.4232
   -35.4122 -35.4122 -35.4121 -35.4120 -35.4110 -35.4109 -35.4108 -35.4108
   -35.4066 -35.4065 -35.4064 -35.4064 -35.3338 -35.3337 -35.3336 -35.3336
   -35.3319 -35.3319 -35.3319 -35.3318 -35.3272 -35.3271 -35.3271 -35.3270
   -35.3248 -35.3248 -35.3248 -35.3247 -35.3225 -35.3224 -35.3224 -35.3223
   -11.9810 -11.9764 -11.9723 -11.9647 -11.9625 -11.9622 -11.9583 -11.9508
   -11.9497 -11.9492 -11.9455 -11.8492 -11.8125 -11.8117 -11.8100 -11.8006
   -11.7952 -11.7899 -11.7889 -11.7869 -11.7833 -11.7797 -11.7761 -11.7756
   -11.7742 -11.7718 -11.7698 -11.7685 -11.7649 -11.7637 -11.7626 -11.7535
   -11.7514 -11.7511 -11.7509 -11.7492 -11.7462 -11.7460 -11.7446 -11.7441
   -11.7432 -11.7428 -11.7407 -11.7399 -11.7351 -11.7345 -11.7288 -11.7281
   -11.7265 -11.7238 -11.7218 -11.7201 -11.7169 -11.7161 -11.7153 -11.7135
   -11.7116 -11.7090 -11.7072 -11.7058 -11.7047 -11.7035 -11.7016 -11.6998
   -11.6983 -11.6979 -11.6977 -11.6961 -11.6957 -11.6957 -11.6935 -11.6902
   -11.6869 -11.6842 -11.6823 -11.6797 -11.6742 -11.6714 -11.6705 -11.6642
    -8.1693  -8.1520  -8.1443  -7.8856  -6.9960  -6.9820  -6.9760  -6.9652
    -6.9618  -6.9610  -6.9473  -6.5108  -6.2529  -6.2337  -6.2248  -1.5738
    -1.5451  -1.3328  -1.3237  -0.4491  -0.4255  -0.4146  -0.3807  -0.0309
     0.1353   0.1883   0.2308   0.4231   0.4234   0.5477   0.6146   0.6721
     0.7955   0.7960   0.8097   1.7641   2.1252   2.1383   2.1936   5.0831
     5.1330   5.1434   5.1518   5.3514   5.4644   5.5588   5.6815   5.7300
     5.7359   5.7757   5.8129   5.8170   5.9969   6.0815   6.3641   6.6930
     6.7272   6.7322   6.7996   7.2300   7.2382   7.3034   7.3533   7.4339
     7.4340   7.5329   7.5695   7.6621   7.6624   7.9041   7.9173   7.9476
     7.9497   8.0155   8.0787   8.1890   8.2032   8.2847   8.3550   8.4248
     8.4352   8.4658   8.6083   8.7529   9.0403   9.1238   9.1807   9.1846
     9.2516   9.3655   9.3676   9.4081   9.7111   9.8343   9.8472   9.8989
     9.9317   9.9318  10.0321  10.0331  10.1750  10.1964  10.2611  10.3000
    10.3057  10.3174  10.4522  10.4658  11.6180  12.6948  12.7090  13.0869
    13.4547  13.4881  13.5164  13.5187  13.5815  13.5989  13.6192  13.6470
    13.7668  13.9942  14.0562  14.0772  14.0900  14.4212  14.6927  14.7173
    14.7698  14.8194  14.8400  14.8926  14.9095  14.9722  15.2131  15.2768
    15.3436  15.3610  15.4807  15.6039  15.6970  15.9391  16.0062  16.0595
    16.1072  16.1745  16.3589  16.3909  16.4213  16.5800  16.5938  16.6304
    16.6814  16.6817  16.6909

          k = 0.0000-0.5000-0.3194 ( 29176 PWs)   bands (ev):

   -35.4247 -35.4245 -35.4244 -35.4244 -35.4233 -35.4233 -35.4232 -35.4231
   -35.4122 -35.4121 -35.4120 -35.4120 -35.4109 -35.4109 -35.4108 -35.4107
   -35.4065 -35.4064 -35.4064 -35.4063 -35.3338 -35.3337 -35.3336 -35.3336
   -35.3319 -35.3319 -35.3318 -35.3317 -35.3272 -35.3271 -35.3270 -35.3270
   -35.3248 -35.3248 -35.3247 -35.3246 -35.3224 -35.3224 -35.3223 -35.3223
   -11.9807 -11.9762 -11.9726 -11.9647 -11.9612 -11.9602 -11.9569 -11.9529
   -11.9507 -11.9500 -11.9471 -11.8493 -11.8122 -11.8122 -11.8092 -11.7986
   -11.7947 -11.7908 -11.7895 -11.7854 -11.7848 -11.7786 -11.7784 -11.7761
   -11.7742 -11.7721 -11.7696 -11.7684 -11.7651 -11.7632 -11.7631 -11.7543
   -11.7518 -11.7513 -11.7512 -11.7492 -11.7463 -11.7455 -11.7445 -11.7438
   -11.7430 -11.7427 -11.7404 -11.7401 -11.7352 -11.7348 -11.7285 -11.7283
   -11.7264 -11.7216 -11.7210 -11.7202 -11.7166 -11.7148 -11.7143 -11.7134
   -11.7132 -11.7079 -11.7072 -11.7066 -11.7032 -11.7030 -11.7016 -11.6993
   -11.6986 -11.6982 -11.6979 -11.6969 -11.6968 -11.6953 -11.6934 -11.6905
   -11.6874 -11.6844 -11.6828 -11.6799 -11.6747 -11.6716 -11.6705 -11.6644
    -8.1672  -8.1541  -8.1442  -7.8857  -6.9958  -6.9816  -6.9750  -6.9662
    -6.9621  -6.9614  -6.9473  -6.5108  -6.2528  -6.2337  -6.2248  -1.4811
    -1.4707  -1.4535  -1.4003  -0.4490  -0.4258  -0.4146  -0.3806  -0.0302
     0.1355   0.1896   0.2310   0.4621   0.5667   0.5815   0.5817   0.6144
     0.7497   0.7611   0.7957   1.7641   2.1277   2.1371   2.1854   5.0585
     5.1128   5.1237   5.1289   5.4185   5.4858   5.4864   5.6833   5.7708
     5.7725   5.7902   5.8024   5.8129   6.0321   6.0813   6.3636   6.7069
     6.7434   6.7493   6.8098   7.2198   7.3016   7.3065   7.3176   7.4337
     7.4394   7.5117   7.5400   7.6112   7.6121   7.8862   7.9251   7.9403
     7.9507   8.0129   8.0750   8.1797   8.2161   8.3269   8.3561   8.4560
     8.4760   8.5145   8.5816   8.5816   9.0039   9.0736   9.1462   9.1538
     9.2331   9.3758   9.3890   9.4238   9.7321   9.8716   9.8857   9.9583
     9.9731   9.9782  10.0379  10.0475  10.1793  10.2449  10.2685  10.3029
    10.3489  10.3637  10.3848  10.4219  11.5892  12.6955  12.7068  13.0877
    13.4625  13.4890  13.4895  13.4905  13.5514  13.5667  13.5931  13.6084
    13.7534  13.9649  14.0126  14.0411  14.0493  14.3896  14.6852  14.8038
    14.8228  14.8317  14.8374  14.8468  14.9931  15.0896  15.1470  15.1555
    15.3677  15.3707  15.5194  15.7106  15.7898  15.9877  16.0521  16.0553
    16.0608  16.2016  16.3675  16.4176  16.4305  16.5274  16.5442  16.6397
    16.6400  16.6502  16.6547

          k = 0.1667 0.1667 0.0000 ( 29209 PWs)   bands (ev):

   -35.4245 -35.4245 -35.4244 -35.4243 -35.4234 -35.4233 -35.4232 -35.4232
   -35.4122 -35.4122 -35.4121 -35.4120 -35.4109 -35.4109 -35.4108 -35.4108
   -35.4066 -35.4065 -35.4064 -35.4063 -35.3337 -35.3337 -35.3336 -35.3335
   -35.3320 -35.3319 -35.3319 -35.3318 -35.3272 -35.3271 -35.3271 -35.3270
   -35.3248 -35.3248 -35.3247 -35.3247 -35.3226 -35.3225 -35.3224 -35.3222
   -11.9930 -11.9917 -11.9830 -11.9792 -11.9697 -11.9594 -11.9550 -11.9510
   -11.9406 -11.9160 -11.9027 -11.8953 -11.8837 -11.8135 -11.8004 -11.7991
   -11.7937 -11.7907 -11.7890 -11.7851 -11.7799 -11.7774 -11.7766 -11.7728
   -11.7726 -11.7720 -11.7708 -11.7689 -11.7667 -11.7657 -11.7624 -11.7606
   -11.7580 -11.7562 -11.7559 -11.7511 -11.7503 -11.7480 -11.7463 -11.7452
   -11.7395 -11.7378 -11.7354 -11.7343 -11.7317 -11.7311 -11.7250 -11.7244
   -11.7217 -11.7204 -11.7198 -11.7181 -11.7172 -11.7143 -11.7113 -11.7094
   -11.7078 -11.7076 -11.7047 -11.7032 -11.7020 -11.7015 -11.7014 -11.7006
   -11.6998 -11.6957 -11.6929 -11.6924 -11.6915 -11.6911 -11.6909 -11.6893
   -11.6855 -11.6831 -11.6778 -11.6743 -11.6723 -11.6683 -11.6669 -11.6654
    -8.4845  -8.3480  -7.4984  -7.4733  -7.4605  -7.2890  -6.9240  -6.9015
    -6.8068  -6.7777  -6.7656  -6.7546  -6.7132  -6.1661  -5.9887  -2.0207
    -1.4656  -0.8692  -0.8564  -0.7047  -0.6715  -0.3273  -0.2648  -0.1283
     0.0888   0.1004   0.2250   0.2394   0.3679   0.4554   0.5695   0.7331
     0.7796   0.8119   1.2671   1.2713   1.4862   2.3303   2.9286   5.1540
     5.3149   5.3773   5.4500   5.4799   5.5213   5.5635   5.6309   5.6445
     5.7412   5.8300   5.9527   6.1132   6.1600   6.1688   6.2226   6.4348
     6.6998   6.7004   6.7553   6.7595   6.9255   6.9389   7.0451   7.1473
     7.3259   7.3684   7.4071   7.4354   7.5344   7.6993   7.7654   7.7832
     7.8643   8.1260   8.1434   8.1696   8.2164   8.3128   8.4578   8.5566
     8.6040   8.7394   8.8808   8.9110   8.9549   9.0277   9.0969   9.1853
     9.4421   9.5219   9.6178   9.6984   9.7826   9.8050   9.8410   9.9476
    10.0091  10.0489  10.0919  10.1146  10.2537  10.2822  10.3171  10.3939
    10.6040  10.6041  10.7383  10.7717  11.2005  12.1507  12.3492  12.5378
    12.6768  12.9246  13.3675  13.4197  13.5166  13.5339  13.7848  14.0882
    14.1065  14.1913  14.2921  14.3718  14.4945  14.6338  14.6854  14.7330
    14.8156  14.9397  15.0026  15.0165  15.1252  15.1441  15.2055  15.2860
    15.3119  15.4359  15.5220  15.5417  15.6238  15.6312  15.7754  15.9113
    15.9148  15.9665  16.1343  16.3128  16.4160  16.4711  16.4867  16.6641
    16.9016  17.0893  17.1200

          k = 0.1667 0.1667 0.1065 ( 29209 PWs)   bands (ev):

   -35.4245 -35.4245 -35.4244 -35.4243 -35.4234 -35.4233 -35.4233 -35.4232
   -35.4122 -35.4122 -35.4121 -35.4120 -35.4109 -35.4109 -35.4108 -35.4108
   -35.4066 -35.4065 -35.4064 -35.4063 -35.3337 -35.3337 -35.3336 -35.3335
   -35.3320 -35.3319 -35.3319 -35.3318 -35.3271 -35.3271 -35.3271 -35.3270
   -35.3248 -35.3248 -35.3247 -35.3247 -35.3225 -35.3225 -35.3224 -35.3223
   -11.9927 -11.9909 -11.9823 -11.9792 -11.9707 -11.9604 -11.9543 -11.9512
   -11.9417 -11.9157 -11.9014 -11.8957 -11.8848 -11.8123 -11.7998 -11.7983
   -11.7941 -11.7905 -11.7886 -11.7845 -11.7801 -11.7776 -11.7763 -11.7742
   -11.7736 -11.7721 -11.7713 -11.7689 -11.7678 -11.7663 -11.7619 -11.7611
   -11.7584 -11.7570 -11.7562 -11.7516 -11.7507 -11.7484 -11.7466 -11.7460
   -11.7404 -11.7363 -11.7340 -11.7336 -11.7314 -11.7289 -11.7250 -11.7231
   -11.7207 -11.7200 -11.7187 -11.7182 -11.7169 -11.7136 -11.7116 -11.7097
   -11.7079 -11.7071 -11.7048 -11.7033 -11.7022 -11.7018 -11.7010 -11.7005
   -11.6996 -11.6960 -11.6934 -11.6928 -11.6916 -11.6914 -11.6908 -11.6895
   -11.6861 -11.6833 -11.6783 -11.6745 -11.6726 -11.6683 -11.6671 -11.6656
    -8.4843  -8.3482  -7.4978  -7.4733  -7.4611  -7.2890  -6.9237  -6.9018
    -6.8067  -6.7776  -6.7658  -6.7547  -6.7132  -6.1661  -5.9887  -1.9930
    -1.5185  -0.8573  -0.8465  -0.7142  -0.6849  -0.3237  -0.2688  -0.1193
     0.0807   0.1522   0.2059   0.2880   0.3759   0.4467   0.5403   0.6508
     0.8103   0.9302   1.1808   1.2586   1.4562   2.3878   2.9059   5.1626
     5.3181   5.3767   5.4370   5.4669   5.5201   5.5686   5.5898   5.6244
     5.6999   5.8979   6.0092   6.0610   6.1756   6.2272   6.2629   6.4583
     6.6670   6.6818   6.7494   6.7544   6.8541   6.9067   7.0139   7.1941
     7.2870   7.4166   7.4678   7.4937   7.5380   7.6679   7.7755   7.7919
     7.8493   8.1367   8.1611   8.2019   8.2509   8.3399   8.4269   8.5690
     8.6041   8.6888   8.8107   8.8753   8.9091   8.9567   9.0170   9.1844
     9.4454   9.6179   9.6804   9.7396   9.7945   9.7967   9.8304   9.9657
     9.9923  10.0341  10.0993  10.1355  10.1984  10.2779  10.3051  10.4102
    10.6118  10.6179  10.7305  10.7620  11.2463  12.2325  12.3775  12.5123
    12.7245  12.9426  13.3442  13.4386  13.4443  13.6260  13.7638  14.0465
    14.1166  14.1487  14.2488  14.2767  14.2926  14.4753  14.5696  14.7180
    14.8628  14.8782  14.9582  15.1358  15.2452  15.2695  15.3355  15.3417
    15.3888  15.4581  15.5237  15.5513  15.6049  15.6251  15.7669  15.8964
    15.9454  16.0859  16.1660  16.2989  16.3975  16.4595  16.4864  16.6220
    16.8392  17.0612  17.1451

          k = 0.1667 0.1667 0.2129 ( 29191 PWs)   bands (ev):

   -35.4245 -35.4245 -35.4244 -35.4244 -35.4234 -35.4233 -35.4233 -35.4232
   -35.4122 -35.4121 -35.4120 -35.4120 -35.4109 -35.4108 -35.4108 -35.4107
   -35.4066 -35.4064 -35.4064 -35.4063 -35.3337 -35.3336 -35.3336 -35.3336
   -35.3320 -35.3319 -35.3319 -35.3318 -35.3271 -35.3271 -35.3270 -35.3269
   -35.3248 -35.3247 -35.3247 -35.3246 -35.3225 -35.3224 -35.3223 -35.3223
   -11.9924 -11.9884 -11.9818 -11.9783 -11.9731 -11.9626 -11.9526 -11.9514
   -11.9440 -11.9152 -11.8986 -11.8964 -11.8875 -11.8090 -11.7998 -11.7965
   -11.7953 -11.7889 -11.7880 -11.7834 -11.7814 -11.7789 -11.7774 -11.7751
   -11.7736 -11.7727 -11.7716 -11.7702 -11.7696 -11.7666 -11.7632 -11.7605
   -11.7587 -11.7579 -11.7573 -11.7531 -11.7517 -11.7507 -11.7483 -11.7454
   -11.7403 -11.7348 -11.7336 -11.7303 -11.7278 -11.7267 -11.7243 -11.7210
   -11.7203 -11.7189 -11.7173 -11.7168 -11.7156 -11.7140 -11.7116 -11.7096
   -11.7080 -11.7065 -11.7048 -11.7043 -11.7020 -11.7017 -11.7005 -11.7001
   -11.6996 -11.6966 -11.6949 -11.6939 -11.6916 -11.6913 -11.6908 -11.6897
   -11.6874 -11.6835 -11.6795 -11.6747 -11.6731 -11.6685 -11.6675 -11.6658
    -8.4839  -8.3487  -7.4967  -7.4731  -7.4622  -7.2892  -6.9231  -6.9023
    -6.8064  -6.7774  -6.7661  -6.7548  -6.7134  -6.1662  -5.9887  -1.9132
    -1.6442  -0.8284  -0.8173  -0.7379  -0.7214  -0.3135  -0.2800  -0.0946
     0.0376   0.1588   0.3325   0.3770   0.3932   0.4247   0.5121   0.5647
     0.8722   0.9655   1.1004   1.2217   1.3780   2.5062   2.8462   5.1901
     5.3212   5.3479   5.3820   5.4816   5.4998   5.5655   5.5818   5.6045
     5.6819   5.9234   5.9516   6.1402   6.2492   6.3367   6.3496   6.4849
     6.5920   6.6058   6.7326   6.7415   6.7846   6.8664   6.9460   7.2193
     7.2582   7.4756   7.5196   7.5401   7.5943   7.6871   7.7908   7.8323
     7.8669   8.1310   8.1700   8.2762   8.3331   8.3861   8.4139   8.5186
     8.5866   8.6028   8.6332   8.7372   8.8150   8.8910   9.0136   9.1838
     9.4349   9.6931   9.7351   9.7712   9.8026   9.8400   9.8865   9.9472
     9.9814  10.0381  10.0879  10.1626  10.1853  10.2607  10.2858  10.3881
    10.6302  10.6498  10.7121  10.7352  11.3385  12.3385  12.4502  12.5686
    12.8364  12.9694  13.3044  13.4360  13.4999  13.5708  13.7063  13.8278
    13.9296  14.1317  14.1425  14.2266  14.2335  14.3163  14.3429  14.7100
    14.8870  14.9837  15.0178  15.0597  15.2618  15.3142  15.3672  15.4317
    15.5129  15.5150  15.5646  15.6021  15.6755  15.7209  15.8443  15.9636
    16.0436  16.1744  16.2755  16.3270  16.3539  16.4164  16.5132  16.5440
    16.6532  16.9099  17.0736

          k = 0.1667 0.1667-0.3194 ( 29224 PWs)   bands (ev):

   -35.4245 -35.4245 -35.4245 -35.4244 -35.4234 -35.4234 -35.4233 -35.4232
   -35.4122 -35.4122 -35.4121 -35.4120 -35.4109 -35.4109 -35.4108 -35.4108
   -35.4066 -35.4065 -35.4064 -35.4064 -35.3337 -35.3337 -35.3337 -35.3336
   -35.3320 -35.3320 -35.3319 -35.3319 -35.3271 -35.3271 -35.3271 -35.3270
   -35.3248 -35.3248 -35.3248 -35.3247 -35.3225 -35.3224 -35.3224 -35.3223
   -11.9924 -11.9863 -11.9828 -11.9761 -11.9754 -11.9640 -11.9515 -11.9512
   -11.9456 -11.9149 -11.8969 -11.8962 -11.8896 -11.8055 -11.8026 -11.7953
   -11.7952 -11.7876 -11.7874 -11.7833 -11.7821 -11.7804 -11.7780 -11.7757
   -11.7734 -11.7724 -11.7710 -11.7710 -11.7705 -11.7670 -11.7642 -11.7596
   -11.7592 -11.7582 -11.7581 -11.7541 -11.7521 -11.7518 -11.7492 -11.7453
   -11.7402 -11.7340 -11.7336 -11.7284 -11.7260 -11.7246 -11.7241 -11.7205
   -11.7201 -11.7189 -11.7165 -11.7164 -11.7150 -11.7145 -11.7110 -11.7090
   -11.7085 -11.7070 -11.7048 -11.7042 -11.7020 -11.7010 -11.7009 -11.7000
   -11.6997 -11.6968 -11.6960 -11.6946 -11.6917 -11.6910 -11.6908 -11.6896
   -11.6886 -11.6837 -11.6802 -11.6749 -11.6734 -11.6686 -11.6677 -11.6660
    -8.4837  -8.3490  -7.4961  -7.4730  -7.4628  -7.2893  -6.9228  -6.9027
    -6.8062  -6.7773  -6.7662  -6.7548  -6.7134  -6.1662  -5.9887  -1.8087
    -1.7699  -0.8085  -0.7725  -0.7685  -0.7565  -0.3027  -0.2914  -0.0738
     0.0068   0.1583   0.3579   0.3931   0.4093   0.4840   0.5216   0.6151
     0.7243   0.9498   1.1936   1.2008   1.2986   2.5786   2.7992   5.2245
     5.2804   5.3255   5.3904   5.4591   5.5214   5.5474   5.5886   5.5975
     5.7055   5.8765   5.9259   6.2317   6.3340   6.3577   6.3963   6.4578
     6.5277   6.5909   6.7210   6.7333   6.7587   6.8647   6.9093   7.1949
     7.2671   7.4992   7.5366   7.5404   7.5823   7.7385   7.8012   7.8342
     8.0613   8.0728   8.1361   8.2379   8.3416   8.4642   8.4969   8.4989
     8.5164   8.5453   8.5648   8.6025   8.7956   8.8849   9.0156   9.1837
     9.4333   9.7107   9.7294   9.7383   9.8780   9.8795   9.9041   9.9223
     9.9733   9.9816  10.1615  10.1701  10.1972  10.2669  10.2895  10.3234
    10.6421  10.6795  10.7032  10.7042  11.3872  12.3196  12.4874  12.7435
    12.9410  12.9693  13.2609  13.3172  13.4573  13.5768  13.6852  13.8505
    13.8575  13.9346  14.0913  14.1115  14.2612  14.2842  14.5510  14.5567
    14.8596  14.9115  15.0556  15.1246  15.2664  15.3348  15.4661  15.4690
    15.5102  15.5191  15.6088  15.6372  15.6541  15.7265  15.8032  15.9784
    16.2720  16.2971  16.3199  16.3486  16.3734  16.4658  16.5065  16.5266
    16.5564  16.5721  17.0643

          k = 0.1667 0.3333 0.0000 ( 29163 PWs)   bands (ev):

   -35.4245 -35.4244 -35.4244 -35.4243 -35.4233 -35.4233 -35.4232 -35.4231
   -35.4122 -35.4121 -35.4120 -35.4119 -35.4109 -35.4108 -35.4108 -35.4107
   -35.4066 -35.4065 -35.4064 -35.4062 -35.3337 -35.3336 -35.3336 -35.3335
   -35.3319 -35.3319 -35.3318 -35.3318 -35.3271 -35.3271 -35.3270 -35.3269
   -35.3249 -35.3247 -35.3247 -35.3246 -35.3225 -35.3225 -35.3224 -35.3221
   -11.9871 -11.9852 -11.9754 -11.9699 -11.9665 -11.9651 -11.9590 -11.9508
   -11.9473 -11.9231 -11.9078 -11.8714 -11.8539 -11.8117 -11.8030 -11.7961
   -11.7942 -11.7903 -11.7856 -11.7844 -11.7804 -11.7791 -11.7770 -11.7739
   -11.7713 -11.7696 -11.7690 -11.7675 -11.7645 -11.7633 -11.7609 -11.7593
   -11.7575 -11.7546 -11.7534 -11.7507 -11.7500 -11.7483 -11.7464 -11.7440
   -11.7431 -11.7394 -11.7374 -11.7346 -11.7341 -11.7319 -11.7283 -11.7267
   -11.7252 -11.7223 -11.7204 -11.7193 -11.7183 -11.7160 -11.7149 -11.7118
   -11.7108 -11.7095 -11.7087 -11.7082 -11.7046 -11.7034 -11.7031 -11.7012
   -11.7000 -11.6994 -11.6968 -11.6944 -11.6936 -11.6932 -11.6927 -11.6908
   -11.6867 -11.6842 -11.6802 -11.6771 -11.6742 -11.6713 -11.6698 -11.6664
    -8.3377  -8.2311  -7.8089  -7.7102  -7.3785  -7.2947  -7.0817  -6.9850
    -6.7461  -6.7383  -6.6888  -6.5808  -6.4741  -6.2181  -6.0803  -1.8633
    -1.3459  -1.2528  -0.9189  -0.7637  -0.6174  -0.4321  -0.4151  -0.0376
     0.1244   0.1774   0.2750   0.3555   0.4369   0.4900   0.6036   0.6856
     0.7653   1.0755   1.1343   1.4022   1.7204   2.2423   2.5675   5.0801
     5.1877   5.2238   5.2698   5.3422   5.4030   5.4820   5.5028   5.6341
     5.7465   5.8048   6.0092   6.1007   6.2102   6.2518   6.3860   6.4390
     6.6322   6.7515   6.8260   6.8825   6.9871   7.1078   7.2519   7.3084
     7.4065   7.4611   7.5027   7.5345   7.6303   7.7113   7.7677   7.8754
     7.9079   8.0426   8.0947   8.2139   8.2912   8.4135   8.4282   8.5790
     8.6979   8.7344   8.8289   8.8573   9.0274   9.0530   9.1179   9.2409
     9.3147   9.4565   9.5917   9.6215   9.6481   9.6989   9.8055   9.8640
     9.8940   9.9221  10.0030  10.0199  10.0671  10.1122  10.1182  10.1763
    10.3858  10.5115  10.6566  10.7159  11.4915  12.4331  12.7595  12.8729
    12.9870  13.2224  13.2302  13.3634  13.5722  13.6891  13.8700  14.0152
    14.0885  14.1967  14.2366  14.3327  14.4739  14.5343  14.6007  14.6345
    14.6705  14.6952  14.7632  14.8805  14.9574  15.0429  15.0823  15.2367
    15.3482  15.4058  15.5329  15.6668  15.7670  15.8327  15.8786  15.9753
    16.0062  16.0380  16.1238  16.2358  16.2817  16.4796  16.6407  16.7427
    16.7959  16.8733  17.0039

          k = 0.1667 0.3333 0.1065 ( 29165 PWs)   bands (ev):

   -35.4245 -35.4244 -35.4244 -35.4243 -35.4233 -35.4232 -35.4232 -35.4231
   -35.4122 -35.4121 -35.4120 -35.4119 -35.4109 -35.4108 -35.4108 -35.4107
   -35.4066 -35.4064 -35.4064 -35.4063 -35.3337 -35.3336 -35.3336 -35.3335
   -35.3319 -35.3319 -35.3318 -35.3318 -35.3271 -35.3270 -35.3270 -35.3270
   -35.3248 -35.3247 -35.3247 -35.3246 -35.3225 -35.3224 -35.3224 -35.3222
   -11.9869 -11.9844 -11.9756 -11.9694 -11.9673 -11.9644 -11.9588 -11.9516
   -11.9485 -11.9223 -11.9087 -11.8709 -11.8548 -11.8106 -11.8021 -11.7964
   -11.7939 -11.7897 -11.7860 -11.7846 -11.7803 -11.7788 -11.7766 -11.7740
   -11.7725 -11.7712 -11.7700 -11.7674 -11.7645 -11.7633 -11.7607 -11.7600
   -11.7579 -11.7543 -11.7532 -11.7514 -11.7505 -11.7485 -11.7467 -11.7450
   -11.7420 -11.7399 -11.7363 -11.7349 -11.7326 -11.7308 -11.7275 -11.7261
   -11.7250 -11.7220 -11.7205 -11.7190 -11.7178 -11.7159 -11.7144 -11.7116
   -11.7106 -11.7095 -11.7082 -11.7078 -11.7045 -11.7038 -11.7030 -11.7010
   -11.7002 -11.6993 -11.6968 -11.6947 -11.6938 -11.6934 -11.6932 -11.6911
   -11.6871 -11.6844 -11.6806 -11.6774 -11.6744 -11.6715 -11.6699 -11.6665
    -8.3375  -8.2314  -7.8087  -7.7105  -7.3784  -7.2949  -7.0817  -6.9851
    -6.7456  -6.7388  -6.6888  -6.5808  -6.4741  -6.2181  -6.0803  -1.8369
    -1.3933  -1.2350  -0.9461  -0.7541  -0.6273  -0.4324  -0.4143  -0.0275
     0.1438   0.2111   0.2568   0.3566   0.4549   0.4946   0.5710   0.7165
     0.7883   1.0202   1.1234   1.4176   1.7000   2.2636   2.5548   5.0776
     5.1943   5.2133   5.2604   5.3125   5.3647   5.4910   5.5413   5.6421
     5.7894   5.8099   6.0113   6.1121   6.2152   6.2561   6.3759   6.4492
     6.6355   6.7712   6.7938   6.8640   6.9764   7.0734   7.2403   7.2965
     7.3785   7.4764   7.4966   7.5853   7.7073   7.7492   7.7768   7.8646
     7.9150   8.0384   8.1010   8.2013   8.2740   8.4161   8.4251   8.5757
     8.6856   8.7267   8.7976   8.8618   8.9410   9.0187   9.0494   9.1460
     9.3906   9.5239   9.5878   9.6334   9.6962   9.7245   9.8084   9.8648
     9.9030   9.9250  10.0022  10.0167  10.0653  10.1006  10.1582  10.1983
    10.3864  10.5135  10.6656  10.7194  11.5012  12.4792  12.7890  12.8884
    12.9554  13.1957  13.2535  13.3867  13.5744  13.6667  13.8434  13.9900
    14.0566  14.1770  14.1981  14.2563  14.3560  14.3790  14.4528  14.6158
    14.6910  14.7435  14.7941  14.8887  15.0053  15.1122  15.1933  15.3437
    15.3753  15.4895  15.5758  15.6453  15.7448  15.8647  15.9041  15.9679
    16.0278  16.0585  16.1394  16.2301  16.2970  16.4767  16.6059  16.7153
    16.7808  16.8615  16.9673

          k = 0.1667 0.3333 0.2129 ( 29179 PWs)   bands (ev):

   -35.4245 -35.4244 -35.4244 -35.4243 -35.4233 -35.4233 -35.4232 -35.4232
   -35.4122 -35.4121 -35.4121 -35.4120 -35.4109 -35.4108 -35.4108 -35.4107
   -35.4065 -35.4064 -35.4064 -35.4063 -35.3337 -35.3337 -35.3336 -35.3335
   -35.3319 -35.3319 -35.3318 -35.3318 -35.3271 -35.3271 -35.3271 -35.3270
   -35.3248 -35.3248 -35.3247 -35.3247 -35.3225 -35.3224 -35.3223 -35.3223
   -11.9866 -11.9821 -11.9761 -11.9696 -11.9679 -11.9623 -11.9582 -11.9535
   -11.9514 -11.9206 -11.9106 -11.8695 -11.8568 -11.8079 -11.8005 -11.7972
   -11.7927 -11.7890 -11.7866 -11.7849 -11.7818 -11.7775 -11.7762 -11.7751
   -11.7741 -11.7727 -11.7710 -11.7688 -11.7646 -11.7636 -11.7618 -11.7596
   -11.7590 -11.7540 -11.7532 -11.7519 -11.7513 -11.7491 -11.7473 -11.7465
   -11.7423 -11.7384 -11.7346 -11.7344 -11.7309 -11.7284 -11.7261 -11.7250
   -11.7241 -11.7218 -11.7201 -11.7183 -11.7171 -11.7157 -11.7135 -11.7123
   -11.7104 -11.7087 -11.7071 -11.7065 -11.7052 -11.7039 -11.7024 -11.7009
   -11.7002 -11.6992 -11.6969 -11.6959 -11.6945 -11.6937 -11.6934 -11.6917
   -11.6882 -11.6849 -11.6815 -11.6779 -11.6747 -11.6721 -11.6702 -11.6668
    -8.3369  -8.2320  -7.8083  -7.7109  -7.3781  -7.2952  -7.0815  -6.9852
    -6.7444  -6.7400  -6.6888  -6.5808  -6.4741  -6.2181  -6.0803  -1.7613
    -1.5087  -1.1831  -1.0147  -0.7288  -0.6531  -0.4338  -0.4119   0.0008
     0.1253   0.2105   0.3315   0.3965   0.4720   0.5055   0.5701   0.7117
     0.8186   0.9207   1.0884   1.4665   1.6429   2.3114   2.5231   5.0730
     5.1599   5.2026   5.2702   5.3064   5.3333   5.4677   5.5256   5.7198
     5.7981   5.9046   5.9851   6.1232   6.2067   6.3197   6.3668   6.4801
     6.6419   6.7151   6.7699   6.8322   6.9269   7.0447   7.2128   7.2636
     7.3851   7.4926   7.5638   7.6745   7.7298   7.7828   7.8312   7.8738
     7.9352   8.0433   8.0964   8.1842   8.2656   8.4028   8.4478   8.5521
     8.6221   8.7056   8.7277   8.7875   8.8747   8.9426   8.9792   9.1204
     9.3574   9.5444   9.6258   9.7423   9.7619   9.7807   9.8175   9.8505
     9.8843   9.9523   9.9962  10.0110  10.0565  10.0725  10.2466  10.2786
    10.3785  10.4987  10.6808  10.7268  11.5183  12.5835  12.8158  12.8761
    13.0185  13.1903  13.2661  13.4429  13.5569  13.6388  13.7405  13.8808
    13.9106  14.0156  14.0721  14.1592  14.2341  14.3300  14.4128  14.6075
    14.6660  14.7231  14.7914  14.9285  15.1430  15.2145  15.3122  15.3777
    15.4503  15.5097  15.6201  15.7356  15.8421  15.8667  15.9582  15.9799
    16.0542  16.1565  16.2063  16.2332  16.3364  16.4659  16.5387  16.6408
    16.6850  16.8215  16.8628

          k = 0.1667 0.3333-0.3194 ( 29206 PWs)   bands (ev):

   -35.4246 -35.4245 -35.4244 -35.4243 -35.4233 -35.4233 -35.4233 -35.4232
   -35.4122 -35.4122 -35.4121 -35.4120 -35.4109 -35.4109 -35.4108 -35.4108
   -35.4065 -35.4065 -35.4064 -35.4064 -35.3337 -35.3337 -35.3336 -35.3335
   -35.3319 -35.3319 -35.3319 -35.3319 -35.3272 -35.3271 -35.3271 -35.3270
   -35.3248 -35.3248 -35.3248 -35.3247 -35.3225 -35.3224 -35.3224 -35.3223
   -11.9864 -11.9802 -11.9769 -11.9708 -11.9673 -11.9605 -11.9576 -11.9548
   -11.9536 -11.9193 -11.9119 -11.8686 -11.8580 -11.8056 -11.8014 -11.7965
   -11.7919 -11.7895 -11.7859 -11.7852 -11.7828 -11.7785 -11.7758 -11.7755
   -11.7733 -11.7726 -11.7717 -11.7705 -11.7645 -11.7637 -11.7622 -11.7603
   -11.7589 -11.7539 -11.7533 -11.7522 -11.7515 -11.7496 -11.7477 -11.7471
   -11.7428 -11.7374 -11.7344 -11.7333 -11.7312 -11.7263 -11.7255 -11.7250
   -11.7223 -11.7219 -11.7197 -11.7186 -11.7172 -11.7151 -11.7137 -11.7124
   -11.7106 -11.7078 -11.7067 -11.7058 -11.7051 -11.7039 -11.7021 -11.7009
   -11.7000 -11.6993 -11.6978 -11.6964 -11.6948 -11.6939 -11.6934 -11.6918
   -11.6889 -11.6851 -11.6820 -11.6782 -11.6750 -11.6724 -11.6703 -11.6670
    -8.3366  -8.2323  -7.8080  -7.7111  -7.3779  -7.2953  -7.0815  -6.9853
    -6.7434  -6.7409  -6.6889  -6.5808  -6.4741  -6.2181  -6.0803  -1.6636
    -1.6251  -1.1224  -1.0832  -0.7042  -0.6780  -0.4347  -0.4105   0.0266
     0.0939   0.2128   0.3194   0.4728   0.4881   0.5793   0.5831   0.6795
     0.7112   0.9489   1.0549   1.5191   1.5867   2.3408   2.5015   5.0712
     5.1366   5.1942   5.2819   5.2946   5.3771   5.4142   5.5092   5.7876
     5.7977   5.8874   6.0525   6.1232   6.1537   6.3398   6.3945   6.5419
     6.6427   6.6516   6.7313   6.8349   6.8755   7.0544   7.1894   7.2528
     7.4089   7.4951   7.6442   7.6912   7.7252   7.7793   7.8241   7.8980
     7.9765   8.0373   8.0599   8.2266   8.2753   8.4233   8.4484   8.5034
     8.5625   8.6445   8.7168   8.7572   8.8678   8.9144   8.9661   9.1154
     9.3430   9.5336   9.6337   9.7643   9.7875   9.8182   9.8386   9.8448
     9.9255   9.9399   9.9809  10.0175  10.0442  10.0559  10.2987  10.3153
    10.4052  10.4555  10.6871  10.7306  11.5254  12.6496  12.8094  12.8461
    13.1384  13.2292  13.2794  13.3968  13.5385  13.6229  13.7277  13.7618
    13.8040  13.9186  14.0126  14.1152  14.2084  14.3170  14.5461  14.5811
    14.6226  14.6662  14.8078  14.9251  15.1724  15.3208  15.3237  15.4305
    15.4412  15.5493  15.6101  15.7160  15.8201  15.8936  15.9893  16.0565
    16.1383  16.2040  16.2470  16.2776  16.3810  16.4604  16.5490  16.5761
    16.6073  16.6329  16.8512

          k = 0.1667-0.5000 0.0000 ( 29174 PWs)   bands (ev):

   -35.4246 -35.4245 -35.4244 -35.4244 -35.4233 -35.4232 -35.4232 -35.4231
   -35.4122 -35.4121 -35.4120 -35.4120 -35.4109 -35.4109 -35.4108 -35.4107
   -35.4066 -35.4065 -35.4064 -35.4063 -35.3338 -35.3337 -35.3336 -35.3336
   -35.3320 -35.3318 -35.3318 -35.3318 -35.3271 -35.3271 -35.3270 -35.3270
   -35.3248 -35.3247 -35.3247 -35.3246 -35.3225 -35.3225 -35.3224 -35.3221
   -11.9820 -11.9771 -11.9748 -11.9721 -11.9708 -11.9627 -11.9581 -11.9475
   -11.9418 -11.9297 -11.9209 -11.8516 -11.8193 -11.8153 -11.8107 -11.8045
   -11.7995 -11.7925 -11.7889 -11.7850 -11.7834 -11.7799 -11.7738 -11.7723
   -11.7700 -11.7688 -11.7686 -11.7674 -11.7643 -11.7624 -11.7593 -11.7571
   -11.7539 -11.7533 -11.7512 -11.7510 -11.7491 -11.7455 -11.7433 -11.7427
   -11.7413 -11.7389 -11.7380 -11.7373 -11.7337 -11.7328 -11.7321 -11.7318
   -11.7273 -11.7260 -11.7232 -11.7221 -11.7203 -11.7192 -11.7164 -11.7135
   -11.7128 -11.7088 -11.7084 -11.7075 -11.7058 -11.7038 -11.7030 -11.7014
   -11.7011 -11.6996 -11.6987 -11.6981 -11.6954 -11.6952 -11.6932 -11.6899
   -11.6867 -11.6840 -11.6820 -11.6803 -11.6755 -11.6712 -11.6711 -11.6666
    -8.1299  -8.1038  -8.1007  -7.8672  -7.2694  -7.2442  -7.2375  -7.0329
    -6.7337  -6.7097  -6.7006  -6.4784  -6.2652  -6.2454  -6.2367  -1.6265
    -1.5820  -1.1636  -1.1398  -0.6333  -0.5920  -0.5201  -0.5177   0.0680
     0.0953   0.2237   0.2397   0.3959   0.4167   0.5655   0.5865   0.8103
     0.8169   0.9491   1.0018   1.7539   2.0543   2.0795   2.1590   5.0937
     5.1148   5.1471   5.1627   5.2681   5.3399   5.4418   5.4457   5.6202
     5.6516   6.0408   6.0586   6.0764   6.1824   6.2859   6.3128   6.4915
     6.6195   6.8693   6.8818   7.0471   7.0770   7.1397   7.2633   7.3786
     7.3914   7.4418   7.5519   7.6222   7.6243   7.6925   7.7304   7.7512
     7.8281   8.0894   8.1493   8.3402   8.3989   8.4406   8.5207   8.5415
     8.6539   8.6614   8.7456   8.9997   9.0720   9.1070   9.2259   9.2765
     9.3553   9.3618   9.5855   9.6118   9.6410   9.6785   9.6872   9.7622
     9.8053   9.8469   9.9066   9.9236   9.9353   9.9402  10.0895  10.1881
    10.3257  10.3710  10.6323  10.6738  11.5924  12.7005  12.8190  13.1030
    13.1054  13.4759  13.4825  13.5646  13.6250  13.7448  13.7609  13.9236
    13.9245  14.0630  14.0710  14.2442  14.3176  14.3292  14.4033  14.4883
    14.5450  14.8232  14.8251  14.9380  15.0124  15.0776  15.1001  15.2199
    15.3045  15.4449  15.4688  15.6051  15.6363  15.6913  15.9298  15.9492
    16.1674  16.2223  16.2931  16.3537  16.3728  16.4948  16.5531  16.5658
    16.7377  16.8110  16.9762

          k = 0.1667-0.5000 0.1065 ( 29142 PWs)   bands (ev):

   -35.4245 -35.4244 -35.4243 -35.4243 -35.4233 -35.4232 -35.4232 -35.4231
   -35.4122 -35.4121 -35.4120 -35.4119 -35.4109 -35.4108 -35.4108 -35.4107
   -35.4065 -35.4064 -35.4064 -35.4063 -35.3337 -35.3336 -35.3335 -35.3335
   -35.3319 -35.3318 -35.3318 -35.3317 -35.3271 -35.3271 -35.3270 -35.3270
   -35.3248 -35.3247 -35.3247 -35.3246 -35.3225 -35.3224 -35.3223 -35.3222
   -11.9816 -11.9768 -11.9741 -11.9716 -11.9711 -11.9634 -11.9592 -11.9473
   -11.9405 -11.9303 -11.9221 -11.8516 -11.8187 -11.8161 -11.8104 -11.8030
   -11.7997 -11.7921 -11.7885 -11.7859 -11.7830 -11.7795 -11.7739 -11.7739
   -11.7713 -11.7695 -11.7687 -11.7668 -11.7638 -11.7633 -11.7602 -11.7562
   -11.7539 -11.7531 -11.7512 -11.7509 -11.7494 -11.7458 -11.7436 -11.7425
   -11.7414 -11.7387 -11.7380 -11.7369 -11.7344 -11.7336 -11.7318 -11.7291
   -11.7261 -11.7259 -11.7231 -11.7223 -11.7198 -11.7185 -11.7161 -11.7128
   -11.7123 -11.7092 -11.7075 -11.7067 -11.7061 -11.7043 -11.7031 -11.7010
   -11.7007 -11.6996 -11.6989 -11.6979 -11.6955 -11.6954 -11.6939 -11.6902
   -11.6870 -11.6843 -11.6825 -11.6805 -11.6758 -11.6714 -11.6713 -11.6667
    -8.1287  -8.1051  -8.1006  -7.8673  -7.2688  -7.2449  -7.2375  -7.0330
    -6.7335  -6.7099  -6.7006  -6.4784  -6.2652  -6.2454  -6.2367  -1.6014
    -1.5604  -1.1986  -1.1846  -0.6258  -0.5886  -0.5249  -0.5231   0.0765
     0.1061   0.2500   0.2693   0.3657   0.3946   0.6096   0.6261   0.7839
     0.8048   0.9358   0.9853   1.7523   2.0560   2.0781   2.1511   5.0900
     5.1019   5.1291   5.1636   5.2656   5.2776   5.4811   5.4931   5.6559
     5.6651   6.0317   6.0576   6.0704   6.1712   6.2813   6.3130   6.5132
     6.6332   6.8546   6.8878   7.0547   7.0804   7.1455   7.2713   7.3542
     7.3670   7.4078   7.4671   7.5819   7.6458   7.7354   7.7782   7.8158
     7.8886   8.0845   8.1597   8.3243   8.3908   8.3989   8.5101   8.5563
     8.6521   8.6690   8.7186   8.9622   9.0478   9.0681   9.1973   9.2389
     9.3355   9.3547   9.5723   9.6005   9.6415   9.7088   9.7307   9.7945
     9.8387   9.8469   9.9117   9.9263   9.9856   9.9926  10.0668  10.1377
    10.3871  10.4230  10.6264  10.6722  11.5810  12.6936  12.8330  13.0913
    13.1160  13.4942  13.5093  13.5612  13.6353  13.7398  13.7501  13.7605
    13.8946  14.0625  14.0922  14.1509  14.2574  14.3409  14.4165  14.4821
    14.5209  14.7235  14.8129  14.9149  14.9823  15.0966  15.2021  15.3151
    15.3708  15.4803  15.5228  15.6068  15.6314  15.7361  15.9238  15.9735
    16.1830  16.2262  16.3071  16.3762  16.3859  16.4896  16.5475  16.5554
    16.7101  16.7749  16.9278

          k = 0.1667-0.5000 0.2129 ( 29174 PWs)   bands (ev):

   -35.4246 -35.4244 -35.4244 -35.4243 -35.4233 -35.4232 -35.4232 -35.4232
   -35.4122 -35.4122 -35.4120 -35.4120 -35.4109 -35.4109 -35.4108 -35.4108
   -35.4065 -35.4064 -35.4064 -35.4063 -35.3337 -35.3336 -35.3336 -35.3335
   -35.3319 -35.3319 -35.3318 -35.3318 -35.3272 -35.3271 -35.3271 -35.3270
   -35.3248 -35.3248 -35.3247 -35.3247 -35.3224 -35.3224 -35.3223 -35.3223
   -11.9809 -11.9761 -11.9721 -11.9717 -11.9701 -11.9652 -11.9620 -11.9468
   -11.9375 -11.9316 -11.9253 -11.8517 -11.8175 -11.8174 -11.8103 -11.8000
   -11.7993 -11.7919 -11.7899 -11.7853 -11.7830 -11.7783 -11.7762 -11.7752
   -11.7736 -11.7708 -11.7689 -11.7665 -11.7642 -11.7631 -11.7613 -11.7550
   -11.7542 -11.7529 -11.7514 -11.7507 -11.7495 -11.7462 -11.7443 -11.7426
   -11.7422 -11.7390 -11.7380 -11.7363 -11.7346 -11.7335 -11.7311 -11.7259
   -11.7258 -11.7236 -11.7228 -11.7224 -11.7186 -11.7173 -11.7153 -11.7128
   -11.7108 -11.7092 -11.7072 -11.7068 -11.7051 -11.7042 -11.7034 -11.7007
   -11.7000 -11.6996 -11.6992 -11.6976 -11.6971 -11.6959 -11.6946 -11.6908
   -11.6878 -11.6848 -11.6835 -11.6810 -11.6764 -11.6721 -11.6715 -11.6670
    -8.1256  -8.1082  -8.1004  -7.8676  -7.2674  -7.2463  -7.2374  -7.0331
    -6.7331  -6.7103  -6.7006  -6.4784  -6.2651  -6.2455  -6.2367  -1.5293
    -1.5003  -1.2933  -1.2841  -0.6057  -0.5821  -0.5442  -0.5285   0.0986
     0.1359   0.2337   0.2646   0.4130   0.4473   0.6303   0.6772   0.7485
     0.7869   0.9032   0.9403   1.7492   2.0608   2.0753   2.1342   5.0605
     5.0698   5.1001   5.2009   5.2407   5.2771   5.4360   5.5141   5.7564
     5.7843   5.9906   6.0566   6.0587   6.1308   6.2710   6.3120   6.5780
     6.6642   6.7915   6.8932   7.0769   7.0889   7.1449   7.2712   7.3180
     7.3255   7.3785   7.3987   7.5551   7.5993   7.7762   7.8584   7.9784
     8.0021   8.0888   8.1629   8.2491   8.3222   8.3974   8.4834   8.5798
     8.6418   8.6797   8.6816   8.7846   9.0295   9.0388   9.1492   9.1640
     9.3263   9.3829   9.5114   9.5415   9.6566   9.7962   9.8110   9.8582
     9.8981   9.9031   9.9292   9.9392  10.0106  10.0306  10.0677  10.0706
    10.4819  10.5162  10.6050  10.6633  11.5584  12.6877  12.8635  13.0660
    13.1721  13.4834  13.5105  13.5926  13.6150  13.6713  13.7272  13.7598
    13.7947  13.9523  13.9992  14.0839  14.1092  14.3039  14.4351  14.4772
    14.5122  14.7045  14.7441  14.8737  15.0669  15.1498  15.2532  15.3472
    15.3616  15.5703  15.6279  15.6849  15.7132  15.8373  15.9164  16.0107
    16.2138  16.2298  16.3105  16.4636  16.4718  16.4842  16.5355  16.5374
    16.6364  16.6785  16.8006

          k = 0.1667-0.5000-0.3194 ( 29164 PWs)   bands (ev):

   -35.4245 -35.4244 -35.4244 -35.4243 -35.4233 -35.4232 -35.4232 -35.4232
   -35.4122 -35.4121 -35.4120 -35.4120 -35.4109 -35.4109 -35.4108 -35.4107
   -35.4065 -35.4064 -35.4064 -35.4064 -35.3337 -35.3336 -35.3335 -35.3335
   -35.3319 -35.3319 -35.3318 -35.3318 -35.3271 -35.3271 -35.3270 -35.3270
   -35.3248 -35.3247 -35.3247 -35.3247 -35.3224 -35.3224 -35.3224 -35.3223
   -11.9805 -11.9757 -11.9721 -11.9704 -11.9681 -11.9673 -11.9639 -11.9465
   -11.9352 -11.9322 -11.9277 -11.8517 -11.8181 -11.8165 -11.8106 -11.7982
   -11.7977 -11.7940 -11.7900 -11.7840 -11.7838 -11.7775 -11.7772 -11.7764
   -11.7740 -11.7719 -11.7690 -11.7666 -11.7645 -11.7630 -11.7614 -11.7543
   -11.7542 -11.7530 -11.7517 -11.7507 -11.7494 -11.7463 -11.7445 -11.7428
   -11.7426 -11.7393 -11.7380 -11.7362 -11.7341 -11.7334 -11.7307 -11.7260
   -11.7241 -11.7235 -11.7228 -11.7211 -11.7180 -11.7171 -11.7147 -11.7127
   -11.7113 -11.7084 -11.7072 -11.7069 -11.7045 -11.7036 -11.7031 -11.7006
   -11.6997 -11.6994 -11.6993 -11.6986 -11.6973 -11.6964 -11.6946 -11.6911
   -11.6882 -11.6851 -11.6841 -11.6813 -11.6767 -11.6724 -11.6716 -11.6672
    -8.1236  -8.1103  -8.1003  -7.8677  -7.2666  -7.2470  -7.2374  -7.0331
    -6.7329  -6.7105  -6.7006  -6.4784  -6.2651  -6.2455  -6.2367  -1.4382
    -1.4283  -1.4113  -1.3582  -0.5866  -0.5790  -0.5630  -0.5309   0.1155
     0.1690   0.2112   0.2145   0.5072   0.5357   0.5840   0.6085   0.7912
     0.7969   0.8800   0.8996   1.7477   2.0642   2.0739   2.1246   5.0420
     5.0545   5.0927   5.1877   5.2904   5.2953   5.3715   5.5020   5.8655
     5.8708   5.9176   6.0539   6.0569   6.0887   6.2653   6.3105   6.6632
     6.6834   6.7004   6.8882   7.0970   7.1009   7.1271   7.2478   7.3113
     7.3173   7.3746   7.3984   7.5513   7.5593   7.8008   7.8717   8.0745
     8.1123   8.1406   8.1484   8.1554   8.2552   8.3933   8.4698   8.6216
     8.6300   8.6431   8.6830   8.6838   9.0128   9.0301   9.1243   9.1317
     9.3309   9.4309   9.4853   9.4907   9.6686   9.8199   9.8288   9.8754
     9.9097   9.9404   9.9966   9.9983  10.0063  10.0316  10.0343  10.0352
    10.5500  10.5661  10.5669  10.6508  11.5472  12.6893  12.8803  13.0546
    13.2939  13.3107  13.4536  13.6785  13.6996  13.7180  13.7332  13.7442
    13.7568  13.8815  13.8840  13.8988  14.1418  14.2775  14.4389  14.4785
    14.5197  14.7140  14.7321  14.8485  15.1226  15.2002  15.2446  15.3023
    15.3592  15.5881  15.6469  15.7554  15.7984  15.9099  15.9153  16.0079
    16.2365  16.2432  16.3049  16.4895  16.5215  16.5282  16.5742  16.5918
    16.6150  16.6206  16.6537

          k = 0.3333 0.3333 0.0000 ( 29195 PWs)   bands (ev):

   -35.4245 -35.4245 -35.4244 -35.4243 -35.4233 -35.4233 -35.4232 -35.4231
   -35.4122 -35.4122 -35.4121 -35.4120 -35.4109 -35.4109 -35.4108 -35.4108
   -35.4066 -35.4065 -35.4064 -35.4063 -35.3337 -35.3337 -35.3336 -35.3335
   -35.3319 -35.3319 -35.3318 -35.3317 -35.3272 -35.3271 -35.3271 -35.3270
   -35.3248 -35.3248 -35.3248 -35.3247 -35.3226 -35.3224 -35.3224 -35.3222
   -11.9852 -11.9827 -11.9735 -11.9723 -11.9699 -11.9670 -11.9595 -11.9449
   -11.9294 -11.8999 -11.8832 -11.8756 -11.8623 -11.8134 -11.8087 -11.7992
   -11.7980 -11.7952 -11.7866 -11.7851 -11.7838 -11.7779 -11.7714 -11.7702
   -11.7698 -11.7686 -11.7682 -11.7657 -11.7638 -11.7626 -11.7581 -11.7578
   -11.7549 -11.7547 -11.7505 -11.7503 -11.7481 -11.7478 -11.7469 -11.7462
   -11.7437 -11.7403 -11.7360 -11.7355 -11.7341 -11.7330 -11.7300 -11.7279
   -11.7254 -11.7250 -11.7213 -11.7208 -11.7190 -11.7177 -11.7154 -11.7139
   -11.7138 -11.7117 -11.7101 -11.7089 -11.7084 -11.7055 -11.7045 -11.7032
   -11.7024 -11.7004 -11.6994 -11.6983 -11.6966 -11.6942 -11.6941 -11.6913
   -11.6889 -11.6857 -11.6820 -11.6792 -11.6767 -11.6745 -11.6720 -11.6700
    -8.1985  -8.1141  -7.7260  -7.7022  -7.6889  -7.5067  -7.3110  -7.0794
    -6.5710  -6.5629  -6.5172  -6.4841  -6.4736  -6.2589  -6.1516  -1.7131
    -1.2321  -1.1382  -1.1291  -0.8550  -0.8079  -0.6980  -0.5559   0.0857
     0.1694   0.2674   0.3152   0.3722   0.3851   0.4831   0.7265   0.9084
     0.9153   1.1297   1.3078   1.4649   1.6913   2.1172   2.2845   4.9799
     5.0317   5.0552   5.0574   5.1973   5.3394   5.4267   5.4567   5.8813
     5.8957   6.0141   6.0935   6.1892   6.3678   6.4005   6.5533   6.6266
     6.7198   6.7436   6.8310   6.8484   6.9250   7.1007   7.1953   7.2391
     7.2515   7.2683   7.3027   7.3318   7.4261   7.4863   7.6532   7.7243
     7.9581   7.9922   8.1395   8.4912   8.5623   8.5667   8.6333   8.7674
     8.7796   8.8627   8.8992   9.0140   9.0576   9.0735   9.1635   9.3741
     9.4085   9.4471   9.4534   9.4823   9.4966   9.5085   9.5477   9.5912
     9.6226   9.8137  10.0246  10.0423  10.1440  10.1517  10.2010  10.4692
    10.4824  10.6066  10.6920  10.7025  11.3106  12.5089  12.5514  12.7650
    13.0223  13.1093  13.3305  13.5155  13.6152  13.8579  13.8942  14.0115
    14.0201  14.1040  14.1936  14.2962  14.3681  14.4500  14.5560  14.5787
    14.6591  14.6656  14.8380  14.8569  14.9148  14.9606  15.0506  15.1714
    15.4116  15.5051  15.5626  15.7252  15.8538  15.8549  16.0497  16.0550
    16.1763  16.1810  16.2471  16.2746  16.3663  16.3750  16.5190  16.5359
    16.5850  16.6002  16.9897

          k = 0.3333 0.3333 0.1065 ( 29175 PWs)   bands (ev):

   -35.4245 -35.4245 -35.4244 -35.4243 -35.4233 -35.4233 -35.4232 -35.4232
   -35.4122 -35.4121 -35.4121 -35.4120 -35.4109 -35.4109 -35.4108 -35.4107
   -35.4065 -35.4064 -35.4064 -35.4063 -35.3337 -35.3337 -35.3336 -35.3335
   -35.3320 -35.3319 -35.3318 -35.3318 -35.3271 -35.3271 -35.3270 -35.3270
   -35.3248 -35.3248 -35.3247 -35.3246 -35.3225 -35.3224 -35.3223 -35.3222
   -11.9847 -11.9822 -11.9735 -11.9717 -11.9701 -11.9678 -11.9602 -11.9444
   -11.9300 -11.8999 -11.8821 -11.8761 -11.8636 -11.8132 -11.8077 -11.7984
   -11.7975 -11.7959 -11.7869 -11.7846 -11.7843 -11.7771 -11.7719 -11.7712
   -11.7703 -11.7690 -11.7687 -11.7662 -11.7644 -11.7627 -11.7581 -11.7579
   -11.7552 -11.7543 -11.7504 -11.7503 -11.7494 -11.7478 -11.7464 -11.7457
   -11.7441 -11.7401 -11.7354 -11.7352 -11.7334 -11.7327 -11.7293 -11.7282
   -11.7254 -11.7243 -11.7211 -11.7206 -11.7178 -11.7173 -11.7151 -11.7143
   -11.7132 -11.7108 -11.7101 -11.7083 -11.7081 -11.7052 -11.7046 -11.7033
   -11.7024 -11.7006 -11.6996 -11.6981 -11.6965 -11.6949 -11.6942 -11.6917
   -11.6893 -11.6862 -11.6824 -11.6793 -11.6769 -11.6748 -11.6721 -11.6702
    -8.1981  -8.1145  -7.7253  -7.7021  -7.6896  -7.5067  -7.3110  -7.0795
    -6.5708  -6.5632  -6.5172  -6.4841  -6.4736  -6.2590  -6.1516  -1.6882
    -1.2749  -1.1219  -1.1127  -0.8761  -0.8348  -0.6888  -0.5656   0.0918
     0.2175   0.2575   0.3245   0.3717   0.3888   0.4823   0.7479   0.8607
     0.9192   1.1347   1.3300   1.4584   1.6694   2.1228   2.2780   4.9942
     5.0274   5.0569   5.0825   5.1820   5.3191   5.4060   5.4395   5.9119
     5.9401   6.0520   6.0969   6.2029   6.3424   6.3716   6.5403   6.6025
     6.7144   6.7524   6.8285   6.8503   6.9228   7.0324   7.0463   7.0964
     7.2408   7.2900   7.3669   7.4322   7.5189   7.5660   7.6884   7.8250
     7.9451   7.9921   8.1751   8.4729   8.5257   8.5639   8.6330   8.7748
     8.7794   8.8194   8.8962   8.9313   9.0551   9.0642   9.1201   9.3390
     9.3942   9.4377   9.4532   9.4972   9.5244   9.5472   9.5523   9.6149
     9.6699   9.8220   9.9863  10.0159  10.0812  10.1549  10.2872  10.4816
    10.4961  10.6014  10.6825  10.6903  11.3439  12.5666  12.6420  12.7941
    12.9379  13.1848  13.3113  13.5178  13.6275  13.7851  13.8578  13.8844
    14.0146  14.1231  14.2025  14.2879  14.3491  14.3927  14.4516  14.5410
    14.5882  14.6171  14.7583  14.9145  14.9714  15.0086  15.1302  15.1562
    15.4213  15.5402  15.6273  15.7889  15.8310  15.9148  16.0337  16.1293
    16.1576  16.2349  16.2445  16.2900  16.3327  16.3913  16.5105  16.5164
    16.5622  16.5861  16.9315

          k = 0.3333 0.3333 0.2129 ( 29182 PWs)   bands (ev):

   -35.4245 -35.4245 -35.4244 -35.4243 -35.4233 -35.4232 -35.4232 -35.4231
   -35.4122 -35.4121 -35.4121 -35.4120 -35.4109 -35.4109 -35.4108 -35.4108
   -35.4066 -35.4065 -35.4064 -35.4063 -35.3337 -35.3337 -35.3336 -35.3336
   -35.3319 -35.3319 -35.3318 -35.3318 -35.3271 -35.3271 -35.3271 -35.3270
   -35.3248 -35.3248 -35.3247 -35.3247 -35.3225 -35.3224 -35.3224 -35.3223
   -11.9836 -11.9807 -11.9736 -11.9709 -11.9701 -11.9694 -11.9621 -11.9430
   -11.9315 -11.9000 -11.8793 -11.8770 -11.8671 -11.8126 -11.8055 -11.7984
   -11.7966 -11.7949 -11.7903 -11.7836 -11.7828 -11.7760 -11.7750 -11.7735
   -11.7707 -11.7699 -11.7680 -11.7671 -11.7647 -11.7638 -11.7589 -11.7574
   -11.7556 -11.7541 -11.7514 -11.7502 -11.7497 -11.7476 -11.7468 -11.7450
   -11.7443 -11.7396 -11.7355 -11.7340 -11.7318 -11.7318 -11.7289 -11.7274
   -11.7253 -11.7233 -11.7207 -11.7203 -11.7171 -11.7157 -11.7147 -11.7138
   -11.7118 -11.7111 -11.7083 -11.7077 -11.7068 -11.7055 -11.7039 -11.7037
   -11.7027 -11.7011 -11.7003 -11.6976 -11.6972 -11.6958 -11.6946 -11.6922
   -11.6902 -11.6871 -11.6834 -11.6797 -11.6773 -11.6756 -11.6724 -11.6708
    -8.1975  -8.1152  -7.7239  -7.7020  -7.6910  -7.5068  -7.3110  -7.0796
    -6.5702  -6.5637  -6.5171  -6.4841  -6.4737  -6.2590  -6.1516  -1.6169
    -1.3806  -1.0752  -1.0665  -0.9275  -0.9039  -0.6658  -0.5897   0.1067
     0.2171   0.3156   0.3667   0.3787   0.4017   0.4850   0.7424   0.8099
     0.9003   1.1467   1.3871   1.4436   1.6131   2.1359   2.2633   5.0104
     5.0299   5.0938   5.1234   5.1496   5.2749   5.3607   5.3945   5.9686
     6.0599   6.1076   6.1580   6.2114   6.2723   6.3636   6.4748   6.5411
     6.6826   6.7564   6.7985   6.8405   6.8629   6.9251   6.9400   7.0396
     7.2179   7.3153   7.4312   7.5358   7.5397   7.6892   7.7957   7.9458
     8.0213   8.0926   8.2196   8.4049   8.4437   8.5384   8.6358   8.7009
     8.7297   8.7790   8.8337   8.8843   8.9886   9.0899   9.0987   9.3072
     9.3419   9.4100   9.4447   9.5037   9.5206   9.5865   9.6299   9.6629
     9.8128   9.8432   9.9147   9.9388  10.0202  10.1188  10.4148  10.5153
    10.5313  10.5824  10.6576  10.6597  11.4056  12.6507  12.7705  12.9188
    12.9926  13.2385  13.3489  13.4386  13.5204  13.6941  13.7717  13.7839
    13.8245  14.0934  14.1237  14.1977  14.2762  14.3548  14.4271  14.5434
    14.5969  14.6173  14.6974  14.8148  14.9754  15.0664  15.1592  15.2659
    15.4628  15.5372  15.7045  15.8670  15.9201  16.0141  16.0598  16.1384
    16.2263  16.2442  16.2962  16.3396  16.3445  16.4429  16.4488  16.4688
    16.5385  16.5828  16.7625

          k = 0.3333 0.3333-0.3194 ( 29178 PWs)   bands (ev):

   -35.4245 -35.4244 -35.4244 -35.4243 -35.4233 -35.4232 -35.4232 -35.4231
   -35.4122 -35.4121 -35.4121 -35.4119 -35.4109 -35.4109 -35.4108 -35.4107
   -35.4065 -35.4065 -35.4064 -35.4063 -35.3337 -35.3337 -35.3336 -35.3336
   -35.3319 -35.3319 -35.3318 -35.3318 -35.3271 -35.3271 -35.3271 -35.3270
   -35.3248 -35.3248 -35.3247 -35.3246 -35.3224 -35.3224 -35.3224 -35.3223
   -11.9832 -11.9793 -11.9742 -11.9713 -11.9700 -11.9689 -11.9633 -11.9422
   -11.9324 -11.9000 -11.8775 -11.8771 -11.8696 -11.8122 -11.8045 -11.7978
   -11.7962 -11.7934 -11.7933 -11.7822 -11.7822 -11.7773 -11.7753 -11.7745
   -11.7718 -11.7698 -11.7672 -11.7670 -11.7657 -11.7639 -11.7595 -11.7570
   -11.7562 -11.7539 -11.7519 -11.7505 -11.7492 -11.7477 -11.7470 -11.7451
   -11.7440 -11.7394 -11.7357 -11.7335 -11.7313 -11.7303 -11.7298 -11.7261
   -11.7253 -11.7230 -11.7207 -11.7198 -11.7176 -11.7150 -11.7138 -11.7133
   -11.7126 -11.7092 -11.7088 -11.7067 -11.7062 -11.7043 -11.7041 -11.7035
   -11.7031 -11.7020 -11.7005 -11.6986 -11.6974 -11.6954 -11.6951 -11.6916
   -11.6915 -11.6876 -11.6839 -11.6799 -11.6775 -11.6761 -11.6725 -11.6711
    -8.1971  -8.1156  -7.7231  -7.7019  -7.6918  -7.5069  -7.3110  -7.0796
    -6.5699  -6.5640  -6.5170  -6.4841  -6.4738  -6.2590  -6.1516  -1.5259
    -1.4879  -1.0363  -0.9944  -0.9855  -0.9699  -0.6463  -0.6098   0.1173
     0.2001   0.3246   0.3808   0.3876   0.4580   0.5207   0.6438   0.8536
     0.8663   1.1539   1.4319   1.4350   1.5690   2.1437   2.2547   5.0023
     5.0572   5.1235   5.1292   5.1429   5.2491   5.3385   5.3610   6.0261
     6.0965   6.1302   6.1525   6.2791   6.3034   6.3408   6.4037   6.5312
     6.5849   6.6801   6.8133   6.8590   6.8643   6.8905   6.9107   7.0279
     7.2181   7.3200   7.4434   7.5511   7.6060   7.7195   7.7708   8.0646
     8.1252   8.1920   8.2812   8.3174   8.3886   8.4589   8.6009   8.6438
     8.6629   8.7789   8.8552   8.8917   8.9277   9.0871   9.1815   9.2305
     9.2990   9.4364   9.4529   9.4665   9.5447   9.5582   9.7133   9.7426
     9.7766   9.8103   9.9338   9.9687  10.0205  10.0253  10.4776  10.5419
    10.5591  10.5655  10.6338  10.6363  11.4346  12.6230  12.8878  13.0186
    13.1710  13.2389  13.3311  13.4027  13.5037  13.5707  13.5806  13.6663
    13.8306  14.0852  14.0886  14.1476  14.2710  14.3005  14.5057  14.5196
    14.6308  14.6651  14.6740  14.7133  14.9928  15.0283  15.2042  15.3240
    15.3939  15.5892  15.7660  15.9117  15.9216  16.0220  16.1054  16.1463
    16.1859  16.2969  16.3547  16.3654  16.3855  16.4166  16.5093  16.5153
    16.5370  16.5575  16.6821

          k = 0.3333-0.5000 0.0000 ( 29156 PWs)   bands (ev):

   -35.4245 -35.4244 -35.4244 -35.4243 -35.4233 -35.4232 -35.4232 -35.4231
   -35.4122 -35.4121 -35.4120 -35.4120 -35.4109 -35.4108 -35.4108 -35.4107
   -35.4065 -35.4065 -35.4064 -35.4063 -35.3337 -35.3336 -35.3336 -35.3335
   -35.3319 -35.3318 -35.3318 -35.3317 -35.3271 -35.3271 -35.3271 -35.3270
   -35.3248 -35.3248 -35.3247 -35.3246 -35.3225 -35.3224 -35.3223 -35.3222
   -11.9830 -11.9781 -11.9779 -11.9740 -11.9696 -11.9655 -11.9645 -11.9340
   -11.9117 -11.9026 -11.8899 -11.8589 -11.8428 -11.8357 -11.8209 -11.8069
   -11.8005 -11.7960 -11.7860 -11.7835 -11.7818 -11.7747 -11.7706 -11.7700
   -11.7658 -11.7648 -11.7639 -11.7626 -11.7610 -11.7603 -11.7579 -11.7574
   -11.7562 -11.7543 -11.7517 -11.7512 -11.7498 -11.7473 -11.7470 -11.7435
   -11.7416 -11.7404 -11.7381 -11.7375 -11.7332 -11.7320 -11.7320 -11.7284
   -11.7268 -11.7256 -11.7253 -11.7232 -11.7215 -11.7180 -11.7171 -11.7155
   -11.7140 -11.7119 -11.7110 -11.7093 -11.7080 -11.7059 -11.7055 -11.7038
   -11.7034 -11.7014 -11.7010 -11.6996 -11.6982 -11.6953 -11.6944 -11.6906
   -11.6898 -11.6847 -11.6839 -11.6815 -11.6793 -11.6753 -11.6736 -11.6704
    -8.0029  -7.9768  -7.9734  -7.8265  -7.5511  -7.5254  -7.5199  -7.1280
    -6.5327  -6.5091  -6.4996  -6.4263  -6.3068  -6.2861  -6.2775  -1.4891
    -1.4442  -1.0622  -1.0385  -0.9664  -0.9209  -0.7073  -0.6959   0.1984
     0.2333   0.2429   0.2525   0.3113   0.3781   0.6628   0.6715   0.8634
     1.0487   1.1805   1.3518   1.7330   1.8499   1.8942   1.9895   4.9016
     4.9676   4.9908   5.0037   5.1728   5.2594   5.4249   5.4250   5.8946
     5.9143   6.2652   6.3467   6.4044   6.4141   6.4727   6.4909   6.5688
     6.6204   6.6811   6.7691   6.9259   6.9406   7.0215   7.0485   7.0763
     7.2643   7.3771   7.3947   7.4166   7.4290   7.4421   7.4435   7.4701
     7.8808   7.9879   8.1579   8.6802   8.7446   8.7569   8.7756   8.7991
     8.8576   8.8905   8.8987   8.9421   8.9579   9.0302   9.1678   9.1958
     9.2507   9.2991   9.3384   9.3655   9.4791   9.5531   9.5628   9.5630
    10.0096  10.0233  10.1049  10.1291  10.1597  10.2239  10.2423  10.2531
    10.4285  10.5692  10.6263  10.6859  11.2552  12.5003  12.5705  12.7613
    12.9517  13.0374  13.0883  13.6547  13.7338  13.7960  13.9454  14.0563
    14.0571  14.1951  14.2348  14.2664  14.4121  14.4309  14.4334  14.5367
    14.5970  14.6501  14.7418  14.7762  14.8905  14.9276  15.2319  15.2333
    15.3193  15.6042  15.6947  15.7135  15.7970  16.0716  16.0982  16.1281
    16.1900  16.2098  16.2360  16.2417  16.2757  16.3261  16.3375  16.3428
    16.6815  16.7910  16.9843

          k = 0.3333-0.5000 0.1065 ( 29140 PWs)   bands (ev):

   -35.4245 -35.4244 -35.4244 -35.4243 -35.4232 -35.4232 -35.4232 -35.4231
   -35.4121 -35.4121 -35.4120 -35.4119 -35.4109 -35.4108 -35.4108 -35.4107
   -35.4065 -35.4064 -35.4063 -35.4062 -35.3337 -35.3336 -35.3336 -35.3335
   -35.3318 -35.3318 -35.3318 -35.3317 -35.3271 -35.3271 -35.3270 -35.3270
   -35.3248 -35.3247 -35.3247 -35.3246 -35.3224 -35.3223 -35.3223 -35.3221
   -11.9825 -11.9774 -11.9773 -11.9738 -11.9701 -11.9662 -11.9654 -11.9340
   -11.9106 -11.9028 -11.8914 -11.8588 -11.8419 -11.8366 -11.8228 -11.8053
   -11.7994 -11.7953 -11.7851 -11.7850 -11.7814 -11.7745 -11.7715 -11.7715
   -11.7671 -11.7658 -11.7642 -11.7624 -11.7607 -11.7602 -11.7572 -11.7570
   -11.7560 -11.7539 -11.7519 -11.7507 -11.7498 -11.7475 -11.7470 -11.7442
   -11.7411 -11.7407 -11.7383 -11.7374 -11.7337 -11.7316 -11.7315 -11.7280
   -11.7269 -11.7254 -11.7245 -11.7224 -11.7214 -11.7175 -11.7167 -11.7142
   -11.7134 -11.7113 -11.7112 -11.7089 -11.7076 -11.7059 -11.7057 -11.7042
   -11.7033 -11.7014 -11.7004 -11.7001 -11.6982 -11.6952 -11.6952 -11.6909
   -11.6901 -11.6850 -11.6844 -11.6818 -11.6796 -11.6756 -11.6737 -11.6708
    -8.0017  -7.9781  -7.9732  -7.8267  -7.5503  -7.5263  -7.5199  -7.1281
    -6.5326  -6.5092  -6.4996  -6.4263  -6.3068  -6.2861  -6.2775  -1.4655
    -1.4242  -1.0938  -1.0790  -0.9512  -0.9080  -0.7228  -0.7170   0.2290
     0.2367   0.2462   0.2751   0.3198   0.3810   0.6435   0.6548   0.8697
     1.0701   1.1824   1.3348   1.7295   1.8537   1.8912   1.9793   4.9185
     4.9831   4.9993   5.0115   5.1555   5.2460   5.4002   5.4053   5.9295
     5.9522   6.2693   6.3687   6.4008   6.4150   6.4447   6.4679   6.5617
     6.6010   6.7054   6.7732   6.9319   6.9366   7.0039   7.0267   7.0297
     7.1692   7.2052   7.2988   7.3042   7.4801   7.5516   7.6113   7.7230
     7.9319   8.0131   8.1923   8.6247   8.7321   8.7337   8.7603   8.8001
     8.8355   8.8901   8.8947   8.9470   8.9712   8.9728   9.1830   9.2368
     9.2464   9.2745   9.3473   9.3733   9.4715   9.5460   9.5984   9.6045
     9.9517   9.9817  10.0603  10.0645  10.1233  10.1521  10.2981  10.3084
    10.4812  10.5939  10.6282  10.6961  11.2823  12.5714  12.6050  12.8315
    12.8801  13.0919  13.1364  13.6397  13.7207  13.8141  13.8609  13.9916
    14.0282  14.1462  14.2319  14.2618  14.3203  14.3745  14.3952  14.4357
    14.5206  14.6628  14.7766  14.8054  14.9410  14.9812  15.2235  15.2286
    15.3499  15.6670  15.7019  15.7627  15.7921  16.0768  16.0799  16.1392
    16.2203  16.2321  16.2414  16.2565  16.2880  16.3399  16.3421  16.3614
    16.6521  16.7531  16.9348

          k = 0.3333-0.5000 0.2129 ( 29158 PWs)   bands (ev):

   -35.4245 -35.4245 -35.4244 -35.4243 -35.4233 -35.4232 -35.4232 -35.4231
   -35.4122 -35.4121 -35.4120 -35.4119 -35.4109 -35.4109 -35.4108 -35.4107
   -35.4065 -35.4064 -35.4064 -35.4063 -35.3337 -35.3336 -35.3336 -35.3335
   -35.3318 -35.3318 -35.3318 -35.3317 -35.3271 -35.3271 -35.3271 -35.3270
   -35.3248 -35.3247 -35.3247 -35.3247 -35.3224 -35.3224 -35.3223 -35.3222
   -11.9813 -11.9760 -11.9758 -11.9734 -11.9710 -11.9679 -11.9674 -11.9339
   -11.9077 -11.9032 -11.8949 -11.8585 -11.8397 -11.8383 -11.8266 -11.8016
   -11.7972 -11.7939 -11.7895 -11.7827 -11.7797 -11.7754 -11.7735 -11.7732
   -11.7700 -11.7695 -11.7629 -11.7617 -11.7608 -11.7600 -11.7566 -11.7564
   -11.7555 -11.7531 -11.7519 -11.7503 -11.7499 -11.7478 -11.7469 -11.7453
   -11.7413 -11.7407 -11.7388 -11.7372 -11.7338 -11.7311 -11.7307 -11.7272
   -11.7272 -11.7250 -11.7234 -11.7208 -11.7205 -11.7167 -11.7156 -11.7127
   -11.7119 -11.7105 -11.7097 -11.7086 -11.7073 -11.7059 -11.7058 -11.7044
   -11.7037 -11.7017 -11.7010 -11.6995 -11.6985 -11.6972 -11.6951 -11.6914
   -11.6906 -11.6859 -11.6855 -11.6823 -11.6803 -11.6762 -11.6740 -11.6714
    -7.9988  -7.9810  -7.9730  -7.8269  -7.5483  -7.5284  -7.5199  -7.1282
    -6.5324  -6.5094  -6.4996  -6.4263  -6.3067  -6.2862  -6.2775  -1.3979
    -1.3687  -1.1785  -1.1700  -0.9071  -0.8775  -0.7717  -0.7595   0.2373
     0.2471   0.2720   0.3171   0.3763   0.4047   0.5871   0.6109   0.8825
     1.1249   1.1862   1.2886   1.7219   1.8642   1.8854   1.9562   4.9615
     4.9999   5.0192   5.0543   5.1142   5.2165   5.3398   5.3602   6.0275
     6.0524   6.2760   6.3127   6.3781   6.4043   6.4470   6.4702   6.5537
     6.5772   6.7475   6.7873   6.8150   6.8565   6.9446   7.0094   7.0110
     7.0825   7.1177   7.2551   7.2729   7.5049   7.6430   7.7446   8.0193
     8.0884   8.1273   8.2646   8.4814   8.6072   8.6342   8.7411   8.7962
     8.8042   8.8339   8.8964   8.8981   9.0002   9.0170   9.1438   9.1921
     9.3316   9.3700   9.3862   9.4084   9.4459   9.5144   9.6814   9.6984
     9.7763   9.7933   9.9763   9.9943  10.1463  10.1653  10.3064  10.3202
    10.5555  10.6246  10.6306  10.7173  11.3429  12.5725  12.7739  12.9120
    13.0089  13.2221  13.2579  13.4656  13.5576  13.7495  13.7612  13.8800
    13.9880  14.1056  14.1505  14.1937  14.2006  14.2593  14.2931  14.3815
    14.5616  14.6931  14.7611  14.8420  15.0259  15.0403  15.1716  15.2032
    15.3875  15.6995  15.7303  15.8433  15.8930  16.0379  16.0850  16.1578
    16.2103  16.2558  16.2863  16.3236  16.3287  16.3469  16.4388  16.4517
    16.5727  16.6448  16.8051

          k = 0.3333-0.5000-0.3194 ( 29148 PWs)   bands (ev):

   -35.4244 -35.4244 -35.4243 -35.4243 -35.4233 -35.4232 -35.4232 -35.4231
   -35.4122 -35.4121 -35.4120 -35.4119 -35.4109 -35.4108 -35.4108 -35.4107
   -35.4065 -35.4064 -35.4064 -35.4063 -35.3336 -35.3336 -35.3335 -35.3335
   -35.3319 -35.3318 -35.3317 -35.3317 -35.3271 -35.3271 -35.3270 -35.3270
   -35.3248 -35.3247 -35.3247 -35.3246 -35.3224 -35.3224 -35.3223 -35.3223
   -11.9807 -11.9751 -11.9746 -11.9729 -11.9716 -11.9692 -11.9688 -11.9338
   -11.9054 -11.9034 -11.8974 -11.8583 -11.8392 -11.8380 -11.8290 -11.7979
   -11.7958 -11.7949 -11.7917 -11.7814 -11.7784 -11.7765 -11.7746 -11.7731
   -11.7717 -11.7717 -11.7623 -11.7621 -11.7602 -11.7599 -11.7566 -11.7562
   -11.7552 -11.7526 -11.7519 -11.7501 -11.7499 -11.7480 -11.7469 -11.7457
   -11.7415 -11.7407 -11.7390 -11.7371 -11.7337 -11.7310 -11.7301 -11.7274
   -11.7267 -11.7249 -11.7234 -11.7203 -11.7195 -11.7164 -11.7149 -11.7125
   -11.7110 -11.7091 -11.7090 -11.7081 -11.7073 -11.7057 -11.7053 -11.7048
   -11.7040 -11.7021 -11.7013 -11.6995 -11.6992 -11.6977 -11.6949 -11.6916
   -11.6908 -11.6863 -11.6860 -11.6826 -11.6806 -11.6766 -11.6742 -11.6718
    -7.9970  -7.9829  -7.9728  -7.8271  -7.5471  -7.5295  -7.5199  -7.1282
    -6.5323  -6.5095  -6.4995  -6.4263  -6.3067  -6.2862  -6.2775  -1.3127
    -1.3038  -1.2876  -1.2356  -0.8536  -0.8515  -0.8325  -0.7865   0.2390
     0.2475   0.2789   0.3287   0.4381   0.4515   0.5240   0.5764   0.8890
     1.1722   1.1881   1.2456   1.7179   1.8723   1.8826   1.9418   5.0016
     5.0052   5.0198   5.0882   5.0931   5.1974   5.2998   5.3336   6.1377
     6.1478   6.1876   6.2607   6.3446   6.4054   6.4479   6.4975   6.5904
     6.6086   6.6449   6.7607   6.8137   6.8246   6.8830   7.0266   7.0270
     7.0403   7.0909   7.2489   7.2778   7.5060   7.6719   7.7800   8.2209
     8.2416   8.3001   8.3068   8.3692   8.3916   8.4879   8.7221   8.7890
     8.7938   8.8178   8.8999   8.9018   9.0167   9.0774   9.1166   9.1176
     9.3788   9.4113   9.4467   9.4666   9.5084   9.5434   9.5858   9.5888
     9.8066   9.8088   9.8828   9.8846  10.1997  10.2332  10.2746  10.2815
    10.5872  10.6301  10.6347  10.7273  11.3774  12.5102  13.0211  13.0456
    13.0993  13.1884  13.2877  13.4280  13.4716  13.5624  13.6355  13.8992
    13.9894  13.9967  14.1302  14.1589  14.1776  14.1938  14.3229  14.3435
    14.6389  14.7019  14.7175  14.8599  15.0572  15.0689  15.1301  15.1926
    15.3843  15.6957  15.7517  15.8906  15.9653  16.0041  16.0895  16.1597
    16.1977  16.2810  16.2850  16.3358  16.4047  16.4329  16.4605  16.5132
    16.5933  16.6077  16.6682

          k =-0.5000-0.5000 0.0000 ( 29128 PWs)   bands (ev):

   -35.4245 -35.4244 -35.4244 -35.4243 -35.4231 -35.4231 -35.4230 -35.4230
   -35.4121 -35.4121 -35.4120 -35.4120 -35.4109 -35.4108 -35.4108 -35.4107
   -35.4065 -35.4064 -35.4064 -35.4063 -35.3336 -35.3336 -35.3336 -35.3336
   -35.3317 -35.3317 -35.3316 -35.3316 -35.3271 -35.3271 -35.3271 -35.3270
   -35.3247 -35.3247 -35.3247 -35.3246 -35.3224 -35.3224 -35.3224 -35.3223
   -11.9831 -11.9783 -11.9783 -11.9742 -11.9692 -11.9661 -11.9661 -11.9268
   -11.8768 -11.8764 -11.8764 -11.8691 -11.8546 -11.8546 -11.8544 -11.8043
   -11.7982 -11.7982 -11.7875 -11.7815 -11.7707 -11.7707 -11.7703 -11.7660
   -11.7660 -11.7625 -11.7615 -11.7586 -11.7586 -11.7582 -11.7572 -11.7569
   -11.7569 -11.7562 -11.7553 -11.7553 -11.7510 -11.7463 -11.7441 -11.7440
   -11.7440 -11.7419 -11.7419 -11.7365 -11.7356 -11.7331 -11.7304 -11.7304
   -11.7247 -11.7247 -11.7236 -11.7202 -11.7201 -11.7186 -11.7186 -11.7179
   -11.7161 -11.7161 -11.7147 -11.7116 -11.7086 -11.7086 -11.7071 -11.7050
   -11.7023 -11.7023 -11.7016 -11.7010 -11.6953 -11.6951 -11.6935 -11.6935
   -11.6904 -11.6851 -11.6851 -11.6811 -11.6811 -11.6801 -11.6751 -11.6710
    -7.8069  -7.8068  -7.8037  -7.7828  -7.7734  -7.7699  -7.7699  -7.1747
    -6.4043  -6.4043  -6.3815  -6.3773  -6.3612  -6.3595  -6.3595  -1.2821
    -1.2487  -1.2487  -1.1897  -0.9351  -0.8980  -0.8642  -0.8642   0.1895
     0.2470   0.2470   0.2974   0.4172   0.5047   0.5047   0.5301   0.9037
     1.4720   1.5210   1.5210   1.5747   1.6554   1.7653   1.7654   4.8138
     4.9150   4.9168   4.9168   5.1772   5.2850   5.3711   5.3711   6.2684
     6.3483   6.3782   6.3805   6.3806   6.4391   6.4391   6.4866   6.5386
     6.6862   6.7902   6.7902   6.8118   6.8268   6.8268   6.9043   6.9806
     7.1842   7.2103   7.2103   7.3785   7.3844   7.4304   7.4309   7.4309
     7.9287   7.9288   8.1876   8.8907   8.8939   8.8939   8.8983   8.8990
     8.9322   8.9322   8.9419   8.9455   9.0078   9.0103   9.0103   9.0137
     9.2356   9.2644   9.2835   9.2835   9.2883   9.3976   9.3976   9.4059
    10.1542  10.1542  10.2303  10.2537  10.4174  10.4175  10.4240  10.4616
    10.4991  10.6323  10.6323  10.7021  10.9661  12.2523  12.2523  12.2809
    12.8589  13.2622  13.2646  13.2646  13.7739  13.9088  13.9088  13.9388
    14.1484  14.1724  14.2928  14.2928  14.4439  14.4719  14.4719  14.5786
    14.6091  14.7082  14.7123  14.7123  15.0931  15.0931  15.2778  15.4482
    15.5772  15.5772  15.6007  15.6286  15.8532  15.8532  15.8821  16.1252
    16.1851  16.1851  16.1944  16.2074  16.2100  16.6008  16.6008  16.6806
    16.6950  16.6950  16.6957

          k =-0.5000-0.5000 0.1065 ( 29144 PWs)   bands (ev):

   -35.4245 -35.4245 -35.4244 -35.4243 -35.4232 -35.4232 -35.4231 -35.4231
   -35.4121 -35.4121 -35.4120 -35.4119 -35.4109 -35.4109 -35.4108 -35.4108
   -35.4064 -35.4064 -35.4063 -35.4062 -35.3337 -35.3336 -35.3336 -35.3336
   -35.3318 -35.3317 -35.3317 -35.3317 -35.3272 -35.3271 -35.3271 -35.3270
   -35.3248 -35.3248 -35.3247 -35.3247 -35.3224 -35.3223 -35.3222 -35.3221
   -11.9827 -11.9777 -11.9777 -11.9741 -11.9698 -11.9668 -11.9668 -11.9269
   -11.8759 -11.8754 -11.8754 -11.8694 -11.8562 -11.8562 -11.8559 -11.8030
   -11.7973 -11.7973 -11.7863 -11.7835 -11.7715 -11.7715 -11.7698 -11.7667
   -11.7667 -11.7647 -11.7606 -11.7592 -11.7588 -11.7583 -11.7583 -11.7562
   -11.7557 -11.7550 -11.7550 -11.7545 -11.7507 -11.7463 -11.7449 -11.7440
   -11.7440 -11.7418 -11.7418 -11.7367 -11.7354 -11.7336 -11.7305 -11.7305
   -11.7246 -11.7246 -11.7239 -11.7199 -11.7190 -11.7176 -11.7176 -11.7162
   -11.7153 -11.7153 -11.7141 -11.7119 -11.7085 -11.7085 -11.7075 -11.7056
   -11.7026 -11.7026 -11.7008 -11.7005 -11.6961 -11.6954 -11.6939 -11.6939
   -11.6900 -11.6855 -11.6855 -11.6814 -11.6814 -11.6807 -11.6754 -11.6715
    -7.8061  -7.8061  -7.8023  -7.7842  -7.7734  -7.7707  -7.7706  -7.1747
    -6.4043  -6.4043  -6.3812  -6.3775  -6.3612  -6.3595  -6.3595  -1.2614
    -1.2281  -1.2281  -1.1790  -0.9490  -0.9314  -0.8972  -0.8972   0.2143
     0.2695   0.2695   0.3046   0.4084   0.4981   0.4982   0.5262   0.9027
     1.4822   1.5295   1.5295   1.5758   1.6414   1.7528   1.7528   4.8364
     4.9320   4.9337   4.9337   5.1507   5.2634   5.3507   5.3507   6.2893
     6.3792   6.3920   6.3950   6.3951   6.4622   6.4622   6.4705   6.5844
     6.6443   6.7204   6.7204   6.8433   6.8758   6.8758   6.8872   6.9757
     7.0546   7.0630   7.0630   7.1001   7.4615   7.5541   7.5541   7.7343
     7.9883   7.9883   8.2145   8.8279   8.8340   8.8341   8.8832   8.8974
     8.9314   8.9314   8.9404   8.9440   9.0288   9.0335   9.0335   9.0410
     9.2668   9.2927   9.3200   9.3318   9.3319   9.3732   9.3732   9.3792
    10.0888  10.0888  10.1437  10.1448  10.4181  10.4181  10.4345  10.4770
    10.5254  10.6203  10.6204  10.6858  11.0327  12.3690  12.3690  12.4014
    12.7190  13.2870  13.2870  13.3437  13.8132  13.8239  13.8256  13.8256
    14.0868  14.2250  14.2250  14.2875  14.3908  14.4437  14.4437  14.5841
    14.6126  14.6661  14.6661  14.6692  15.1683  15.1683  15.2432  15.4920
    15.5294  15.5740  15.5740  15.5891  15.8864  15.8865  15.9870  16.1055
    16.1561  16.2255  16.2256  16.2502  16.2943  16.5623  16.5624  16.6452
    16.6673  16.6673  16.6699

          k =-0.5000-0.5000 0.2129 ( 29112 PWs)   bands (ev):

   -35.4245 -35.4244 -35.4243 -35.4243 -35.4232 -35.4231 -35.4231 -35.4230
   -35.4121 -35.4120 -35.4120 -35.4119 -35.4109 -35.4108 -35.4108 -35.4107
   -35.4064 -35.4064 -35.4063 -35.4062 -35.3336 -35.3336 -35.3336 -35.3335
   -35.3318 -35.3317 -35.3317 -35.3316 -35.3271 -35.3271 -35.3270 -35.3270
   -35.3247 -35.3247 -35.3247 -35.3246 -35.3223 -35.3223 -35.3222 -35.3222
   -11.9816 -11.9762 -11.9762 -11.9738 -11.9710 -11.9684 -11.9684 -11.9271
   -11.8733 -11.8727 -11.8727 -11.8699 -11.8599 -11.8599 -11.8595 -11.7994
   -11.7954 -11.7954 -11.7885 -11.7830 -11.7740 -11.7740 -11.7697 -11.7684
   -11.7667 -11.7666 -11.7615 -11.7589 -11.7588 -11.7588 -11.7588 -11.7556
   -11.7541 -11.7538 -11.7538 -11.7528 -11.7504 -11.7465 -11.7462 -11.7437
   -11.7437 -11.7417 -11.7417 -11.7372 -11.7351 -11.7342 -11.7308 -11.7308
   -11.7244 -11.7244 -11.7243 -11.7196 -11.7167 -11.7156 -11.7156 -11.7138
   -11.7138 -11.7131 -11.7130 -11.7118 -11.7083 -11.7079 -11.7079 -11.7065
   -11.7033 -11.7033 -11.7006 -11.6987 -11.6986 -11.6958 -11.6950 -11.6950
   -11.6887 -11.6864 -11.6863 -11.6824 -11.6818 -11.6818 -11.6757 -11.6723
    -7.8046  -7.8045  -7.7985  -7.7881  -7.7734  -7.7723  -7.7722  -7.1748
    -6.4043  -6.4042  -6.3805  -6.3783  -6.3612  -6.3595  -6.3595  -1.2022
    -1.1696  -1.1695  -1.1525  -1.0145  -0.9816  -0.9792  -0.9792   0.2723
     0.3177   0.3177   0.3196   0.3812   0.4804   0.4804   0.5177   0.9006
     1.5117   1.5506   1.5506   1.5780   1.6041   1.7237   1.7237   4.8989
     4.9736   4.9736   4.9747   5.0804   5.2117   5.3038   5.3038   6.3233
     6.4319   6.4384   6.4384   6.4719   6.5036   6.5204   6.5204   6.5690
     6.6360   6.6360   6.6556   6.8214   6.8367   6.8565   6.8565   6.8766
     6.8918   6.9270   6.9270   6.9611   7.5231   7.6572   7.6572   8.0683
     8.1728   8.1728   8.2846   8.6486   8.6691   8.6692   8.8435   8.8966
     8.9304   8.9304   8.9387   8.9425   9.0712   9.0974   9.0974   9.1128
     9.2230   9.2918   9.2918   9.3069   9.4453   9.4745   9.4818   9.4818
     9.9172   9.9172   9.9263   9.9391  10.4286  10.4287  10.4638  10.5199
    10.5338  10.5967  10.5967  10.6407  11.1750  12.4795  12.6656  12.6656
    12.7086  13.3018  13.3019  13.4962  13.5116  13.5873  13.5873  13.9257
    13.9651  14.1307  14.1307  14.2548  14.3872  14.3873  14.4870  14.5962
    14.6204  14.6260  14.6350  14.6350  15.1944  15.2387  15.2387  15.3569
    15.5383  15.5667  15.5685  15.5685  15.9751  15.9751  16.0112  16.1857
    16.2539  16.3291  16.3291  16.3532  16.3568  16.4754  16.4757  16.5495
    16.5888  16.5891  16.5953

          k =-0.5000-0.5000-0.3194 ( 29216 PWs)   bands (ev):

   -35.4245 -35.4245 -35.4244 -35.4244 -35.4233 -35.4233 -35.4232 -35.4232
   -35.4122 -35.4122 -35.4121 -35.4120 -35.4110 -35.4110 -35.4109 -35.4108
   -35.4066 -35.4065 -35.4065 -35.4064 -35.3337 -35.3337 -35.3336 -35.3336
   -35.3319 -35.3319 -35.3318 -35.3318 -35.3272 -35.3272 -35.3272 -35.3271
   -35.3249 -35.3249 -35.3248 -35.3248 -35.3225 -35.3224 -35.3224 -35.3223
   -11.9809 -11.9752 -11.9752 -11.9737 -11.9717 -11.9695 -11.9695 -11.9272
   -11.8715 -11.8706 -11.8706 -11.8703 -11.8627 -11.8627 -11.8620 -11.7950
   -11.7943 -11.7943 -11.7937 -11.7804 -11.7756 -11.7756 -11.7731 -11.7673
   -11.7664 -11.7664 -11.7634 -11.7593 -11.7593 -11.7585 -11.7579 -11.7554
   -11.7535 -11.7532 -11.7532 -11.7522 -11.7503 -11.7474 -11.7462 -11.7436
   -11.7436 -11.7417 -11.7417 -11.7375 -11.7349 -11.7345 -11.7310 -11.7310
   -11.7245 -11.7244 -11.7244 -11.7195 -11.7154 -11.7143 -11.7143 -11.7136
   -11.7136 -11.7129 -11.7129 -11.7096 -11.7087 -11.7072 -11.7072 -11.7070
   -11.7041 -11.7041 -11.7010 -11.7001 -11.6981 -11.6960 -11.6956 -11.6956
   -11.6874 -11.6868 -11.6868 -11.6839 -11.6821 -11.6821 -11.6759 -11.6727
    -7.8037  -7.8037  -7.7936  -7.7930  -7.7733  -7.7731  -7.7731  -7.1748
    -6.4043  -6.4042  -6.3798  -6.3790  -6.3612  -6.3596  -6.3596  -1.1348
    -1.1148  -1.1132  -1.0969  -1.0968  -1.0630  -1.0630  -1.0025   0.3276
     0.3325   0.3358   0.3459   0.3460   0.4668   0.4668   0.5130   0.8996
     1.5552   1.5567   1.5646   1.5646   1.5791   1.7056   1.7056   4.9805
     4.9949   4.9983   4.9984   5.0049   5.1770   5.2754   5.2754   6.3323
     6.4888   6.4899   6.4899   6.4980   6.5232   6.5232   6.6184   6.6186
     6.6268   6.6329   6.6329   6.6335   6.7461   6.7469   6.7469   6.8182
     6.9208   6.9347   6.9347   6.9436   7.5378   7.6849   7.6849   8.3293
     8.3817   8.3827   8.3827   8.3854   8.4746   8.4746   8.8162   8.8963
     8.9301   8.9301   8.9382   8.9421   9.0954   9.1708   9.1709   9.1978
     9.2084   9.2106   9.2134   9.2134   9.6124   9.6416   9.6417   9.6940
     9.6973   9.7358   9.7428   9.7428  10.4375  10.4375  10.4884  10.5215
    10.5785  10.5807  10.5838  10.5838  11.2561  12.3602  12.9890  12.9890
    13.1001  13.1041  13.1041  13.1145  13.4917  13.4917  13.6057  13.8641
    14.0841  14.0850  14.0909  14.0909  14.3618  14.3619  14.5938  14.6063
    14.6104  14.6283  14.6305  14.6305  15.2066  15.2288  15.2539  15.2539
    15.5481  15.5555  15.5650  15.5650  15.9872  16.0370  16.0370  16.2872
    16.3887  16.3924  16.3982  16.3982  16.4152  16.4327  16.4594  16.4594
    16.4835  16.4847  16.4926

     the Fermi energy is    11.7360 ev

!    total energy              =  -18126.65018893 Ry
     total all-electron energy =   -729913.053166 Ry
     estimated scf accuracy    <          1.5E-09 Ry
     smearing contrib. (-TS)   =       0.00232674 Ry
     internal energy E=F+TS    =  -18126.65251567 Ry

     The total energy is F=E-TS. E is the sum of the following terms:
     one-electron contribution =   -2228.09283765 Ry
     hartree contribution      =    1421.34076772 Ry
     xc contribution           =    -851.78751312 Ry
     ewald contribution        =   -3298.94988343 Ry
     one-center paw contrib.   =  -13169.16304920 Ry

     convergence has been achieved in  16 iterations

     Forces acting on atoms (cartesian axes, Ry/au):

     atom    1 type  1   force =     0.00000000   -0.00044769    0.00130473
     atom    2 type  1   force =     0.00000000   -0.00290111    0.00021801
     atom    3 type  1   force =     0.00290111    0.00000000   -0.00021801
     atom    4 type  1   force =     0.00044769    0.00000000   -0.00130473
     atom    5 type  1   force =     0.00000000    0.00044769    0.00130473
     atom    6 type  1   force =     0.00000000    0.00290111    0.00021801
     atom    7 type  1   force =     0.00000000   -0.01067222   -0.00006181
     atom    8 type  1   force =     0.00000000   -0.00164628   -0.00062209
     atom    9 type  1   force =     0.00164628    0.00000000    0.00062209
     atom   10 type  1   force =     0.01067222    0.00000000    0.00006181
     atom   11 type  1   force =    -0.00290111    0.00000000   -0.00021801
     atom   12 type  1   force =    -0.00044769    0.00000000   -0.00130473
     atom   13 type  1   force =     0.00000000    0.01067222   -0.00006181
     atom   14 type  1   force =     0.00000000    0.00164628   -0.00062209
     atom   15 type  1   force =    -0.00164628    0.00000000    0.00062209
     atom   16 type  1   force =    -0.01067222    0.00000000    0.00006181
     atom   17 type  3   force =     0.00000000   -0.00280014    0.00546717
     atom   18 type  3   force =     0.00280014    0.00000000   -0.00546717
     atom   19 type  3   force =     0.00000000    0.00280014    0.00546717
     atom   20 type  3   force =     0.00000000   -0.00052538   -0.00016767
     atom   21 type  3   force =     0.00052538    0.00000000    0.00016767
     atom   22 type  3   force =    -0.00280014    0.00000000   -0.00546717
     atom   23 type  3   force =     0.00000000    0.00052538   -0.00016767
     atom   24 type  3   force =    -0.00052538    0.00000000    0.00016767
     atom   25 type  2   force =     0.00000000    0.00000000    0.00000000
     atom   26 type  2   force =     0.00000000    0.00000000   -0.00032509
     atom   27 type  2   force =     0.00000000    0.00000000   -0.00531415
     atom   28 type  2   force =     0.00000000    0.00000000    0.00000000
     atom   29 type  2   force =     0.00277847    0.00277847   -0.00000000
     atom   30 type  2   force =    -0.00108242    0.00108242    0.00000000
     atom   31 type  2   force =    -0.00277847    0.00277847   -0.00000000
     atom   32 type  2   force =     0.00108242    0.00108242    0.00000000
     atom   33 type  2   force =    -0.00108242   -0.00108242    0.00000000
     atom   34 type  2   force =    -0.00277847   -0.00277847   -0.00000000
     atom   35 type  2   force =     0.00000000    0.00000000    0.00531415
     atom   36 type  2   force =     0.00000000    0.00000000    0.00032509
     atom   37 type  2   force =     0.00000000    0.00000000    0.00000000
     atom   38 type  2   force =     0.00108242   -0.00108242    0.00000000
     atom   39 type  2   force =     0.00277847   -0.00277847   -0.00000000

     Total force =     0.028097     Total SCF correction =     0.000159


     Computing stress (Cartesian axis) and pressure

          total   stress  (Ry/bohr**3)                   (kbar)     P=       -2.16
  -0.00001344  -0.00000000   0.00000000           -1.98       -0.00        0.00
  -0.00000000  -0.00001344   0.00000000           -0.00       -1.98        0.00
   0.00000000   0.00000000  -0.00001707            0.00        0.00       -2.51


     BFGS Geometry Optimization
     Energy error            =      0.0E+00 Ry
     Gradient error          =      1.1E-02 Ry/Bohr

     number of scf cycles    =   1
     number of bfgs steps    =   0

     energy             new  =  -18126.6501889266 Ry

     new trust radius        =       0.0106723954 bohr
     new conv_thr            =       0.0000000078 Ry


ATOMIC_POSITIONS (crystal)
Bi               0.0000000000       -0.0000306324        0.3549506190
Bi               0.0000000000       -0.0001985048        0.6451159248
Bi               0.2501985831        0.2500000783        0.8548840223
Bi               0.2500307107        0.2500000783        0.1450494184
Bi               0.0000000000        0.5000306597        0.3549506190
Bi               0.0000000000        0.5001985321        0.6451159248
Bi               0.5000000273       -0.0007302336        0.3548908939
Bi               0.5000000273       -0.0001126450        0.6450792081
Bi               0.2501127233        0.7499999763        0.8549207390
Bi               0.2507303119        0.7499999763        0.1451091435
Bi               0.7498014715        0.2500000783        0.8548840223
Bi               0.7499693439        0.2500000783        0.1450494184
Bi               0.5000000273        0.5007302609        0.3548908939
Bi               0.5000000273        0.5001126723        0.6450792081
Bi               0.7498873313        0.7499999763        0.8549207390
Bi               0.7492697427        0.7499999763        0.1451091435
Se               0.0000000000       -0.0001915966        0.0002389448
Se               0.2501916749        0.2500000783        0.4997610926
Se               0.0000000000        0.5001916239        0.0002389448
Se               0.5000000273       -0.0000359486       -0.0000073281
Se               0.2500360269        0.7499999763        0.5000073655
Se               0.7498083797        0.2500000783        0.4997610926
Se               0.5000000273        0.5000359759       -0.0000073281
Se               0.7499640277        0.7499999763        0.5000073655
O                0.0000000000        0.2500000783        0.2499999774
O                0.0000000000        0.7499999763        0.7499858067
O                0.0000000000        0.7499999763        0.2497677204
O                0.0000000000        0.2500000783        0.7500000148
O                0.7501900901        0.0001901138        0.2499999774
O                0.2499260149        0.0000740634        0.7500000148
O                0.2498099645        0.0001901138        0.2499999774
O                0.7500740397        0.0000740634        0.7500000148
O                0.2499260149        0.4999259639        0.7500000148
O                0.2498099645        0.4998099135        0.2499999774
O                0.5000000273        0.2500000783        0.2502322344
O                0.5000000273        0.2500000783        0.7500142229
O                0.5000000273        0.7499999763        0.7500000148
O                0.7500740397        0.4999259639        0.7500000148
O                0.7501900901        0.4998099135        0.2499999774



     Writing config-only to output data dir ./out/voxy.save/ :
     XML data file
     NEW-OLD atomic charge density approx. for the potential

     total cpu time spent up to now is      678.7 secs

     Self-consistent Calculation

     iteration #  1     ecut=    50.00 Ry     beta= 0.40
     Davidson diagonalization with overlap
     ethr =  1.00E-06,  avg # of iterations =  5.1

     Threshold (ethr) on eigenvalues was too large:
     Diagonalizing with lowered threshold

     Davidson diagonalization with overlap
     ethr =  2.39E-08,  avg # of iterations =  4.5

     total cpu time spent up to now is      757.4 secs

     total energy              =  -18126.65098149 Ry
     estimated scf accuracy    <       0.00011079 Ry

     iteration #  2     ecut=    50.00 Ry     beta= 0.40
     Davidson diagonalization with overlap
     ethr =  2.42E-08,  avg # of iterations =  3.2

     total cpu time spent up to now is      785.4 secs

     total energy              =  -18126.65095086 Ry
     estimated scf accuracy    <       0.00030357 Ry

     iteration #  3     ecut=    50.00 Ry     beta= 0.40
     Davidson diagonalization with overlap
     ethr =  2.42E-08,  avg # of iterations =  2.0

     total cpu time spent up to now is      809.5 secs

     total energy              =  -18126.65094863 Ry
     estimated scf accuracy    <       0.00002720 Ry

     iteration #  4     ecut=    50.00 Ry     beta= 0.40
     Davidson diagonalization with overlap
     ethr =  5.94E-09,  avg # of iterations =  2.0

     total cpu time spent up to now is      833.4 secs

     total energy              =  -18126.65091808 Ry
     estimated scf accuracy    <       0.00000334 Ry

     iteration #  5     ecut=    50.00 Ry     beta= 0.40
     Davidson diagonalization with overlap
     ethr =  7.30E-10,  avg # of iterations =  4.1

     total cpu time spent up to now is      865.0 secs

     total energy              =  -18126.65090864 Ry
     estimated scf accuracy    <       0.00000065 Ry

     iteration #  6     ecut=    50.00 Ry     beta= 0.40
     Davidson diagonalization with overlap
     ethr =  1.42E-10,  avg # of iterations =  4.0

     total cpu time spent up to now is      898.1 secs

     total energy              =  -18126.65090656 Ry
     estimated scf accuracy    <       0.00000013 Ry

     iteration #  7     ecut=    50.00 Ry     beta= 0.40
     Davidson diagonalization with overlap
     ethr =  2.81E-11,  avg # of iterations =  4.0

     total cpu time spent up to now is      931.5 secs

     total energy              =  -18126.65090600 Ry
     estimated scf accuracy    <       0.00000004 Ry

     iteration #  8     ecut=    50.00 Ry     beta= 0.40
     Davidson diagonalization with overlap
     ethr =  8.07E-12,  avg # of iterations =  3.2

     total cpu time spent up to now is      963.1 secs

     total energy              =  -18126.65090592 Ry
     estimated scf accuracy    <          9.0E-09 Ry

     iteration #  9     ecut=    50.00 Ry     beta= 0.40
     Davidson diagonalization with overlap
     ethr =  1.96E-12,  avg # of iterations =  3.9

     total cpu time spent up to now is      996.4 secs

     End of self-consistent calculation

          k = 0.0000 0.0000 0.0000 ( 29231 PWs)   bands (ev):

   -35.4191 -35.4191 -35.4191 -35.4190 -35.4180 -35.4179 -35.4179 -35.4178
   -35.4067 -35.4067 -35.4066 -35.4066 -35.4059 -35.4058 -35.4057 -35.4056
   -35.4012 -35.4012 -35.4012 -35.4011 -35.3411 -35.3411 -35.3411 -35.3410
   -35.3395 -35.3394 -35.3393 -35.3393 -35.3346 -35.3345 -35.3344 -35.3344
   -35.3324 -35.3324 -35.3323 -35.3322 -35.3300 -35.3300 -35.3299 -35.3299
   -12.0006 -11.9990 -11.9952 -11.9799 -11.9752 -11.9581 -11.9329 -11.9329
   -11.9300 -11.9279 -11.9125 -11.9125 -11.9067 -11.8150 -11.7997 -11.7997
   -11.7977 -11.7935 -11.7935 -11.7930 -11.7872 -11.7767 -11.7767 -11.7754
   -11.7753 -11.7748 -11.7715 -11.7715 -11.7705 -11.7689 -11.7689 -11.7569
   -11.7565 -11.7565 -11.7529 -11.7516 -11.7514 -11.7514 -11.7514 -11.7401
   -11.7363 -11.7363 -11.7345 -11.7301 -11.7301 -11.7262 -11.7250 -11.7236
   -11.7235 -11.7214 -11.7214 -11.7167 -11.7167 -11.7129 -11.7106 -11.7088
   -11.7078 -11.7044 -11.7044 -11.7025 -11.7017 -11.7016 -11.6993 -11.6966
   -11.6966 -11.6949 -11.6898 -11.6898 -11.6898 -11.6894 -11.6851 -11.6851
   -11.6846 -11.6802 -11.6735 -11.6696 -11.6696 -11.6648 -11.6615 -11.6615
    -8.5892  -8.4189  -7.1559  -7.1559  -7.1491  -7.1433  -7.1372  -7.1372
    -7.1261  -6.8913  -6.7989  -6.7714  -6.7669  -6.1131  -5.9309  -2.1279
    -1.5524  -0.6343  -0.6298  -0.6298  -0.6215  -0.2537  -0.2537  -0.0442
    -0.0442   0.0513   0.0582   0.2245   0.2245   0.4149   0.4220   0.4221
     0.8586   1.1256   1.1257   1.1257   1.4439   2.3823   3.1954   5.3516
     5.3931   5.3931   5.4536   5.5749   5.5749   5.6496   5.9313   5.9332
     5.9563   5.9563   6.0568   6.1131   6.1307   6.1307   6.3134   6.3134
     6.3575   6.7917   6.7941   6.8249   6.8249   6.8362   6.8379   6.9306
     6.9404   6.9404   7.2517   7.2517   7.3832   7.4510   7.4776   7.6881
     7.6881   8.1322   8.3227   8.4102   8.4102   8.4450   8.4680   8.4680
     8.4819   8.7991   8.9015   8.9015   8.9416   9.0745   9.2167   9.2167
     9.5098   9.7455   9.7705   9.7705   9.7846   9.8406   9.8406  10.0019
    10.0019  10.1774  10.2482  10.2482  10.5413  10.5413  10.5817  10.6195
    10.7645  10.8510  10.8511  10.8595  10.8596  11.5688  11.8004  12.0242
    12.8056  12.9343  13.1760  13.1760  13.6398  13.6398  13.9295  14.0102
    14.0102  14.1301  14.3451  14.3451  14.4890  14.4893  14.5722  14.6184
    14.7683  14.7683  14.9979  15.0760  15.0990  15.3411  15.3412  15.4421
    15.5982  15.6430  15.7510  15.7510  15.7938  15.7938  15.8029  15.8050
    15.9177  15.9668  15.9668  16.0065  16.2315  16.2315  16.3212  16.6694
    17.0318  17.1431  17.1432

          k = 0.0000 0.0000 0.1065 ( 29155 PWs)   bands (ev):

   -35.4191 -35.4190 -35.4190 -35.4189 -35.4179 -35.4178 -35.4178 -35.4177
   -35.4067 -35.4066 -35.4065 -35.4064 -35.4057 -35.4057 -35.4056 -35.4056
   -35.4013 -35.4012 -35.4011 -35.4009 -35.3411 -35.3410 -35.3410 -35.3409
   -35.3393 -35.3393 -35.3393 -35.3392 -35.3344 -35.3344 -35.3344 -35.3343
   -35.3323 -35.3322 -35.3322 -35.3322 -35.3300 -35.3299 -35.3299 -35.3296
   -12.0005 -11.9979 -11.9945 -11.9801 -11.9764 -11.9586 -11.9327 -11.9327
   -11.9300 -11.9276 -11.9127 -11.9127 -11.9069 -11.8139 -11.7990 -11.7990
   -11.7981 -11.7928 -11.7928 -11.7926 -11.7870 -11.7780 -11.7763 -11.7763
   -11.7753 -11.7746 -11.7726 -11.7726 -11.7711 -11.7689 -11.7689 -11.7578
   -11.7578 -11.7573 -11.7537 -11.7524 -11.7524 -11.7516 -11.7492 -11.7428
   -11.7363 -11.7363 -11.7321 -11.7290 -11.7290 -11.7256 -11.7249 -11.7223
   -11.7213 -11.7206 -11.7206 -11.7158 -11.7158 -11.7125 -11.7106 -11.7087
   -11.7082 -11.7041 -11.7041 -11.7027 -11.7016 -11.7015 -11.6999 -11.6968
   -11.6968 -11.6948 -11.6903 -11.6903 -11.6902 -11.6896 -11.6851 -11.6851
   -11.6851 -11.6803 -11.6740 -11.6698 -11.6698 -11.6648 -11.6616 -11.6616
    -8.5890  -8.4191  -7.1552  -7.1552  -7.1486  -7.1433  -7.1379  -7.1379
    -7.1267  -6.8913  -6.7987  -6.7716  -6.7669  -6.1131  -5.9309  -2.0994
    -1.6079  -0.6343  -0.6288  -0.6287  -0.6205  -0.2459  -0.2459  -0.0602
    -0.0602   0.0427   0.1528   0.2324   0.2324   0.4146   0.4198   0.4199
     0.8571   1.1183   1.1277   1.1277   1.3289   2.4753   3.1662   5.3790
     5.3960   5.3960   5.4753   5.5689   5.5689   5.6190   5.8713   5.8807
     5.9351   5.9351   6.0765   6.1429   6.1429   6.1662   6.3402   6.3403
     6.3781   6.7926   6.7949   6.8247   6.8247   6.8355   6.8370   6.8794
     6.8874   6.8874   7.2774   7.2775   7.3866   7.5253   7.5546   7.7092
     7.7092   8.1322   8.3213   8.4197   8.4197   8.4643   8.4736   8.4736
     8.5140   8.7216   8.8219   8.9013   8.9013   9.0126   9.2167   9.2167
     9.5070   9.7329   9.7590   9.7591   9.7992   9.8631   9.8631   9.9762
     9.9762  10.1833  10.2168  10.2168  10.5402  10.5403  10.5807  10.6205
    10.7997  10.8512  10.8515  10.8598  10.8599  11.6779  11.9546  11.9849
    12.7642  12.9934  13.1975  13.1975  13.6284  13.6285  13.7639  14.0829
    14.0829  14.1273  14.1349  14.3593  14.3593  14.4851  14.4857  14.7506
    14.7621  14.7621  14.9302  15.1723  15.3050  15.3050  15.3224  15.5053
    15.5053  15.5274  15.5580  15.6845  15.7669  15.7669  15.8088  15.8110
    15.9769  16.0071  16.1863  16.1864  16.2944  16.2944  16.3424  16.6419
    16.9769  17.1225  17.1225

          k = 0.0000 0.0000 0.2129 ( 29220 PWs)   bands (ev):

   -35.4192 -35.4192 -35.4191 -35.4190 -35.4180 -35.4180 -35.4179 -35.4178
   -35.4067 -35.4066 -35.4066 -35.4065 -35.4058 -35.4057 -35.4057 -35.4056
   -35.4012 -35.4011 -35.4011 -35.4010 -35.3412 -35.3412 -35.3411 -35.3411
   -35.3395 -35.3395 -35.3394 -35.3393 -35.3345 -35.3345 -35.3344 -35.3343
   -35.3324 -35.3323 -35.3323 -35.3322 -35.3300 -35.3298 -35.3298 -35.3298
   -12.0004 -11.9954 -11.9931 -11.9807 -11.9794 -11.9599 -11.9325 -11.9325
   -11.9302 -11.9271 -11.9131 -11.9131 -11.9073 -11.8106 -11.8001 -11.7975
   -11.7975 -11.7916 -11.7914 -11.7914 -11.7864 -11.7823 -11.7763 -11.7763
   -11.7752 -11.7745 -11.7745 -11.7741 -11.7722 -11.7689 -11.7689 -11.7605
   -11.7605 -11.7580 -11.7552 -11.7542 -11.7542 -11.7520 -11.7473 -11.7449
   -11.7365 -11.7365 -11.7289 -11.7269 -11.7269 -11.7248 -11.7236 -11.7195
   -11.7191 -11.7191 -11.7169 -11.7140 -11.7140 -11.7136 -11.7107 -11.7100
   -11.7070 -11.7037 -11.7037 -11.7033 -11.7020 -11.7014 -11.7013 -11.6974
   -11.6974 -11.6946 -11.6914 -11.6914 -11.6911 -11.6900 -11.6864 -11.6852
   -11.6852 -11.6805 -11.6752 -11.6701 -11.6701 -11.6649 -11.6618 -11.6618
    -8.5887  -8.4195  -7.1537  -7.1537  -7.1474  -7.1431  -7.1395  -7.1395
    -7.1280  -6.8913  -6.7983  -6.7720  -6.7670  -6.1131  -5.9309  -2.0172
    -1.7390  -0.6343  -0.6266  -0.6266  -0.6187  -0.2262  -0.2262  -0.0945
    -0.0945   0.0439   0.2461   0.2461   0.3483   0.4156   0.4156   0.4375
     0.8505   1.0068   1.1317   1.1317   1.1749   2.6538   3.0868   5.4022
     5.4022   5.4589   5.5232   5.5567   5.5567   5.5847   5.7335   5.7924
     5.9043   5.9043   6.0314   6.1413   6.1413   6.3042   6.4383   6.4383
     6.4806   6.7482   6.7572   6.7572   6.7943   6.7964   6.8255   6.8255
     6.8340   6.8351   7.2744   7.3253   7.3254   7.7495   7.7495   7.7738
     7.8190   8.1322   8.3033   8.4345   8.4345   8.4887   8.4896   8.4896
     8.5119   8.5273   8.6055   8.8898   8.9011   8.9011   9.2167   9.2167
     9.5085   9.7124   9.7364   9.7365   9.8591   9.9098   9.9098   9.9398
     9.9398  10.1184  10.1353  10.1353  10.5388  10.5388  10.5980  10.6203
    10.8518  10.8521  10.8604  10.8604  10.9113  11.7995  12.0326  12.3539
    12.6385  13.1026  13.2476  13.2476  13.4811  13.5018  13.5958  13.5958
    14.2503  14.2841  14.2841  14.3917  14.3917  14.4774  14.4783  14.7432
    14.7433  14.7885  14.9306  15.0334  15.0334  15.0428  15.3633  15.3816
    15.3816  15.5202  15.7078  15.7840  15.7841  15.8207  15.8226  15.9829
    16.1032  16.1747  16.2142  16.2142  16.4034  16.5673  16.5724  16.5724
    16.7765  17.0485  17.0500

          k = 0.0000 0.0000-0.3194 ( 29204 PWs)   bands (ev):

   -35.4191 -35.4191 -35.4191 -35.4190 -35.4180 -35.4179 -35.4178 -35.4177
   -35.4067 -35.4066 -35.4066 -35.4065 -35.4058 -35.4057 -35.4056 -35.4055
   -35.4013 -35.4011 -35.4011 -35.4010 -35.3411 -35.3411 -35.3411 -35.3411
   -35.3394 -35.3394 -35.3393 -35.3393 -35.3345 -35.3344 -35.3343 -35.3342
   -35.3323 -35.3322 -35.3322 -35.3321 -35.3300 -35.3299 -35.3299 -35.3298
   -12.0004 -11.9937 -11.9923 -11.9813 -11.9811 -11.9605 -11.9323 -11.9323
   -11.9303 -11.9269 -11.9134 -11.9134 -11.9076 -11.8075 -11.8029 -11.7968
   -11.7967 -11.7912 -11.7905 -11.7905 -11.7853 -11.7848 -11.7773 -11.7773
   -11.7752 -11.7745 -11.7745 -11.7738 -11.7726 -11.7690 -11.7690 -11.7618
   -11.7618 -11.7583 -11.7563 -11.7551 -11.7551 -11.7523 -11.7462 -11.7461
   -11.7366 -11.7366 -11.7265 -11.7259 -11.7259 -11.7247 -11.7225 -11.7184
   -11.7184 -11.7177 -11.7154 -11.7136 -11.7130 -11.7130 -11.7114 -11.7107
   -11.7059 -11.7038 -11.7035 -11.7034 -11.7034 -11.7012 -11.7012 -11.6977
   -11.6977 -11.6945 -11.6921 -11.6921 -11.6915 -11.6900 -11.6872 -11.6852
   -11.6852 -11.6805 -11.6759 -11.6703 -11.6703 -11.6649 -11.6619 -11.6619
    -8.5885  -8.4197  -7.1527  -7.1527  -7.1468  -7.1430  -7.1405  -7.1405
    -7.1287  -6.8913  -6.7981  -6.7722  -6.7670  -6.1131  -5.9309  -1.9091
    -1.8695  -0.6344  -0.6256  -0.6255  -0.6177  -0.2121  -0.2121  -0.1152
    -0.1152   0.0449   0.2522   0.2522   0.3899   0.4136   0.4137   0.6320
     0.7434   0.8730   1.1337   1.1337   1.1591   2.7619   3.0195   5.4056
     5.4056   5.5294   5.5504   5.5504   5.5801   5.5863   5.6140   5.7307
     5.8918   5.8918   5.9968   6.1348   6.1348   6.4084   6.5557   6.5557
     6.5800   6.6168   6.6296   6.6296   6.7953   6.7972   6.8253   6.8253
     6.8332   6.8340   7.2037   7.3477   7.3478   7.7692   7.7692   8.0381
     8.1323   8.1548   8.1639   8.1684   8.3858   8.4396   8.4396   8.5001
     8.5001   8.5225   8.6863   8.7931   8.9009   8.9009   9.2167   9.2167
     9.5119   9.7014   9.7252   9.7252   9.8901   9.8902   9.9468  10.0078
    10.0079  10.0171  10.0504  10.0505  10.5383  10.5383  10.6120  10.6163
    10.8520  10.8524  10.8606  10.8607  10.9944  11.7368  12.3084  12.4239
    12.8840  12.9028  13.1764  13.2783  13.2783  13.3365  13.5730  13.5730
    14.3862  14.3862  14.3917  14.4736  14.4746  14.5629  14.5630  14.6241
    14.6242  14.7238  14.8336  14.8336  14.8665  14.9530  15.3683  15.3684
    15.4880  15.4895  15.7100  15.7918  15.7918  15.8266  15.8285  15.9776
    16.2203  16.2203  16.3864  16.4682  16.5047  16.5338  16.6238  16.6277
    16.7356  16.7356  16.9671

          k = 0.0000 0.1667 0.0000 ( 29199 PWs)   bands (ev):

   -35.4191 -35.4191 -35.4190 -35.4189 -35.4180 -35.4179 -35.4178 -35.4178
   -35.4067 -35.4067 -35.4066 -35.4065 -35.4058 -35.4058 -35.4057 -35.4056
   -35.4013 -35.4012 -35.4011 -35.4010 -35.3411 -35.3411 -35.3410 -35.3410
   -35.3394 -35.3394 -35.3393 -35.3393 -35.3345 -35.3345 -35.3344 -35.3343
   -35.3324 -35.3323 -35.3322 -35.3322 -35.3300 -35.3300 -35.3299 -35.3298
   -11.9980 -11.9944 -11.9909 -11.9772 -11.9708 -11.9587 -11.9525 -11.9370
   -11.9345 -11.9254 -11.9162 -11.9000 -11.8840 -11.8144 -11.8024 -11.7978
   -11.7955 -11.7929 -11.7920 -11.7898 -11.7850 -11.7795 -11.7770 -11.7748
   -11.7747 -11.7725 -11.7710 -11.7693 -11.7686 -11.7673 -11.7667 -11.7595
   -11.7572 -11.7556 -11.7549 -11.7501 -11.7500 -11.7485 -11.7480 -11.7422
   -11.7382 -11.7362 -11.7341 -11.7322 -11.7317 -11.7294 -11.7277 -11.7254
   -11.7246 -11.7228 -11.7202 -11.7185 -11.7143 -11.7129 -11.7126 -11.7095
   -11.7077 -11.7061 -11.7057 -11.7055 -11.7038 -11.7029 -11.7006 -11.6998
   -11.6962 -11.6954 -11.6939 -11.6902 -11.6902 -11.6897 -11.6878 -11.6864
   -11.6849 -11.6805 -11.6747 -11.6715 -11.6697 -11.6654 -11.6644 -11.6620
    -8.5378  -8.3764  -7.5034  -7.4293  -7.1338  -7.1147  -7.1134  -6.9879
    -6.8248  -6.7983  -6.7977  -6.7900  -6.7845  -6.1346  -5.9628  -2.0742
    -1.5097  -0.8983  -0.7155  -0.6027  -0.6003  -0.2643  -0.2541  -0.0469
    -0.0323   0.0660   0.1128   0.2718   0.3167   0.4039   0.4129   0.6638
     0.7998   0.9691   1.0755   1.3452   1.4585   2.3579   3.0534   5.2789
     5.3587   5.4085   5.4365   5.4389   5.5974   5.6587   5.7985   5.8004
     5.8184   5.8382   5.9463   5.9531   6.1555   6.2326   6.2511   6.4076
     6.4389   6.5504   6.6972   6.8650   6.9160   7.0401   7.0522   7.1259
     7.1914   7.2202   7.3304   7.4217   7.5144   7.6051   7.6421   7.7145
     7.8049   7.9418   8.2095   8.2742   8.3646   8.4098   8.4360   8.4438
     8.5973   8.8093   8.8450   8.8835   8.9764   9.0850   9.1173   9.1233
     9.5026   9.5706   9.7394   9.7532   9.8152   9.8369   9.8561   9.8815
     9.9001  10.1601  10.2567  10.2791  10.3531  10.3995  10.4197  10.5633
    10.5943  10.6083  10.7277  10.8322  11.0045  11.9329  12.1261  12.2821
    12.8041  13.0146  13.0416  13.3393  13.6198  13.7266  13.7747  13.9941
    14.0540  14.2756  14.3262  14.4388  14.4593  14.5108  14.6317  14.6750
    14.9077  14.9413  15.0601  15.0717  15.1072  15.1385  15.1871  15.3240
    15.4137  15.4660  15.5044  15.5320  15.6701  15.7598  15.8255  15.8696
    16.0035  16.0610  16.0688  16.0816  16.2407  16.3785  16.4437  16.8552
    16.9904  17.0277  17.1133

          k = 0.0000 0.1667 0.1065 ( 29197 PWs)   bands (ev):

   -35.4191 -35.4191 -35.4190 -35.4189 -35.4180 -35.4179 -35.4178 -35.4178
   -35.4067 -35.4067 -35.4066 -35.4065 -35.4057 -35.4057 -35.4057 -35.4056
   -35.4013 -35.4011 -35.4011 -35.4010 -35.3411 -35.3411 -35.3410 -35.3410
   -35.3394 -35.3393 -35.3393 -35.3393 -35.3345 -35.3344 -35.3344 -35.3344
   -35.3324 -35.3323 -35.3323 -35.3322 -35.3301 -35.3299 -35.3299 -35.3297
   -11.9979 -11.9934 -11.9903 -11.9774 -11.9721 -11.9591 -11.9527 -11.9367
   -11.9345 -11.9259 -11.9165 -11.8990 -11.8849 -11.8132 -11.8016 -11.7972
   -11.7960 -11.7923 -11.7917 -11.7894 -11.7850 -11.7792 -11.7781 -11.7756
   -11.7745 -11.7723 -11.7718 -11.7711 -11.7690 -11.7676 -11.7661 -11.7604
   -11.7576 -11.7560 -11.7557 -11.7509 -11.7505 -11.7490 -11.7476 -11.7444
   -11.7367 -11.7363 -11.7324 -11.7315 -11.7311 -11.7277 -11.7272 -11.7248
   -11.7234 -11.7211 -11.7195 -11.7180 -11.7139 -11.7129 -11.7124 -11.7091
   -11.7084 -11.7061 -11.7057 -11.7052 -11.7036 -11.7030 -11.7007 -11.7005
   -11.6963 -11.6954 -11.6942 -11.6908 -11.6905 -11.6901 -11.6878 -11.6866
   -11.6853 -11.6806 -11.6752 -11.6717 -11.6699 -11.6654 -11.6646 -11.6621
    -8.5376  -8.3766  -7.5032  -7.4295  -7.1332  -7.1154  -7.1134  -6.9879
    -6.8246  -6.7985  -6.7972  -6.7902  -6.7848  -6.1346  -5.9628  -2.0461
    -1.5637  -0.8866  -0.7279  -0.6017  -0.6000  -0.2589  -0.2494  -0.0604
    -0.0421   0.0917   0.1740   0.2759   0.3203   0.4092   0.4120   0.6100
     0.8355   1.0031   1.0769   1.2490   1.4291   2.4308   3.0277   5.2926
     5.3680   5.4067   5.4355   5.4416   5.5799   5.6528   5.7087   5.7519
     5.7969   5.8755   5.9628   6.0239   6.1088   6.2952   6.3031   6.4393
     6.4586   6.5776   6.6957   6.8277   6.8318   6.9776   7.0990   7.1343
     7.1908   7.2200   7.3121   7.3953   7.4585   7.6785   7.6919   7.7708
     7.8609   7.9410   8.2185   8.3040   8.3691   8.4220   8.4384   8.4473
     8.5855   8.7427   8.7880   8.8590   8.9006   8.9852   9.1321   9.1385
     9.4732   9.6556   9.7317   9.7549   9.8088   9.8629   9.8775   9.8972
     9.9205  10.1158  10.2363  10.2721  10.3540  10.4103  10.4295  10.5567
    10.5861  10.6050  10.7347  10.8255  11.0460  12.0024  12.2285  12.2494
    12.8080  13.0249  13.0693  13.3523  13.6170  13.7374  13.7550  13.8937
    14.0826  14.1858  14.2281  14.3274  14.4448  14.4578  14.6355  14.6565
    14.7969  14.9361  15.0319  15.0568  15.1320  15.2083  15.3739  15.4216
    15.4454  15.5207  15.5311  15.5376  15.6391  15.7345  15.8101  15.8914
    16.0130  16.0548  16.0782  16.2329  16.2351  16.3903  16.4408  16.8376
    16.9687  16.9723  17.0985

          k = 0.0000 0.1667 0.2129 ( 29192 PWs)   bands (ev):

   -35.4191 -35.4191 -35.4190 -35.4189 -35.4179 -35.4179 -35.4179 -35.4178
   -35.4067 -35.4066 -35.4066 -35.4065 -35.4057 -35.4057 -35.4057 -35.4056
   -35.4013 -35.4011 -35.4011 -35.4010 -35.3411 -35.3411 -35.3411 -35.3410
   -35.3394 -35.3394 -35.3393 -35.3392 -35.3344 -35.3344 -35.3344 -35.3344
   -35.3323 -35.3323 -35.3322 -35.3322 -35.3300 -35.3299 -35.3298 -35.3298
   -11.9979 -11.9910 -11.9888 -11.9780 -11.9750 -11.9599 -11.9529 -11.9361
   -11.9344 -11.9267 -11.9172 -11.8966 -11.8871 -11.8100 -11.8005 -11.7973
   -11.7959 -11.7910 -11.7909 -11.7884 -11.7850 -11.7813 -11.7786 -11.7751
   -11.7746 -11.7738 -11.7735 -11.7719 -11.7706 -11.7676 -11.7659 -11.7621
   -11.7588 -11.7571 -11.7568 -11.7534 -11.7526 -11.7498 -11.7478 -11.7451
   -11.7364 -11.7351 -11.7306 -11.7296 -11.7284 -11.7260 -11.7250 -11.7238
   -11.7208 -11.7183 -11.7181 -11.7164 -11.7136 -11.7133 -11.7118 -11.7101
   -11.7080 -11.7062 -11.7056 -11.7047 -11.7036 -11.7027 -11.7022 -11.7006
   -11.6967 -11.6954 -11.6949 -11.6919 -11.6910 -11.6909 -11.6877 -11.6871
   -11.6861 -11.6807 -11.6763 -11.6720 -11.6702 -11.6656 -11.6648 -11.6623
    -8.5373  -8.3770  -7.5027  -7.4300  -7.1317  -7.1169  -7.1133  -6.9880
    -6.8241  -6.7989  -6.7958  -6.7907  -6.7857  -6.1346  -5.9628  -1.9652
    -1.6918  -0.8550  -0.7606  -0.5999  -0.5994  -0.2459  -0.2388  -0.0872
    -0.0622   0.1047   0.2831   0.3155   0.3802   0.4106   0.4293   0.5423
     0.8507   0.9889   1.0796   1.1366   1.3558   2.5765   2.9588   5.3266
     5.3809   5.4060   5.4380   5.4477   5.5473   5.6321   5.6586   5.6655
     5.7594   5.8117   5.9644   6.1684   6.1862   6.3523   6.3814   6.4397
     6.5333   6.6410   6.6503   6.7185   6.7600   6.8648   7.1171   7.1464
     7.1874   7.2198   7.3056   7.3904   7.3944   7.7405   7.7474   7.9287
     7.9432   8.0184   8.2188   8.3773   8.3950   8.4347   8.4440   8.4861
     8.5004   8.5464   8.6028   8.7850   8.8665   8.8774   9.1409   9.1476
     9.4602   9.7168   9.7169   9.7724   9.8246   9.8951   9.9031   9.9617
     9.9741  10.0241  10.1671  10.2215  10.3692  10.4356  10.4538  10.5371
    10.5668  10.5962  10.7537  10.8070  11.1471  12.0929  12.2601  12.5176
    12.7425  13.1102  13.1182  13.3720  13.5598  13.5714  13.6888  13.8038
    13.8289  14.1476  14.2115  14.3343  14.3669  14.4798  14.5369  14.6109
    14.7463  14.9365  14.9934  15.0763  15.2133  15.2344  15.2733  15.4235
    15.4930  15.5537  15.6024  15.6084  15.7438  15.7775  15.9378  15.9756
    15.9998  16.0595  16.1575  16.2848  16.4201  16.4435  16.4915  16.7236
    16.8828  16.8964  16.9821

          k = 0.0000 0.1667-0.3194 ( 29188 PWs)   bands (ev):

   -35.4191 -35.4191 -35.4191 -35.4189 -35.4179 -35.4179 -35.4179 -35.4177
   -35.4067 -35.4066 -35.4065 -35.4065 -35.4057 -35.4057 -35.4057 -35.4056
   -35.4012 -35.4011 -35.4011 -35.4010 -35.3411 -35.3411 -35.3411 -35.3410
   -35.3394 -35.3394 -35.3393 -35.3393 -35.3344 -35.3344 -35.3344 -35.3343
   -35.3323 -35.3322 -35.3322 -35.3322 -35.3299 -35.3299 -35.3298 -35.3298
   -11.9979 -11.9893 -11.9880 -11.9783 -11.9768 -11.9604 -11.9530 -11.9359
   -11.9344 -11.9272 -11.9176 -11.8949 -11.8887 -11.8071 -11.8022 -11.7971
   -11.7952 -11.7906 -11.7901 -11.7879 -11.7851 -11.7825 -11.7785 -11.7756
   -11.7753 -11.7744 -11.7736 -11.7717 -11.7714 -11.7676 -11.7660 -11.7628
   -11.7595 -11.7577 -11.7572 -11.7549 -11.7533 -11.7502 -11.7484 -11.7450
   -11.7365 -11.7346 -11.7291 -11.7291 -11.7267 -11.7253 -11.7234 -11.7232
   -11.7194 -11.7176 -11.7173 -11.7160 -11.7132 -11.7128 -11.7119 -11.7112
   -11.7072 -11.7062 -11.7058 -11.7046 -11.7038 -11.7036 -11.7022 -11.7005
   -11.6970 -11.6954 -11.6951 -11.6925 -11.6915 -11.6911 -11.6877 -11.6876
   -11.6864 -11.6808 -11.6769 -11.6722 -11.6704 -11.6656 -11.6650 -11.6625
    -8.5371  -8.3773  -7.5025  -7.4303  -7.1308  -7.1178  -7.1132  -6.9881
    -6.8239  -6.7992  -6.7949  -6.7912  -6.7861  -6.1346  -5.9628  -1.8592
    -1.8195  -0.8225  -0.7938  -0.5991  -0.5990  -0.2378  -0.2327  -0.1013
    -0.0728   0.1088   0.2862   0.3231   0.4101   0.4287   0.4937   0.6232
     0.7342   0.8896   1.0810   1.2319   1.2650   2.6654   2.9025   5.3496
     5.3789   5.4117   5.4437   5.4515   5.5320   5.6090   5.6275   5.6444
     5.7496   5.7849   5.9441   6.2621   6.2644   6.3713   6.4163   6.4398
     6.5585   6.5676   6.6690   6.7002   6.7102   6.8282   7.0902   7.1666
     7.1814   7.2198   7.3079   7.3735   7.4018   7.7658   7.7702   7.9386
     8.0675   8.1781   8.1960   8.3377   8.3683   8.3812   8.4353   8.4493
     8.4899   8.5088   8.5983   8.6532   8.8551   8.8749   9.1434   9.1496
     9.4592   9.7094   9.7183   9.7615   9.8998   9.9011   9.9032   9.9380
    10.0416  10.0633  10.0908  10.1407  10.3813  10.4493  10.4776  10.5162
    10.5550  10.5906  10.7746  10.7864  11.2099  12.0504  12.4251  12.6138
    12.8717  12.9766  13.2470  13.3070  13.3377  13.4886  13.6484  13.7415
    14.0209  14.0728  14.1334  14.1806  14.4709  14.5445  14.5819  14.6262
    14.6620  14.7347  15.0477  15.1686  15.1775  15.2849  15.3160  15.3895
    15.4495  15.5433  15.5841  15.6651  15.7634  15.7961  15.8478  15.9660
    16.0293  16.2853  16.3223  16.4450  16.4497  16.4540  16.5610  16.6402
    16.6688  16.8323  16.8778

          k = 0.0000 0.3333 0.0000 ( 29167 PWs)   bands (ev):

   -35.4192 -35.4190 -35.4190 -35.4189 -35.4179 -35.4179 -35.4178 -35.4177
   -35.4067 -35.4066 -35.4065 -35.4064 -35.4058 -35.4057 -35.4057 -35.4056
   -35.4012 -35.4012 -35.4010 -35.4009 -35.3412 -35.3411 -35.3410 -35.3409
   -35.3394 -35.3393 -35.3393 -35.3392 -35.3345 -35.3344 -35.3344 -35.3344
   -35.3323 -35.3323 -35.3322 -35.3321 -35.3300 -35.3299 -35.3298 -35.3296
   -11.9913 -11.9822 -11.9800 -11.9720 -11.9685 -11.9591 -11.9563 -11.9485
   -11.9465 -11.9351 -11.9270 -11.8656 -11.8502 -11.8131 -11.8057 -11.7946
   -11.7940 -11.7909 -11.7878 -11.7843 -11.7828 -11.7817 -11.7810 -11.7752
   -11.7744 -11.7700 -11.7685 -11.7673 -11.7645 -11.7625 -11.7605 -11.7603
   -11.7575 -11.7569 -11.7514 -11.7488 -11.7485 -11.7462 -11.7462 -11.7438
   -11.7437 -11.7419 -11.7405 -11.7382 -11.7352 -11.7323 -11.7274 -11.7266
   -11.7253 -11.7233 -11.7208 -11.7181 -11.7171 -11.7168 -11.7148 -11.7129
   -11.7126 -11.7095 -11.7088 -11.7078 -11.7066 -11.7044 -11.7025 -11.7006
   -11.7000 -11.6976 -11.6960 -11.6948 -11.6937 -11.6912 -11.6893 -11.6884
   -11.6857 -11.6810 -11.6775 -11.6758 -11.6697 -11.6695 -11.6669 -11.6627
    -8.3884  -8.2596  -7.8500  -7.7067  -7.0723  -7.0521  -7.0502  -6.9614
    -6.8938  -6.8696  -6.8658  -6.5949  -6.4778  -6.1930  -6.0614  -1.9142
    -1.3872  -1.2957  -0.9498  -0.5274  -0.5259  -0.3193  -0.3069  -0.0396
     0.0457   0.1159   0.1910   0.2935   0.3899   0.4830   0.4856   0.6490
     0.7885   0.9368   1.1573   1.3926   1.7532   2.2853   2.6613   5.1811
     5.2262   5.2864   5.4137   5.4304   5.4460   5.5749   5.5890   5.6325
     5.6741   5.7746   5.8046   5.9018   6.0935   6.1092   6.3752   6.4825
     6.5516   6.7536   6.8320   6.8639   6.9500   7.1258   7.3841   7.4679
     7.5375   7.5994   7.6145   7.6886   7.6939   7.7488   7.7744   7.8962
     7.9182   8.0609   8.1020   8.1521   8.2096   8.2299   8.3287   8.3609
     8.5464   8.6422   8.6852   8.8978   8.9687   9.0578   9.0986   9.1351
     9.5036   9.5663   9.6402   9.6901   9.7127   9.7968   9.8347   9.8522
     9.9004   9.9954  10.0217  10.0371  10.0585  10.1046  10.2013  10.2335
    10.3854  10.4585  10.4952  10.6982  11.4675  12.5540  12.7186  12.7713
    12.8958  12.9447  13.3085  13.5147  13.6744  13.7299  13.8117  13.9136
    14.0347  14.2155  14.3862  14.5570  14.5738  14.5752  14.6120  14.6795
    14.7278  14.7988  14.8190  14.8659  14.8746  14.9419  15.0888  15.1239
    15.1669  15.4028  15.4170  15.5529  15.5732  15.7147  15.8979  16.0240
    16.1318  16.1857  16.2081  16.2898  16.3269  16.4932  16.5769  16.6023
    16.8974  16.9668  16.9861

          k = 0.0000 0.3333 0.1065 ( 29197 PWs)   bands (ev):

   -35.4192 -35.4191 -35.4190 -35.4190 -35.4179 -35.4179 -35.4178 -35.4178
   -35.4067 -35.4067 -35.4066 -35.4065 -35.4058 -35.4058 -35.4057 -35.4056
   -35.4013 -35.4012 -35.4011 -35.4010 -35.3412 -35.3411 -35.3410 -35.3410
   -35.3394 -35.3394 -35.3393 -35.3393 -35.3345 -35.3344 -35.3344 -35.3343
   -35.3324 -35.3323 -35.3323 -35.3322 -35.3300 -35.3300 -35.3299 -35.3298
   -11.9912 -11.9812 -11.9793 -11.9719 -11.9685 -11.9603 -11.9570 -11.9480
   -11.9462 -11.9357 -11.9277 -11.8649 -11.8512 -11.8121 -11.8047 -11.7954
   -11.7934 -11.7905 -11.7877 -11.7848 -11.7824 -11.7823 -11.7798 -11.7751
   -11.7742 -11.7722 -11.7703 -11.7680 -11.7644 -11.7638 -11.7608 -11.7600
   -11.7574 -11.7565 -11.7514 -11.7505 -11.7494 -11.7467 -11.7459 -11.7445
   -11.7424 -11.7410 -11.7401 -11.7374 -11.7345 -11.7318 -11.7269 -11.7262
   -11.7244 -11.7221 -11.7204 -11.7181 -11.7172 -11.7163 -11.7147 -11.7131
   -11.7122 -11.7091 -11.7087 -11.7082 -11.7057 -11.7043 -11.7024 -11.7011
   -11.7003 -11.6975 -11.6959 -11.6948 -11.6941 -11.6918 -11.6894 -11.6887
   -11.6861 -11.6811 -11.6779 -11.6760 -11.6699 -11.6696 -11.6670 -11.6628
    -8.3881  -8.2598  -7.8499  -7.7069  -7.0718  -7.0526  -7.0501  -6.9615
    -6.8935  -6.8700  -6.8658  -6.5949  -6.4778  -6.1930  -6.0614  -1.8875
    -1.4359  -1.2769  -0.9782  -0.5268  -0.5258  -0.3183  -0.3064  -0.0437
     0.0441   0.1452   0.2350   0.2930   0.3957   0.4841   0.4924   0.6477
     0.7862   0.9370   1.0896   1.4149   1.7348   2.3127   2.6467   5.1658
     5.2151   5.2821   5.3734   5.4035   5.4369   5.5787   5.6158   5.6683
     5.7034   5.7544   5.8212   5.9468   6.0791   6.0937   6.4024   6.5335
     6.5757   6.7727   6.7896   6.8650   6.9523   7.1087   7.3672   7.4849
     7.5201   7.6000   7.6118   7.6550   7.6696   7.7129   7.7689   7.9120
     7.9122   8.0979   8.1397   8.1906   8.2160   8.2170   8.3505   8.3560
     8.5377   8.6136   8.6622   8.8510   8.9536   8.9979   9.0651   9.0657
     9.4379   9.6329   9.6582   9.7407   9.7572   9.8157   9.8721   9.8840
     9.9088  10.0069  10.0139  10.0611  10.0703  10.0994  10.1986  10.2815
    10.3596  10.4538  10.5076  10.6843  11.4699  12.5596  12.7270  12.7529
    12.9422  12.9551  13.3004  13.5237  13.6750  13.7013  13.7878  13.9217
    13.9794  14.2398  14.2948  14.3085  14.3342  14.5209  14.6037  14.6647
    14.7025  14.7983  14.8386  14.9217  15.0127  15.0906  15.1359  15.1609
    15.3515  15.4699  15.4800  15.5599  15.5833  15.7276  15.9015  16.0059
    16.1556  16.1777  16.2073  16.2820  16.3282  16.4463  16.5628  16.5864
    16.8425  16.9476  16.9963

          k = 0.0000 0.3333 0.2129 ( 29173 PWs)   bands (ev):

   -35.4192 -35.4190 -35.4190 -35.4189 -35.4179 -35.4179 -35.4178 -35.4177
   -35.4067 -35.4066 -35.4066 -35.4065 -35.4058 -35.4057 -35.4057 -35.4056
   -35.4012 -35.4011 -35.4011 -35.4010 -35.3412 -35.3411 -35.3410 -35.3410
   -35.3394 -35.3393 -35.3393 -35.3392 -35.3344 -35.3344 -35.3344 -35.3343
   -35.3323 -35.3323 -35.3322 -35.3322 -35.3300 -35.3299 -35.3298 -35.3298
   -11.9912 -11.9789 -11.9778 -11.9718 -11.9686 -11.9630 -11.9586 -11.9469
   -11.9455 -11.9370 -11.9291 -11.8632 -11.8534 -11.8094 -11.8023 -11.7974
   -11.7923 -11.7894 -11.7876 -11.7863 -11.7827 -11.7815 -11.7781 -11.7762
   -11.7742 -11.7741 -11.7732 -11.7698 -11.7648 -11.7641 -11.7620 -11.7603
   -11.7584 -11.7558 -11.7525 -11.7511 -11.7502 -11.7475 -11.7468 -11.7457
   -11.7412 -11.7390 -11.7387 -11.7363 -11.7332 -11.7307 -11.7261 -11.7244
   -11.7226 -11.7204 -11.7194 -11.7178 -11.7173 -11.7152 -11.7145 -11.7142
   -11.7107 -11.7098 -11.7083 -11.7071 -11.7044 -11.7043 -11.7031 -11.7013
   -11.7007 -11.6973 -11.6960 -11.6950 -11.6947 -11.6932 -11.6898 -11.6893
   -11.6869 -11.6814 -11.6787 -11.6765 -11.6704 -11.6699 -11.6671 -11.6630
    -8.3877  -8.2603  -7.8496  -7.7072  -7.0705  -7.0539  -7.0500  -6.9615
    -6.8929  -6.8706  -6.8659  -6.5949  -6.4778  -6.1930  -6.0614  -1.8108
    -1.5537  -1.2232  -1.0495  -0.5259  -0.5258  -0.3160  -0.3054  -0.0509
     0.0409   0.1608   0.2921   0.3796   0.4274   0.4862   0.5071   0.6443
     0.7709   0.9301   0.9373   1.4729   1.6811   2.3737   2.6096   5.1364
     5.1920   5.2532   5.3060   5.4148   5.4589   5.5840   5.6126   5.6666
     5.7189   5.7485   5.9092   6.0053   6.0765   6.0941   6.4353   6.6352
     6.6444   6.7047   6.7564   6.8748   6.9764   7.0984   7.3223   7.4661
     7.5182   7.5481   7.6019   7.6140   7.6481   7.6950   7.7548   7.9014
     7.9375   8.1437   8.2047   8.2077   8.2345   8.2438   8.3461   8.3923
     8.5302   8.5610   8.6133   8.7094   8.8767   8.9269   9.0166   9.0458
     9.3778   9.5900   9.6925   9.8292   9.8519   9.8839   9.9087   9.9366
     9.9376  10.0186  10.0233  10.0512  10.1213  10.1497  10.2303  10.2912
    10.3313  10.4378  10.5429  10.6466  11.4779  12.5692  12.7300  12.7458
    12.9836  13.0951  13.2891  13.5340  13.5833  13.6457  13.7318  13.8530
    13.9365  13.9952  14.0298  14.2581  14.2656  14.4831  14.5634  14.6677
    14.7065  14.8021  14.8429  14.9834  15.0199  15.1659  15.1813  15.3330
    15.4620  15.5407  15.5964  15.7045  15.7363  15.9093  15.9129  15.9581
    16.0650  16.1540  16.2570  16.2791  16.3236  16.3776  16.5223  16.5612
    16.7190  16.8399  17.0143

          k = 0.0000 0.3333-0.3194 ( 29180 PWs)   bands (ev):

   -35.4191 -35.4191 -35.4190 -35.4190 -35.4179 -35.4179 -35.4178 -35.4178
   -35.4067 -35.4066 -35.4066 -35.4065 -35.4059 -35.4057 -35.4056 -35.4056
   -35.4012 -35.4011 -35.4011 -35.4010 -35.3411 -35.3411 -35.3410 -35.3410
   -35.3394 -35.3394 -35.3393 -35.3392 -35.3345 -35.3344 -35.3344 -35.3343
   -35.3323 -35.3323 -35.3322 -35.3322 -35.3299 -35.3299 -35.3299 -35.3298
   -11.9911 -11.9774 -11.9769 -11.9718 -11.9687 -11.9647 -11.9595 -11.9462
   -11.9450 -11.9377 -11.9298 -11.8620 -11.8549 -11.8074 -11.8021 -11.7979
   -11.7917 -11.7886 -11.7883 -11.7869 -11.7828 -11.7810 -11.7773 -11.7771
   -11.7753 -11.7742 -11.7733 -11.7710 -11.7646 -11.7639 -11.7626 -11.7610
   -11.7591 -11.7556 -11.7531 -11.7519 -11.7499 -11.7478 -11.7470 -11.7462
   -11.7412 -11.7386 -11.7373 -11.7358 -11.7324 -11.7306 -11.7258 -11.7222
   -11.7216 -11.7199 -11.7190 -11.7178 -11.7174 -11.7159 -11.7143 -11.7141
   -11.7103 -11.7097 -11.7080 -11.7065 -11.7044 -11.7038 -11.7038 -11.7011
   -11.7007 -11.6972 -11.6962 -11.6956 -11.6950 -11.6937 -11.6900 -11.6896
   -11.6873 -11.6815 -11.6792 -11.6767 -11.6706 -11.6701 -11.6672 -11.6632
    -8.3875  -8.2606  -7.8494  -7.7074  -7.0699  -7.0546  -7.0499  -6.9616
    -6.8925  -6.8709  -6.8659  -6.5949  -6.4778  -6.1930  -6.0615  -1.7117
    -1.6720  -1.1600  -1.1211  -0.5259  -0.5253  -0.3148  -0.3049  -0.0542
     0.0393   0.1641   0.2916   0.4005   0.4873   0.5139   0.5953   0.6290
     0.6897   0.8419   0.9374   1.5217   1.6334   2.4114   2.5831   5.1224
     5.1806   5.2346   5.2812   5.4335   5.4887   5.5788   5.5867   5.6657
     5.7044   5.7531   5.9716   5.9960   6.0942   6.1279   6.4440   6.6303
     6.6794   6.7170   6.7376   6.8722   6.9926   7.1172   7.2919   7.4303
     7.4910   7.5361   7.6025   7.6164   7.6458   7.6885   7.7457   7.8958
     7.9468   8.1607   8.2024   8.2103   8.2445   8.2868   8.3390   8.4370
     8.5445   8.5608   8.5676   8.5924   8.8239   8.9192   9.0061   9.0447
     9.3545   9.5711   9.6960   9.8403   9.9025   9.9102   9.9390   9.9553
     9.9703   9.9864  10.0235  10.0723  10.1986  10.2081  10.2085  10.2195
    10.3596  10.4206  10.5839  10.6047  11.4837  12.5719  12.7248  12.7525
    13.0439  13.2296  13.2931  13.4418  13.4644  13.6291  13.7666  13.8206
    13.8347  13.8760  13.9537  14.2082  14.3006  14.4836  14.6023  14.7499
    14.7508  14.7670  14.7858  14.8670  15.0017  15.2084  15.2412  15.3884
    15.5020  15.6256  15.6795  15.7379  15.8006  15.9222  15.9492  15.9694
    16.1269  16.1334  16.2112  16.2492  16.3709  16.4012  16.4776  16.5507
    16.6395  16.7135  17.0072

          k = 0.0000-0.5000 0.0000 ( 29172 PWs)   bands (ev):

   -35.4193 -35.4191 -35.4190 -35.4190 -35.4179 -35.4178 -35.4178 -35.4178
   -35.4067 -35.4067 -35.4065 -35.4064 -35.4058 -35.4058 -35.4057 -35.4056
   -35.4012 -35.4012 -35.4011 -35.4009 -35.3413 -35.3412 -35.3411 -35.3410
   -35.3394 -35.3393 -35.3393 -35.3392 -35.3345 -35.3345 -35.3344 -35.3342
   -35.3324 -35.3323 -35.3322 -35.3321 -35.3300 -35.3300 -35.3298 -35.3296
   -11.9835 -11.9809 -11.9676 -11.9672 -11.9655 -11.9633 -11.9610 -11.9521
   -11.9452 -11.9412 -11.9404 -11.8449 -11.8149 -11.8124 -11.8122 -11.8072
   -11.7928 -11.7923 -11.7892 -11.7852 -11.7844 -11.7827 -11.7763 -11.7744
   -11.7733 -11.7721 -11.7714 -11.7684 -11.7646 -11.7613 -11.7587 -11.7536
   -11.7535 -11.7532 -11.7528 -11.7509 -11.7504 -11.7484 -11.7481 -11.7443
   -11.7430 -11.7417 -11.7409 -11.7374 -11.7334 -11.7318 -11.7298 -11.7269
   -11.7268 -11.7260 -11.7232 -11.7216 -11.7211 -11.7194 -11.7175 -11.7160
   -11.7150 -11.7109 -11.7081 -11.7080 -11.7064 -11.7050 -11.7022 -11.7009
   -11.6998 -11.6989 -11.6987 -11.6953 -11.6950 -11.6931 -11.6917 -11.6878
   -11.6847 -11.6816 -11.6814 -11.6780 -11.6712 -11.6689 -11.6680 -11.6629
    -8.1661  -8.1498  -8.1435  -7.8684  -6.9924  -6.9778  -6.9674  -6.9642
    -6.9614  -6.9560  -6.9530  -6.4941  -6.2416  -6.2343  -6.2308  -1.6691
    -1.6338  -1.2075  -1.1715  -0.4424  -0.4265  -0.4155  -0.3903  -0.0348
     0.1373   0.1739   0.2279   0.2484   0.3031   0.5233   0.6190   0.7035
     0.8000   0.8921   0.9173   1.7600   2.1169   2.1385   2.2197   5.1855
     5.1964   5.2222   5.2448   5.2829   5.4193   5.5892   5.6045   5.6335
     5.6406   5.7630   5.8071   5.8421   5.9046   6.1090   6.3713   6.6575
     6.6916   6.6928   6.7821   7.1649   7.2289   7.2821   7.3765   7.4284
     7.4348   7.5769   7.6646   7.8097   7.8176   7.9128   7.9418   7.9655
     7.9736   8.0071   8.1015   8.1798   8.2077   8.2220   8.3420   8.3421
     8.3934   8.4329   8.6937   9.0506   9.1758   9.2727   9.2925   9.3199
     9.3490   9.3755   9.3889   9.3959   9.5840   9.6118   9.6460   9.6531
     9.7715   9.8361   9.9794   9.9972  10.1088  10.1641  10.2341  10.2341
    10.2388  10.3266  10.5275  10.5368  11.6870  12.6652  12.7346  13.0781
    13.4357  13.4931  13.6229  13.6384  13.6513  13.6646  13.7094  13.7149
    13.8157  14.1405  14.2264  14.3301  14.3417  14.3554  14.4206  14.4473
    14.5497  14.8954  14.9508  15.0185  15.0222  15.0625  15.1032  15.1298
    15.1563  15.1574  15.4225  15.4389  15.4689  15.8496  15.9593  16.0475
    16.0987  16.1692  16.3490  16.3583  16.4206  16.6437  16.6671  16.6845
    16.7275  16.7686  16.7929

          k = 0.0000-0.5000 0.1065 ( 29170 PWs)   bands (ev):

   -35.4192 -35.4191 -35.4190 -35.4190 -35.4179 -35.4178 -35.4178 -35.4177
   -35.4067 -35.4067 -35.4065 -35.4064 -35.4057 -35.4057 -35.4056 -35.4056
   -35.4012 -35.4012 -35.4011 -35.4010 -35.3412 -35.3411 -35.3411 -35.3410
   -35.3394 -35.3393 -35.3393 -35.3392 -35.3345 -35.3344 -35.3343 -35.3343
   -35.3323 -35.3323 -35.3322 -35.3321 -35.3300 -35.3300 -35.3299 -35.3298
   -11.9834 -11.9808 -11.9676 -11.9664 -11.9651 -11.9626 -11.9606 -11.9527
   -11.9463 -11.9420 -11.9414 -11.8450 -11.8148 -11.8133 -11.8116 -11.8054
   -11.7931 -11.7918 -11.7889 -11.7860 -11.7840 -11.7831 -11.7763 -11.7746
   -11.7742 -11.7719 -11.7708 -11.7701 -11.7649 -11.7629 -11.7596 -11.7539
   -11.7533 -11.7530 -11.7522 -11.7501 -11.7497 -11.7484 -11.7479 -11.7442
   -11.7435 -11.7412 -11.7411 -11.7376 -11.7339 -11.7319 -11.7295 -11.7264
   -11.7258 -11.7257 -11.7229 -11.7215 -11.7198 -11.7190 -11.7178 -11.7157
   -11.7141 -11.7112 -11.7077 -11.7070 -11.7069 -11.7050 -11.7025 -11.7010
   -11.6999 -11.6986 -11.6983 -11.6955 -11.6951 -11.6935 -11.6925 -11.6881
   -11.6850 -11.6820 -11.6815 -11.6781 -11.6715 -11.6690 -11.6681 -11.6630
    -8.1645  -8.1497  -8.1450  -7.8685  -6.9921  -6.9772  -6.9668  -6.9645
    -6.9620  -6.9560  -6.9537  -6.4941  -6.2415  -6.2344  -6.2308  -1.6435
    -1.6118  -1.2432  -1.2176  -0.4423  -0.4269  -0.4154  -0.3902  -0.0342
     0.1375   0.1827   0.2281   0.2950   0.3412   0.5272   0.6188   0.6993
     0.7997   0.8642   0.8891   1.7600   2.1182   2.1373   2.2125   5.1469
     5.1761   5.1961   5.2081   5.2973   5.4304   5.6263   5.6432   5.6541
     5.6600   5.7681   5.8075   5.8366   5.9323   6.0998   6.3706   6.6679
     6.7038   6.7049   6.7889   7.1881   7.2367   7.2803   7.3757   7.4295
     7.4343   7.5673   7.6326   7.7589   7.7663   7.9166   7.9427   7.9478
     7.9623   8.0162   8.0992   8.1872   8.2128   8.2266   8.3460   8.3668
     8.4045   8.4483   8.6642   8.9565   9.1282   9.2326   9.2635   9.2724
     9.3038   9.3303   9.3629   9.3766   9.6482   9.7024   9.7399   9.7599
     9.8258   9.8737   9.9980  10.0114  10.1305  10.1661  10.2441  10.2520
    10.2526  10.3259  10.5081  10.5145  11.6578  12.6751  12.7238  13.0789
    13.4429  13.4873  13.5805  13.5944  13.6293  13.6529  13.6767  13.7057
    13.7928  14.1032  14.1216  14.1851  14.1972  14.4530  14.5888  14.6049
    14.6135  14.8170  14.8321  14.8922  14.9518  15.0684  15.1265  15.2611
    15.2999  15.3607  15.3917  15.4308  15.5229  15.8711  15.9706  16.0507
    16.1221  16.1515  16.3561  16.3600  16.4160  16.6393  16.6509  16.6527
    16.7114  16.7379  16.7642

          k = 0.0000-0.5000 0.2129 ( 29198 PWs)   bands (ev):

   -35.4192 -35.4191 -35.4191 -35.4190 -35.4179 -35.4179 -35.4178 -35.4178
   -35.4067 -35.4067 -35.4066 -35.4065 -35.4059 -35.4058 -35.4057 -35.4056
   -35.4013 -35.4012 -35.4011 -35.4011 -35.3412 -35.3412 -35.3411 -35.3411
   -35.3394 -35.3393 -35.3393 -35.3392 -35.3346 -35.3345 -35.3344 -35.3343
   -35.3324 -35.3323 -35.3323 -35.3322 -35.3300 -35.3299 -35.3299 -35.3298
   -11.9831 -11.9806 -11.9677 -11.9643 -11.9640 -11.9609 -11.9595 -11.9540
   -11.9487 -11.9438 -11.9433 -11.8451 -11.8148 -11.8147 -11.8100 -11.8021
   -11.7936 -11.7906 -11.7880 -11.7880 -11.7846 -11.7829 -11.7763 -11.7761
   -11.7736 -11.7734 -11.7717 -11.7706 -11.7650 -11.7649 -11.7614 -11.7547
   -11.7537 -11.7533 -11.7508 -11.7497 -11.7489 -11.7479 -11.7471 -11.7444
   -11.7441 -11.7415 -11.7404 -11.7379 -11.7347 -11.7321 -11.7290 -11.7260
   -11.7250 -11.7231 -11.7216 -11.7214 -11.7183 -11.7180 -11.7172 -11.7148
   -11.7122 -11.7121 -11.7083 -11.7071 -11.7050 -11.7049 -11.7032 -11.7010
   -11.6999 -11.6985 -11.6973 -11.6957 -11.6954 -11.6945 -11.6943 -11.6887
   -11.6858 -11.6828 -11.6818 -11.6784 -11.6722 -11.6693 -11.6682 -11.6633
    -8.1605  -8.1496  -8.1492  -7.8687  -6.9914  -6.9759  -6.9652  -6.9651
    -6.9633  -6.9560  -6.9554  -6.4941  -6.2413  -6.2346  -6.2308  -1.5699
    -1.5504  -1.3306  -1.3291  -0.4422  -0.4277  -0.4154  -0.3900  -0.0330
     0.1380   0.1886   0.2286   0.4218   0.4239   0.5463   0.6184   0.6738
     0.7983   0.7992   0.8154   1.7602   2.1217   2.1349   2.1974   5.0876
     5.1323   5.1513   5.1522   5.3571   5.4614   5.5615   5.6893   5.7343
     5.7366   5.7822   5.8083   5.8217   5.9984   6.0898   6.3693   6.6923
     6.7323   6.7328   6.8053   7.2298   7.2458   7.2980   7.3578   7.4339
     7.4347   7.5391   7.5716   7.6589   7.6656   7.9033   7.9268   7.9444
     7.9532   8.0201   8.0927   8.1944   8.2044   8.2857   8.3510   8.4266
     8.4367   8.4732   8.6083   8.7537   9.0425   9.1294   9.1821   9.1825
     9.2499   9.3668   9.3710   9.4027   9.7090   9.8279   9.8495   9.9044
     9.9279   9.9365  10.0310  10.0312  10.1732  10.1970  10.2562  10.3005
    10.3043  10.3183  10.4555  10.4573  11.6000  12.6971  12.6999  13.0804
    13.4582  13.4838  13.5178  13.5181  13.5776  13.6021  13.6176  13.6474
    13.7697  13.9930  14.0535  14.0784  14.0855  14.4254  14.6940  14.7146
    14.7689  14.8178  14.8376  14.8932  14.9084  14.9713  15.2104  15.2771
    15.3395  15.3545  15.4796  15.6034  15.6968  15.9369  16.0030  16.0561
    16.1065  16.1734  16.3555  16.3905  16.4148  16.5732  16.5966  16.6339
    16.6791  16.6794  16.6916

          k = 0.0000-0.5000-0.3194 ( 29176 PWs)   bands (ev):

   -35.4193 -35.4191 -35.4190 -35.4190 -35.4179 -35.4178 -35.4178 -35.4177
   -35.4067 -35.4066 -35.4065 -35.4065 -35.4058 -35.4058 -35.4057 -35.4056
   -35.4012 -35.4011 -35.4011 -35.4010 -35.3413 -35.3411 -35.3411 -35.3410
   -35.3393 -35.3393 -35.3393 -35.3392 -35.3345 -35.3344 -35.3344 -35.3343
   -35.3324 -35.3323 -35.3322 -35.3321 -35.3299 -35.3299 -35.3299 -35.3298
   -11.9830 -11.9805 -11.9678 -11.9633 -11.9631 -11.9600 -11.9587 -11.9549
   -11.9502 -11.9448 -11.9445 -11.8452 -11.8153 -11.8145 -11.8091 -11.8002
   -11.7937 -11.7900 -11.7891 -11.7874 -11.7860 -11.7823 -11.7768 -11.7760
   -11.7750 -11.7734 -11.7714 -11.7705 -11.7657 -11.7647 -11.7622 -11.7552
   -11.7539 -11.7535 -11.7504 -11.7496 -11.7491 -11.7470 -11.7467 -11.7448
   -11.7441 -11.7417 -11.7400 -11.7380 -11.7350 -11.7322 -11.7288 -11.7259
   -11.7245 -11.7216 -11.7211 -11.7210 -11.7180 -11.7179 -11.7157 -11.7141
   -11.7132 -11.7110 -11.7093 -11.7067 -11.7050 -11.7039 -11.7035 -11.7010
   -11.6995 -11.6985 -11.6968 -11.6958 -11.6955 -11.6953 -11.6953 -11.6890
   -11.6863 -11.6833 -11.6820 -11.6786 -11.6726 -11.6694 -11.6683 -11.6634
    -8.1549  -8.1548  -8.1495  -7.8688  -6.9911  -6.9752  -6.9656  -6.9641
    -6.9641  -6.9564  -6.9560  -6.4941  -6.2413  -6.2346  -6.2308  -1.4866
    -1.4640  -1.4525  -1.4068  -0.4421  -0.4281  -0.4153  -0.3899  -0.0325
     0.1382   0.1899   0.2288   0.4588   0.5637   0.5801   0.5857   0.6182
     0.7571   0.7656   0.7989   1.7603   2.1241   2.1337   2.1892   5.0631
     5.1119   5.1292   5.1316   5.4278   5.4817   5.4859   5.6919   5.7734
     5.7748   5.8014   5.8024   5.8083   6.0335   6.0898   6.3688   6.7068
     6.7491   6.7491   6.8154   7.2204   7.3063   7.3114   7.3156   7.4348
     7.4388   7.5181   7.5408   7.6085   7.6147   7.8855   7.9397   7.9408
     7.9453   8.0175   8.0888   8.1852   8.2143   8.3246   8.3524   8.4586
     8.4835   8.5206   8.5810   8.5845   9.0057   9.0788   9.1484   9.1510
     9.2314   9.3771   9.3924   9.4185   9.7300   9.8740   9.8794   9.9635
     9.9736   9.9781  10.0368  10.0450  10.1786  10.2454  10.2633  10.3038
    10.3459  10.3718  10.3844  10.4110  11.5713  12.6868  12.7096  13.0810
    13.4660  13.4852  13.4884  13.4921  13.5466  13.5694  13.5909  13.6089
    13.7564  13.9630  14.0145  14.0364  14.0476  14.3940  14.6830  14.8022
    14.8249  14.8288  14.8407  14.8431  14.9898  15.0931  15.1474  15.1517
    15.3605  15.3640  15.5198  15.7109  15.7895  15.9849  16.0484  16.0549
    16.0574  16.2004  16.3653  16.4188  16.4242  16.5188  16.5440  16.6411
    16.6424  16.6495  16.6540

          k = 0.1667 0.1667 0.0000 ( 29209 PWs)   bands (ev):

   -35.4192 -35.4191 -35.4190 -35.4190 -35.4180 -35.4179 -35.4178 -35.4177
   -35.4067 -35.4067 -35.4066 -35.4065 -35.4058 -35.4058 -35.4057 -35.4056
   -35.4013 -35.4012 -35.4011 -35.4010 -35.3412 -35.3411 -35.3411 -35.3410
   -35.3395 -35.3393 -35.3393 -35.3392 -35.3345 -35.3345 -35.3344 -35.3344
   -35.3324 -35.3323 -35.3323 -35.3322 -35.3301 -35.3300 -35.3299 -35.3298
   -11.9958 -11.9937 -11.9831 -11.9755 -11.9679 -11.9577 -11.9571 -11.9526
   -11.9370 -11.9137 -11.9044 -11.8979 -11.8805 -11.8135 -11.8009 -11.7998
   -11.7945 -11.7914 -11.7901 -11.7872 -11.7828 -11.7782 -11.7781 -11.7750
   -11.7746 -11.7728 -11.7693 -11.7691 -11.7664 -11.7652 -11.7639 -11.7620
   -11.7567 -11.7559 -11.7556 -11.7498 -11.7490 -11.7477 -11.7472 -11.7453
   -11.7405 -11.7381 -11.7356 -11.7355 -11.7327 -11.7316 -11.7253 -11.7252
   -11.7220 -11.7212 -11.7212 -11.7184 -11.7158 -11.7152 -11.7129 -11.7116
   -11.7102 -11.7081 -11.7072 -11.7053 -11.7052 -11.7043 -11.7010 -11.7004
   -11.6991 -11.6964 -11.6943 -11.6914 -11.6910 -11.6902 -11.6897 -11.6883
   -11.6857 -11.6811 -11.6759 -11.6725 -11.6709 -11.6661 -11.6659 -11.6640
    -8.4874  -8.3343  -7.4837  -7.4747  -7.4625  -7.2810  -6.9266  -6.8937
    -6.7917  -6.7790  -6.7698  -6.7443  -6.7169  -6.1528  -5.9922  -2.0212
    -1.4676  -0.8697  -0.8579  -0.7066  -0.6721  -0.3278  -0.2668  -0.1281
     0.0898   0.0993   0.2228   0.2439   0.3675   0.4568   0.5717   0.7358
     0.7806   0.8109   1.2651   1.2724   1.4886   2.3286   2.9250   5.1560
     5.3125   5.3850   5.4536   5.4889   5.5247   5.5646   5.6304   5.6463
     5.7450   5.8349   5.9587   6.1198   6.1629   6.1713   6.2259   6.4330
     6.7009   6.7051   6.7568   6.7602   6.9264   6.9420   7.0488   7.1520
     7.3269   7.3760   7.4064   7.4347   7.5330   7.7072   7.7700   7.7822
     7.8712   8.1255   8.1408   8.1692   8.2197   8.3177   8.4574   8.5681
     8.6009   8.7420   8.8886   8.9192   8.9536   9.0276   9.1000   9.1821
     9.4415   9.5266   9.6177   9.6980   9.7822   9.8059   9.8420   9.9449
    10.0070  10.0478  10.0931  10.1131  10.2505  10.2813  10.3163  10.3903
    10.6009  10.6027  10.7365  10.7698  11.1923  12.1505  12.3463  12.5392
    12.6736  12.9198  13.3636  13.4145  13.5139  13.5303  13.7842  14.0889
    14.1037  14.1947  14.2931  14.3705  14.4924  14.6311  14.6803  14.7326
    14.8153  14.9380  15.0021  15.0148  15.1253  15.1461  15.2068  15.2829
    15.3089  15.4350  15.5181  15.5416  15.6196  15.6295  15.7771  15.9096
    15.9133  15.9653  16.1305  16.3113  16.4126  16.4701  16.4853  16.6605
    16.8959  17.0884  17.1203

          k = 0.1667 0.1667 0.1065 ( 29209 PWs)   bands (ev):

   -35.4191 -35.4191 -35.4190 -35.4190 -35.4180 -35.4179 -35.4178 -35.4178
   -35.4067 -35.4067 -35.4066 -35.4066 -35.4058 -35.4057 -35.4057 -35.4056
   -35.4013 -35.4012 -35.4011 -35.4010 -35.3412 -35.3411 -35.3410 -35.3410
   -35.3394 -35.3394 -35.3393 -35.3393 -35.3345 -35.3344 -35.3344 -35.3344
   -35.3324 -35.3323 -35.3323 -35.3322 -35.3301 -35.3300 -35.3299 -35.3298
   -11.9957 -11.9929 -11.9822 -11.9757 -11.9688 -11.9580 -11.9566 -11.9534
   -11.9378 -11.9133 -11.9034 -11.8984 -11.8814 -11.8124 -11.8002 -11.7990
   -11.7945 -11.7917 -11.7899 -11.7868 -11.7829 -11.7785 -11.7778 -11.7760
   -11.7748 -11.7731 -11.7712 -11.7690 -11.7671 -11.7656 -11.7635 -11.7625
   -11.7575 -11.7563 -11.7561 -11.7505 -11.7494 -11.7482 -11.7471 -11.7458
   -11.7420 -11.7368 -11.7347 -11.7336 -11.7322 -11.7295 -11.7251 -11.7239
   -11.7211 -11.7208 -11.7202 -11.7177 -11.7159 -11.7150 -11.7128 -11.7115
   -11.7097 -11.7089 -11.7072 -11.7051 -11.7049 -11.7043 -11.7016 -11.7004
   -11.6991 -11.6964 -11.6945 -11.6918 -11.6913 -11.6906 -11.6898 -11.6885
   -11.6862 -11.6812 -11.6764 -11.6727 -11.6711 -11.6662 -11.6660 -11.6641
    -8.4872  -8.3345  -7.4827  -7.4747  -7.4636  -7.2811  -6.9264  -6.8938
    -6.7914  -6.7790  -6.7701  -6.7443  -6.7170  -6.1528  -5.9922  -1.9936
    -1.5203  -0.8579  -0.8478  -0.7161  -0.6855  -0.3243  -0.2708  -0.1193
     0.0804   0.1524   0.2067   0.2897   0.3753   0.4472   0.5437   0.6519
     0.8116   0.9300   1.1818   1.2574   1.4584   2.3861   2.9024   5.1644
     5.3158   5.3846   5.4449   5.4706   5.5243   5.5699   5.5910   5.6242
     5.7036   5.9040   6.0142   6.0671   6.1779   6.2306   6.2662   6.4571
     6.6698   6.6829   6.7500   6.7574   6.8542   6.9105   7.0180   7.1989
     7.2919   7.4197   7.4669   7.4932   7.5366   7.6746   7.7786   7.7925
     7.8575   8.1341   8.1592   8.2062   8.2513   8.3443   8.4299   8.5762
     8.6013   8.6896   8.8134   8.8785   8.9217   8.9568   9.0185   9.1813
     9.4481   9.6180   9.6860   9.7355   9.7951   9.7964   9.8309   9.9630
     9.9905  10.0331  10.1007  10.1337  10.1952  10.2765  10.3045  10.4063
    10.6097  10.6157  10.7286  10.7603  11.2373  12.2325  12.3745  12.5134
    12.7212  12.9379  13.3404  13.4361  13.4395  13.6237  13.7635  14.0447
    14.1176  14.1496  14.2488  14.2745  14.2916  14.4734  14.5694  14.7174
    14.8599  14.8758  14.9564  15.1347  15.2474  15.2666  15.3355  15.3394
    15.3874  15.4560  15.5202  15.5508  15.6031  15.6230  15.7685  15.8954
    15.9430  16.0851  16.1621  16.2976  16.3947  16.4585  16.4851  16.6182
    16.8344  17.0605  17.1448

          k = 0.1667 0.1667 0.2129 ( 29191 PWs)   bands (ev):

   -35.4191 -35.4191 -35.4190 -35.4190 -35.4179 -35.4179 -35.4178 -35.4178
   -35.4067 -35.4066 -35.4065 -35.4065 -35.4057 -35.4057 -35.4057 -35.4056
   -35.4013 -35.4011 -35.4011 -35.4010 -35.3411 -35.3411 -35.3411 -35.3410
   -35.3394 -35.3394 -35.3393 -35.3393 -35.3344 -35.3344 -35.3344 -35.3343
   -35.3323 -35.3323 -35.3322 -35.3322 -35.3300 -35.3299 -35.3298 -35.3298
   -11.9956 -11.9910 -11.9802 -11.9764 -11.9709 -11.9585 -11.9557 -11.9547
   -11.9395 -11.9124 -11.9013 -11.8994 -11.8833 -11.8093 -11.7997 -11.7971
   -11.7955 -11.7910 -11.7896 -11.7858 -11.7831 -11.7809 -11.7771 -11.7760
   -11.7750 -11.7737 -11.7730 -11.7707 -11.7680 -11.7663 -11.7642 -11.7623
   -11.7586 -11.7575 -11.7570 -11.7525 -11.7508 -11.7498 -11.7472 -11.7463
   -11.7424 -11.7354 -11.7337 -11.7301 -11.7287 -11.7270 -11.7244 -11.7218
   -11.7201 -11.7200 -11.7180 -11.7165 -11.7155 -11.7146 -11.7133 -11.7114
   -11.7106 -11.7086 -11.7071 -11.7048 -11.7046 -11.7041 -11.7031 -11.7002
   -11.6992 -11.6964 -11.6949 -11.6929 -11.6919 -11.6912 -11.6899 -11.6887
   -11.6874 -11.6814 -11.6774 -11.6729 -11.6715 -11.6663 -11.6663 -11.6644
    -8.4868  -8.3349  -7.4803  -7.4745  -7.4660  -7.2813  -6.9260  -6.8942
    -6.7908  -6.7788  -6.7707  -6.7442  -6.7172  -6.1528  -5.9922  -1.9140
    -1.6455  -0.8297  -0.8179  -0.7399  -0.7219  -0.3142  -0.2819  -0.0954
     0.0398   0.1571   0.3334   0.3771   0.3924   0.4237   0.5169   0.5667
     0.8725   0.9678   1.1007   1.2208   1.3801   2.5045   2.8425   5.1914
     5.3200   5.3535   5.3896   5.4905   5.4996   5.5700   5.5835   5.6032
     5.6825   5.9298   5.9579   6.1462   6.2513   6.3405   6.3534   6.4848
     6.5946   6.6060   6.7324   6.7447   6.7829   6.8718   6.9502   7.2234
     7.2657   7.4769   7.5176   7.5386   7.5996   7.6893   7.7893   7.8396
     7.8734   8.1284   8.1696   8.2811   8.3335   8.3892   8.4175   8.5184
     8.5869   8.5996   8.6354   8.7368   8.8246   8.9073   9.0126   9.1806
     9.4381   9.6953   9.7379   9.7735   9.8004   9.8378   9.8855   9.9463
     9.9804  10.0371  10.0862  10.1613  10.1826  10.2587  10.2852  10.3840
    10.6282  10.6477  10.7100  10.7337  11.3278  12.3370  12.4510  12.5666
    12.8334  12.9663  13.3020  13.4317  13.4980  13.5692  13.7070  13.8258
    13.9276  14.1300  14.1414  14.2272  14.2324  14.3167  14.3419  14.7095
    14.8850  14.9827  15.0178  15.0550  15.2614  15.3106  15.3648  15.4289
    15.5115  15.5151  15.5626  15.6004  15.6741  15.7216  15.8438  15.9621
    16.0422  16.1714  16.2746  16.3253  16.3522  16.4155  16.5120  16.5398
    16.6501  16.9084  17.0734

          k = 0.1667 0.1667-0.3194 ( 29224 PWs)   bands (ev):

   -35.4192 -35.4191 -35.4191 -35.4190 -35.4180 -35.4179 -35.4179 -35.4178
   -35.4067 -35.4067 -35.4066 -35.4065 -35.4058 -35.4058 -35.4057 -35.4057
   -35.4013 -35.4012 -35.4011 -35.4011 -35.3412 -35.3411 -35.3411 -35.3411
   -35.3394 -35.3394 -35.3394 -35.3393 -35.3345 -35.3345 -35.3344 -35.3344
   -35.3324 -35.3323 -35.3323 -35.3322 -35.3300 -35.3299 -35.3299 -35.3298
   -11.9956 -11.9899 -11.9787 -11.9771 -11.9724 -11.9590 -11.9554 -11.9549
   -11.9403 -11.9118 -11.9004 -11.8997 -11.8844 -11.8064 -11.8014 -11.7960
   -11.7956 -11.7903 -11.7896 -11.7852 -11.7837 -11.7819 -11.7769 -11.7761
   -11.7754 -11.7737 -11.7736 -11.7714 -11.7686 -11.7661 -11.7656 -11.7620
   -11.7588 -11.7583 -11.7574 -11.7539 -11.7513 -11.7504 -11.7479 -11.7461
   -11.7425 -11.7348 -11.7334 -11.7283 -11.7260 -11.7253 -11.7251 -11.7208
   -11.7199 -11.7184 -11.7179 -11.7166 -11.7154 -11.7137 -11.7133 -11.7115
   -11.7114 -11.7078 -11.7071 -11.7049 -11.7046 -11.7040 -11.7039 -11.7001
   -11.6993 -11.6965 -11.6950 -11.6937 -11.6924 -11.6911 -11.6900 -11.6886
   -11.6884 -11.6815 -11.6779 -11.6730 -11.6717 -11.6665 -11.6664 -11.6645
    -8.4866  -8.3351  -7.4787  -7.4745  -7.4676  -7.2814  -6.9258  -6.8944
    -6.7905  -6.7788  -6.7710  -6.7442  -6.7173  -6.1528  -5.9922  -1.8102
    -1.7703  -0.8100  -0.7731  -0.7687  -0.7586  -0.3032  -0.2934  -0.0760
     0.0107   0.1564   0.3586   0.3921   0.4066   0.4871   0.5262   0.6110
     0.7311   0.9506   1.1922   1.2004   1.3018   2.5771   2.7951   5.2233
     5.2889   5.3237   5.3980   5.4656   5.5234   5.5535   5.5878   5.5988
     5.7031   5.8826   5.9339   6.2398   6.3365   6.3594   6.3983   6.4598
     6.5306   6.5924   6.7191   6.7366   6.7563   6.8701   6.9135   7.1996
     7.2746   7.4986   7.5374   7.5374   7.5881   7.7420   7.7984   7.8446
     8.0662   8.0757   8.1333   8.2361   8.3453   8.4630   8.4985   8.4999
     8.5205   8.5485   8.5619   8.5993   8.8065   8.9015   9.0144   9.1804
     9.4367   9.7141   9.7307   9.7392   9.8768   9.8777   9.9031   9.9222
     9.9731   9.9795  10.1624  10.1657  10.1952  10.2663  10.2865  10.3194
    10.6402  10.6769  10.7015  10.7027  11.3755  12.3190  12.4859  12.7419
    12.9418  12.9644  13.2647  13.3121  13.4525  13.5730  13.6832  13.8500
    13.8576  13.9339  14.0901  14.1105  14.2599  14.2835  14.5476  14.5600
    14.8591  14.9090  15.0544  15.1223  15.2612  15.3326  15.4635  15.4666
    15.5097  15.5177  15.6104  15.6358  15.6522  15.7257  15.8021  15.9763
    16.2705  16.2958  16.3165  16.3457  16.3730  16.4647  16.5024  16.5254
    16.5574  16.5694  17.0636

          k = 0.1667 0.3333 0.0000 ( 29163 PWs)   bands (ev):

   -35.4191 -35.4191 -35.4190 -35.4189 -35.4179 -35.4178 -35.4178 -35.4177
   -35.4067 -35.4066 -35.4065 -35.4064 -35.4058 -35.4057 -35.4056 -35.4055
   -35.4013 -35.4012 -35.4011 -35.4009 -35.3411 -35.3411 -35.3410 -35.3410
   -35.3394 -35.3393 -35.3392 -35.3392 -35.3345 -35.3344 -35.3344 -35.3343
   -35.3324 -35.3322 -35.3322 -35.3321 -35.3301 -35.3300 -35.3299 -35.3296
   -11.9898 -11.9871 -11.9727 -11.9699 -11.9671 -11.9641 -11.9601 -11.9485
   -11.9448 -11.9226 -11.9082 -11.8695 -11.8549 -11.8118 -11.8038 -11.7959
   -11.7937 -11.7914 -11.7862 -11.7848 -11.7825 -11.7809 -11.7792 -11.7763
   -11.7723 -11.7704 -11.7686 -11.7673 -11.7668 -11.7651 -11.7607 -11.7585
   -11.7575 -11.7563 -11.7555 -11.7507 -11.7500 -11.7473 -11.7455 -11.7433
   -11.7430 -11.7397 -11.7377 -11.7353 -11.7343 -11.7323 -11.7306 -11.7266
   -11.7252 -11.7235 -11.7208 -11.7191 -11.7186 -11.7167 -11.7163 -11.7138
   -11.7125 -11.7115 -11.7091 -11.7077 -11.7069 -11.7055 -11.7039 -11.7014
   -11.7001 -11.6985 -11.6979 -11.6963 -11.6937 -11.6921 -11.6915 -11.6893
   -11.6866 -11.6823 -11.6783 -11.6762 -11.6725 -11.6697 -11.6677 -11.6652
    -8.3405  -8.2179  -7.8118  -7.6940  -7.3815  -7.2846  -7.0849  -6.9774
    -6.7447  -6.7305  -6.6923  -6.5661  -6.4775  -6.2055  -6.0838  -1.8636
    -1.3472  -1.2548  -0.9204  -0.7644  -0.6184  -0.4341  -0.4158  -0.0377
     0.1247   0.1771   0.2775   0.3558   0.4366   0.4874   0.6078   0.6869
     0.7696   1.0764   1.1347   1.4016   1.7187   2.2429   2.5645   5.0828
     5.1899   5.2279   5.2693   5.3451   5.4082   5.4875   5.5049   5.6403
     5.7483   5.8027   6.0139   6.1089   6.2151   6.2539   6.3850   6.4395
     6.6382   6.7543   6.8266   6.8856   6.9897   7.1095   7.2550   7.3145
     7.4122   7.4598   7.5020   7.5353   7.6329   7.7121   7.7666   7.8774
     7.9120   8.0466   8.1033   8.2156   8.2972   8.4146   8.4304   8.5764
     8.7048   8.7333   8.8310   8.8620   9.0263   9.0534   9.1214   9.2421
     9.3137   9.4597   9.5905   9.6215   9.6485   9.6982   9.8051   9.8636
     9.8923   9.9241  10.0034  10.0196  10.0657  10.1087  10.1163  10.1739
    10.3846  10.5093  10.6535  10.7144  11.4775  12.4306  12.7582  12.8664
    12.9879  13.2206  13.2313  13.3610  13.5707  13.6843  13.8714  14.0161
    14.0884  14.1981  14.2372  14.3301  14.4709  14.5331  14.6024  14.6329
    14.6697  14.6935  14.7638  14.8776  14.9535  15.0413  15.0792  15.2361
    15.3471  15.4040  15.5325  15.6664  15.7649  15.8315  15.8768  15.9718
    16.0054  16.0361  16.1199  16.2338  16.2804  16.4786  16.6364  16.7423
    16.7953  16.8717  17.0018

          k = 0.1667 0.3333 0.1065 ( 29165 PWs)   bands (ev):

   -35.4191 -35.4191 -35.4190 -35.4189 -35.4179 -35.4178 -35.4178 -35.4177
   -35.4067 -35.4066 -35.4065 -35.4065 -35.4057 -35.4057 -35.4057 -35.4056
   -35.4013 -35.4011 -35.4011 -35.4010 -35.3412 -35.3411 -35.3410 -35.3410
   -35.3394 -35.3393 -35.3393 -35.3392 -35.3345 -35.3344 -35.3344 -35.3343
   -35.3323 -35.3323 -35.3322 -35.3322 -35.3300 -35.3299 -35.3299 -35.3297
   -11.9898 -11.9863 -11.9724 -11.9700 -11.9665 -11.9644 -11.9600 -11.9493
   -11.9459 -11.9216 -11.9092 -11.8687 -11.8560 -11.8108 -11.8028 -11.7958
   -11.7938 -11.7908 -11.7864 -11.7853 -11.7826 -11.7806 -11.7785 -11.7763
   -11.7729 -11.7716 -11.7702 -11.7687 -11.7666 -11.7642 -11.7605 -11.7594
   -11.7576 -11.7564 -11.7551 -11.7514 -11.7504 -11.7481 -11.7457 -11.7439
   -11.7418 -11.7404 -11.7367 -11.7352 -11.7327 -11.7314 -11.7295 -11.7261
   -11.7250 -11.7231 -11.7204 -11.7194 -11.7182 -11.7166 -11.7157 -11.7133
   -11.7128 -11.7110 -11.7089 -11.7082 -11.7063 -11.7053 -11.7039 -11.7018
   -11.7000 -11.6986 -11.6979 -11.6964 -11.6940 -11.6925 -11.6918 -11.6896
   -11.6871 -11.6824 -11.6787 -11.6764 -11.6726 -11.6700 -11.6678 -11.6654
    -8.3403  -8.2182  -7.8116  -7.6942  -7.3814  -7.2847  -7.0848  -6.9775
    -6.7445  -6.7307  -6.6923  -6.5661  -6.4775  -6.2055  -6.0838  -1.8373
    -1.3948  -1.2365  -0.9476  -0.7548  -0.6283  -0.4341  -0.4153  -0.0278
     0.1426   0.2128   0.2587   0.3563   0.4529   0.4938   0.5748   0.7196
     0.7913   1.0216   1.1235   1.4172   1.6984   2.2641   2.5516   5.0797
     5.1972   5.2199   5.2585   5.3128   5.3702   5.4971   5.5448   5.6470
     5.7888   5.8102   6.0171   6.1201   6.2190   6.2593   6.3743   6.4503
     6.6406   6.7737   6.7941   6.8678   6.9801   7.0757   7.2432   7.3018
     7.3819   7.4755   7.4971   7.5869   7.7079   7.7510   7.7778   7.8671
     7.9169   8.0427   8.1096   8.2028   8.2789   8.4187   8.4259   8.5732
     8.6894   8.7298   8.8004   8.8642   8.9408   9.0216   9.0533   9.1444
     9.3925   9.5257   9.5870   9.6320   9.6958   9.7250   9.8083   9.8645
     9.9019   9.9273  10.0030  10.0139  10.0639  10.0989  10.1552  10.1959
    10.3853  10.5110  10.6627  10.7181  11.4870  12.4767  12.7862  12.8843
    12.9551  13.1952  13.2537  13.3853  13.5727  13.6625  13.8445  13.9903
    14.0571  14.1762  14.1970  14.2573  14.3548  14.3776  14.4517  14.6143
    14.6902  14.7422  14.7932  14.8871  15.0036  15.1081  15.1921  15.3415
    15.3731  15.4893  15.5751  15.6446  15.7429  15.8630  15.9024  15.9649
    16.0261  16.0585  16.1351  16.2279  16.2954  16.4758  16.6024  16.7140
    16.7801  16.8606  16.9649

          k = 0.1667 0.3333 0.2129 ( 29179 PWs)   bands (ev):

   -35.4192 -35.4191 -35.4190 -35.4190 -35.4179 -35.4179 -35.4178 -35.4178
   -35.4067 -35.4066 -35.4066 -35.4065 -35.4058 -35.4057 -35.4057 -35.4056
   -35.4012 -35.4011 -35.4011 -35.4010 -35.3412 -35.3411 -35.3410 -35.3410
   -35.3394 -35.3393 -35.3393 -35.3392 -35.3345 -35.3344 -35.3344 -35.3343
   -35.3323 -35.3323 -35.3322 -35.3322 -35.3300 -35.3299 -35.3298 -35.3298
   -11.9896 -11.9847 -11.9716 -11.9704 -11.9662 -11.9644 -11.9593 -11.9511
   -11.9481 -11.9192 -11.9117 -11.8665 -11.8589 -11.8082 -11.8008 -11.7968
   -11.7930 -11.7896 -11.7874 -11.7861 -11.7835 -11.7798 -11.7775 -11.7762
   -11.7747 -11.7734 -11.7721 -11.7703 -11.7666 -11.7638 -11.7618 -11.7596
   -11.7587 -11.7563 -11.7546 -11.7522 -11.7514 -11.7491 -11.7467 -11.7447
   -11.7425 -11.7384 -11.7353 -11.7346 -11.7305 -11.7297 -11.7275 -11.7251
   -11.7240 -11.7219 -11.7204 -11.7189 -11.7176 -11.7165 -11.7148 -11.7134
   -11.7115 -11.7103 -11.7097 -11.7077 -11.7058 -11.7047 -11.7041 -11.7024
   -11.6998 -11.6988 -11.6979 -11.6964 -11.6947 -11.6938 -11.6921 -11.6903
   -11.6882 -11.6828 -11.6795 -11.6768 -11.6729 -11.6704 -11.6680 -11.6656
    -8.3398  -8.2187  -7.8113  -7.6945  -7.3812  -7.2850  -7.0847  -6.9776
    -6.7441  -6.7310  -6.6924  -6.5661  -6.4776  -6.2055  -6.0838  -1.7620
    -1.5098  -1.1844  -1.0161  -0.7296  -0.6541  -0.4349  -0.4136  -0.0003
     0.1261   0.2117   0.3298   0.3972   0.4695   0.5066   0.5723   0.7165
     0.8208   0.9233   1.0883   1.4665   1.6412   2.3119   2.5197   5.0735
     5.1686   5.2040   5.2677   5.3102   5.3357   5.4737   5.5317   5.7223
     5.7955   5.9080   5.9912   6.1303   6.2118   6.3234   6.3651   6.4818
     6.6436   6.7154   6.7719   6.8384   6.9319   7.0462   7.2171   7.2665
     7.3898   7.4899   7.5659   7.6761   7.7309   7.7826   7.8340   7.8757
     7.9369   8.0511   8.1002   8.1866   8.2673   8.4048   8.4494   8.5505
     8.6238   8.7083   8.7329   8.7892   8.8776   8.9484   8.9817   9.1179
     9.3593   9.5437   9.6265   9.7383   9.7637   9.7828   9.8174   9.8505
     9.8844   9.9534   9.9939  10.0104  10.0547  10.0710  10.2446  10.2747
    10.3773  10.4956  10.6781  10.7257  11.5037  12.5810  12.8108  12.8752
    13.0175  13.1885  13.2685  13.4421  13.5554  13.6353  13.7421  13.8795
    13.9106  14.0140  14.0716  14.1571  14.2337  14.3304  14.4122  14.6071
    14.6648  14.7220  14.7909  14.9267  15.1397  15.2108  15.3130  15.3759
    15.4482  15.5089  15.6189  15.7340  15.8410  15.8625  15.9551  15.9797
    16.0537  16.1548  16.2039  16.2309  16.3342  16.4651  16.5366  16.6384
    16.6838  16.8197  16.8626

          k = 0.1667 0.3333-0.3194 ( 29206 PWs)   bands (ev):

   -35.4192 -35.4191 -35.4191 -35.4190 -35.4179 -35.4179 -35.4179 -35.4178
   -35.4067 -35.4067 -35.4066 -35.4065 -35.4058 -35.4058 -35.4057 -35.4056
   -35.4013 -35.4012 -35.4011 -35.4011 -35.3412 -35.3412 -35.3411 -35.3410
   -35.3394 -35.3394 -35.3393 -35.3393 -35.3345 -35.3345 -35.3344 -35.3344
   -35.3324 -35.3323 -35.3323 -35.3322 -35.3300 -35.3299 -35.3299 -35.3298
   -11.9896 -11.9838 -11.9713 -11.9707 -11.9668 -11.9637 -11.9585 -11.9525
   -11.9493 -11.9167 -11.9143 -11.8641 -11.8615 -11.8062 -11.8008 -11.7969
   -11.7923 -11.7889 -11.7881 -11.7866 -11.7842 -11.7794 -11.7776 -11.7758
   -11.7747 -11.7743 -11.7727 -11.7715 -11.7665 -11.7633 -11.7630 -11.7605
   -11.7587 -11.7562 -11.7545 -11.7524 -11.7520 -11.7495 -11.7471 -11.7451
   -11.7430 -11.7372 -11.7349 -11.7338 -11.7305 -11.7287 -11.7261 -11.7248
   -11.7228 -11.7211 -11.7205 -11.7184 -11.7175 -11.7170 -11.7146 -11.7134
   -11.7111 -11.7105 -11.7092 -11.7073 -11.7057 -11.7046 -11.7043 -11.7025
   -11.6996 -11.6989 -11.6978 -11.6965 -11.6952 -11.6945 -11.6922 -11.6905
   -11.6888 -11.6830 -11.6800 -11.6771 -11.6731 -11.6707 -11.6681 -11.6658
    -8.3396  -8.2189  -7.8111  -7.6947  -7.3810  -7.2851  -7.0847  -6.9777
    -6.7438  -6.7312  -6.6925  -6.5661  -6.4776  -6.2055  -6.0838  -1.6650
    -1.6252  -1.1237  -1.0845  -0.7050  -0.6789  -0.4356  -0.4125   0.0240
     0.0973   0.2132   0.3172   0.4723   0.4879   0.5763   0.5836   0.6850
     0.7180   0.9516   1.0543   1.5207   1.5836   2.3416   2.4976   5.0705
     5.1461   5.1953   5.2790   5.3000   5.3750   5.4232   5.5164   5.7872
     5.7949   5.8958   6.0556   6.1293   6.1606   6.3398   6.3976   6.5436
     6.6438   6.6519   6.7316   6.8425   6.8808   7.0549   7.1951   7.2548
     7.4147   7.4924   7.6456   7.6920   7.7303   7.7800   7.8219   7.8991
     7.9795   8.0456   8.0656   8.2249   8.2763   8.4259   8.4479   8.5053
     8.5661   8.6424   8.7247   8.7601   8.8724   8.9186   8.9688   9.1128
     9.3448   9.5325   9.6343   9.7613   9.7890   9.8198   9.8391   9.8461
     9.9254   9.9386   9.9804  10.0170  10.0420  10.0539  10.2970  10.3123
    10.4021  10.4526  10.6845  10.7296  11.5107  12.6468  12.8081  12.8408
    13.1363  13.2295  13.2849  13.3948  13.5346  13.6209  13.7287  13.7622
    13.8021  13.9172  14.0116  14.1136  14.2075  14.3171  14.5439  14.5823
    14.6223  14.6656  14.8063  14.9238  15.1672  15.3183  15.3232  15.4308
    15.4410  15.5469  15.6075  15.7151  15.8191  15.8897  15.9854  16.0549
    16.1387  16.2024  16.2431  16.2769  16.3781  16.4610  16.5479  16.5745
    16.6038  16.6310  16.8518

          k = 0.1667-0.5000 0.0000 ( 29174 PWs)   bands (ev):

   -35.4193 -35.4191 -35.4190 -35.4190 -35.4179 -35.4178 -35.4178 -35.4177
   -35.4067 -35.4066 -35.4065 -35.4065 -35.4058 -35.4057 -35.4057 -35.4056
   -35.4013 -35.4012 -35.4011 -35.4010 -35.3413 -35.3411 -35.3411 -35.3410
   -35.3394 -35.3393 -35.3392 -35.3392 -35.3345 -35.3344 -35.3344 -35.3343
   -35.3324 -35.3323 -35.3322 -35.3322 -35.3301 -35.3300 -35.3299 -35.3297
   -11.9834 -11.9806 -11.9767 -11.9746 -11.9664 -11.9590 -11.9546 -11.9461
   -11.9431 -11.9322 -11.9181 -11.8476 -11.8213 -11.8186 -11.8108 -11.8055
   -11.7971 -11.7927 -11.7898 -11.7852 -11.7850 -11.7825 -11.7759 -11.7747
   -11.7709 -11.7707 -11.7697 -11.7675 -11.7634 -11.7606 -11.7589 -11.7575
   -11.7568 -11.7547 -11.7537 -11.7503 -11.7490 -11.7454 -11.7447 -11.7445
   -11.7410 -11.7404 -11.7404 -11.7360 -11.7332 -11.7330 -11.7316 -11.7309
   -11.7266 -11.7251 -11.7238 -11.7218 -11.7212 -11.7193 -11.7179 -11.7156
   -11.7156 -11.7113 -11.7104 -11.7071 -11.7070 -11.7042 -11.7032 -11.7017
   -11.7008 -11.6999 -11.6994 -11.6990 -11.6961 -11.6946 -11.6923 -11.6884
   -11.6856 -11.6824 -11.6822 -11.6788 -11.6736 -11.6694 -11.6690 -11.6655
    -8.1223  -8.1060  -8.0999  -7.8501  -7.2603  -7.2431  -7.2428  -7.0260
    -6.7225  -6.7095  -6.7065  -6.4625  -6.2539  -6.2462  -6.2426  -1.6226
    -1.5869  -1.1717  -1.1359  -0.6298  -0.5975  -0.5252  -0.5152   0.0662
     0.0967   0.2247   0.2395   0.3942   0.4202   0.5672   0.5877   0.8101
     0.8179   0.9508   1.0060   1.7516   2.0511   2.0758   2.1632   5.1009
     5.1179   5.1432   5.1659   5.2705   5.3436   5.4429   5.4511   5.6221
     5.6587   6.0464   6.0558   6.0782   6.1830   6.2947   6.3193   6.4914
     6.6215   6.8720   6.8865   7.0519   7.0761   7.1453   7.2572   7.3857
     7.3931   7.4410   7.5522   7.6246   7.6301   7.7027   7.7315   7.7483
     7.8320   8.0966   8.1462   8.3420   8.3988   8.4435   8.5330   8.5546
     8.6505   8.6585   8.7427   8.9996   9.0731   9.1098   9.2291   9.2776
     9.3508   9.3673   9.5861   9.6087   9.6404   9.6781   9.6863   9.7623
     9.8028   9.8504   9.9031   9.9257   9.9298   9.9450  10.0908  10.1836
    10.3177  10.3734  10.6261  10.6756  11.5757  12.6922  12.8195  13.1007
    13.1074  13.4754  13.4837  13.5633  13.6255  13.7447  13.7554  13.9222
    13.9262  14.0627  14.0711  14.2415  14.3205  14.3316  14.4025  14.4897
    14.5394  14.8203  14.8220  14.9385  15.0084  15.0743  15.0980  15.2211
    15.3009  15.4467  15.4683  15.6039  15.6342  15.6890  15.9228  15.9479
    16.1657  16.2205  16.2897  16.3543  16.3676  16.5003  16.5522  16.5642
    16.7369  16.8075  16.9715

          k = 0.1667-0.5000 0.1065 ( 29142 PWs)   bands (ev):

   -35.4192 -35.4190 -35.4190 -35.4190 -35.4179 -35.4178 -35.4177 -35.4177
   -35.4067 -35.4066 -35.4065 -35.4064 -35.4058 -35.4057 -35.4057 -35.4056
   -35.4012 -35.4011 -35.4011 -35.4009 -35.3412 -35.3411 -35.3410 -35.3410
   -35.3393 -35.3393 -35.3392 -35.3392 -35.3345 -35.3344 -35.3344 -35.3343
   -35.3323 -35.3323 -35.3322 -35.3321 -35.3300 -35.3299 -35.3298 -35.3297
   -11.9832 -11.9804 -11.9762 -11.9741 -11.9666 -11.9596 -11.9556 -11.9455
   -11.9420 -11.9330 -11.9192 -11.8476 -11.8209 -11.8195 -11.8103 -11.8040
   -11.7974 -11.7921 -11.7894 -11.7862 -11.7846 -11.7822 -11.7759 -11.7758
   -11.7712 -11.7708 -11.7691 -11.7690 -11.7636 -11.7630 -11.7591 -11.7566
   -11.7561 -11.7545 -11.7534 -11.7502 -11.7493 -11.7462 -11.7446 -11.7441
   -11.7408 -11.7407 -11.7397 -11.7362 -11.7346 -11.7329 -11.7309 -11.7290
   -11.7255 -11.7252 -11.7234 -11.7211 -11.7211 -11.7187 -11.7179 -11.7152
   -11.7146 -11.7115 -11.7098 -11.7073 -11.7063 -11.7047 -11.7032 -11.7016
   -11.7006 -11.6998 -11.6992 -11.6990 -11.6964 -11.6948 -11.6930 -11.6886
   -11.6859 -11.6829 -11.6824 -11.6790 -11.6738 -11.6697 -11.6691 -11.6657
    -8.1208  -8.1059  -8.1014  -7.8502  -7.2593  -7.2437  -7.2430  -7.0261
    -6.7221  -6.7098  -6.7065  -6.4625  -6.2538  -6.2463  -6.2426  -1.5975
    -1.5654  -1.2062  -1.1808  -0.6221  -0.5939  -0.5284  -0.5225   0.0745
     0.1073   0.2489   0.2704   0.3688   0.3941   0.6100   0.6280   0.7839
     0.8066   0.9373   0.9897   1.7500   2.0528   2.0745   2.1553   5.0955
     5.1010   5.1359   5.1636   5.2656   5.2803   5.4852   5.4985   5.6561
     5.6727   6.0383   6.0548   6.0711   6.1722   6.2898   6.3194   6.5133
     6.6346   6.8576   6.8929   7.0592   7.0793   7.1516   7.2657   7.3569
     7.3698   7.4140   7.4691   7.5806   7.6502   7.7370   7.7814   7.8183
     7.8908   8.0916   8.1576   8.3275   8.3932   8.3992   8.5212   8.5686
     8.6488   8.6664   8.7173   8.9629   9.0501   9.0692   9.2002   9.2403
     9.3333   9.3584   9.5698   9.5978   9.6407   9.7082   9.7336   9.7930
     9.8356   9.8509   9.9089   9.9281   9.9806   9.9965  10.0681  10.1328
    10.3795  10.4252  10.6200  10.6740  11.5645  12.6854  12.8338  13.0867
    13.1200  13.4943  13.5101  13.5588  13.6365  13.7394  13.7447  13.7615
    13.8933  14.0616  14.0937  14.1497  14.2590  14.3422  14.4160  14.4829
    14.5169  14.7207  14.8104  14.9158  14.9784  15.0942  15.1986  15.3122
    15.3720  15.4808  15.5237  15.6044  15.6286  15.7343  15.9176  15.9716
    16.1805  16.2240  16.3049  16.3770  16.3802  16.4952  16.5463  16.5542
    16.7096  16.7715  16.9229

          k = 0.1667-0.5000 0.2129 ( 29174 PWs)   bands (ev):

   -35.4192 -35.4191 -35.4190 -35.4190 -35.4179 -35.4178 -35.4178 -35.4177
   -35.4067 -35.4067 -35.4065 -35.4065 -35.4058 -35.4058 -35.4057 -35.4056
   -35.4012 -35.4011 -35.4011 -35.4010 -35.3412 -35.3411 -35.3410 -35.3410
   -35.3393 -35.3393 -35.3393 -35.3392 -35.3345 -35.3345 -35.3344 -35.3344
   -35.3324 -35.3323 -35.3323 -35.3322 -35.3299 -35.3299 -35.3299 -35.3298
   -11.9828 -11.9802 -11.9747 -11.9729 -11.9671 -11.9609 -11.9576 -11.9440
   -11.9397 -11.9351 -11.9216 -11.8475 -11.8209 -11.8200 -11.8095 -11.8011
   -11.7974 -11.7916 -11.7899 -11.7869 -11.7847 -11.7816 -11.7776 -11.7762
   -11.7722 -11.7721 -11.7704 -11.7685 -11.7648 -11.7636 -11.7610 -11.7558
   -11.7552 -11.7537 -11.7534 -11.7503 -11.7496 -11.7468 -11.7447 -11.7441
   -11.7414 -11.7403 -11.7390 -11.7366 -11.7355 -11.7323 -11.7310 -11.7256
   -11.7254 -11.7228 -11.7228 -11.7210 -11.7198 -11.7177 -11.7177 -11.7144
   -11.7129 -11.7118 -11.7088 -11.7077 -11.7059 -11.7052 -11.7031 -11.7020
   -11.7000 -11.6996 -11.6990 -11.6989 -11.6968 -11.6953 -11.6947 -11.6893
   -11.6866 -11.6839 -11.6828 -11.6795 -11.6744 -11.6702 -11.6693 -11.6659
    -8.1168  -8.1057  -8.1056  -7.8505  -7.2570  -7.2461  -7.2429  -7.0262
    -6.7213  -6.7107  -6.7065  -6.4625  -6.2536  -6.2464  -6.2426  -1.5253
    -1.5055  -1.2909  -1.2896  -0.6015  -0.5873  -0.5423  -0.5341   0.0963
     0.1365   0.2318   0.2680   0.4135   0.4468   0.6308   0.6785   0.7494
     0.7899   0.9041   0.9453   1.7468   2.0574   2.0717   2.1383   5.0632
     5.0674   5.1113   5.2032   5.2415   5.2750   5.4420   5.5200   5.7638
     5.7836   5.9998   6.0536   6.0570   6.1325   6.2792   6.3183   6.5786
     6.6642   6.7947   6.8996   7.0803   7.0873   7.1522   7.2682   7.3192
     7.3265   7.3879   7.4032   7.5531   7.6011   7.7765   7.8573   7.9845
     8.0019   8.0948   8.1622   8.2547   8.3236   8.3985   8.4914   8.5896
     8.6434   8.6777   8.6806   8.7874   9.0310   9.0409   9.1501   9.1656
     9.3261   9.3851   9.5086   9.5396   9.6536   9.7957   9.8144   9.8614
     9.8954   9.9045   9.9305   9.9353  10.0117  10.0268  10.0657  10.0701
    10.4745  10.5180  10.5982  10.6653  11.5423  12.6795  12.8654  13.0616
    13.1748  13.4812  13.5113  13.5928  13.6137  13.6743  13.7224  13.7587
    13.7932  13.9536  13.9975  14.0848  14.1086  14.3060  14.4339  14.4771
    14.5094  14.7033  14.7417  14.8741  15.0634  15.1492  15.2478  15.3467
    15.3630  15.5705  15.6222  15.6846  15.7116  15.8357  15.9118  16.0085
    16.2102  16.2262  16.3085  16.4649  16.4669  16.4900  16.5352  16.5357
    16.6365  16.6752  16.7956

          k = 0.1667-0.5000-0.3194 ( 29164 PWs)   bands (ev):

   -35.4192 -35.4190 -35.4190 -35.4189 -35.4179 -35.4178 -35.4178 -35.4177
   -35.4067 -35.4066 -35.4066 -35.4065 -35.4058 -35.4058 -35.4057 -35.4056
   -35.4012 -35.4011 -35.4011 -35.4010 -35.3412 -35.3411 -35.3410 -35.3410
   -35.3393 -35.3393 -35.3392 -35.3392 -35.3345 -35.3344 -35.3344 -35.3343
   -35.3323 -35.3323 -35.3322 -35.3322 -35.3299 -35.3299 -35.3299 -35.3298
   -11.9826 -11.9800 -11.9739 -11.9722 -11.9674 -11.9617 -11.9587 -11.9429
   -11.9383 -11.9365 -11.9231 -11.8475 -11.8215 -11.8195 -11.8093 -11.7993
   -11.7963 -11.7934 -11.7900 -11.7862 -11.7855 -11.7811 -11.7779 -11.7763
   -11.7738 -11.7727 -11.7703 -11.7684 -11.7654 -11.7634 -11.7619 -11.7558
   -11.7549 -11.7535 -11.7531 -11.7504 -11.7496 -11.7469 -11.7448 -11.7443
   -11.7417 -11.7402 -11.7390 -11.7366 -11.7356 -11.7320 -11.7310 -11.7256
   -11.7239 -11.7226 -11.7213 -11.7205 -11.7189 -11.7179 -11.7178 -11.7139
   -11.7127 -11.7111 -11.7082 -11.7079 -11.7068 -11.7049 -11.7029 -11.7022
   -11.6996 -11.6996 -11.6988 -11.6987 -11.6971 -11.6958 -11.6958 -11.6896
   -11.6870 -11.6845 -11.6830 -11.6797 -11.6747 -11.6704 -11.6693 -11.6661
    -8.1114  -8.1110  -8.1056  -7.8506  -7.2553  -7.2478  -7.2429  -7.0262
    -6.7209  -6.7111  -6.7065  -6.4625  -6.2535  -6.2465  -6.2426  -1.4437
    -1.4217  -1.4102  -1.3645  -0.5842  -0.5802  -0.5632  -0.5368   0.1130
     0.1674   0.2095   0.2203   0.5038   0.5326   0.5885   0.6123   0.7938
     0.7968   0.8807   0.9060   1.7453   2.0606   2.0704   2.1289   5.0448
     5.0519   5.1040   5.1901   5.2876   5.2923   5.3811   5.5085   5.8690
     5.8695   5.9310   6.0517   6.0539   6.0911   6.2734   6.3168   6.6625
     6.6822   6.7049   6.8959   7.0948   7.1010   7.1375   7.2481   7.3124
     7.3150   7.3857   7.4053   7.5479   7.5598   7.7998   7.8719   8.0728
     8.1179   8.1401   8.1548   8.1593   8.2577   8.3948   8.4768   8.6277
     8.6294   8.6556   8.6807   8.6820   9.0156   9.0314   9.1262   9.1314
     9.3308   9.4340   9.4830   9.4873   9.6650   9.8187   9.8325   9.8793
     9.9105   9.9399   9.9926   9.9985  10.0013  10.0318  10.0321  10.0362
    10.5435  10.5590  10.5677  10.6528  11.5314  12.6811  12.8827  13.0504
    13.2974  13.3103  13.4498  13.6817  13.6976  13.7154  13.7339  13.7444
    13.7557  13.8771  13.8796  13.9045  14.1422  14.2799  14.4372  14.4781
    14.5167  14.7119  14.7321  14.8481  15.1193  15.2010  15.2389  15.3030
    15.3588  15.5883  15.6400  15.7543  15.7975  15.9086  15.9112  16.0060
    16.2328  16.2384  16.3026  16.4952  16.5225  16.5289  16.5734  16.5883
    16.6148  16.6167  16.6489

          k = 0.3333 0.3333 0.0000 ( 29195 PWs)   bands (ev):

   -35.4192 -35.4191 -35.4190 -35.4189 -35.4179 -35.4179 -35.4178 -35.4177
   -35.4067 -35.4067 -35.4066 -35.4065 -35.4058 -35.4058 -35.4057 -35.4057
   -35.4013 -35.4012 -35.4011 -35.4010 -35.3412 -35.3411 -35.3411 -35.3410
   -35.3394 -35.3394 -35.3392 -35.3392 -35.3345 -35.3345 -35.3345 -35.3344
   -35.3324 -35.3323 -35.3323 -35.3322 -35.3301 -35.3300 -35.3299 -35.3297
   -11.9868 -11.9853 -11.9751 -11.9746 -11.9671 -11.9638 -11.9554 -11.9439
   -11.9303 -11.8969 -11.8850 -11.8785 -11.8593 -11.8124 -11.8087 -11.7997
   -11.7986 -11.7959 -11.7880 -11.7866 -11.7840 -11.7793 -11.7735 -11.7732
   -11.7727 -11.7706 -11.7676 -11.7671 -11.7645 -11.7628 -11.7577 -11.7560
   -11.7558 -11.7534 -11.7529 -11.7518 -11.7480 -11.7479 -11.7475 -11.7455
   -11.7419 -11.7391 -11.7381 -11.7368 -11.7358 -11.7343 -11.7303 -11.7275
   -11.7264 -11.7254 -11.7227 -11.7212 -11.7210 -11.7188 -11.7155 -11.7152
   -11.7141 -11.7127 -11.7109 -11.7095 -11.7076 -11.7066 -11.7065 -11.7043
   -11.7022 -11.7007 -11.6993 -11.6986 -11.6967 -11.6944 -11.6929 -11.6901
   -11.6887 -11.6843 -11.6801 -11.6771 -11.6755 -11.6741 -11.6699 -11.6683
    -8.2012  -8.1012  -7.7118  -7.7035  -7.6900  -7.4968  -7.3142  -7.0720
    -6.5731  -6.5524  -6.5024  -6.4864  -6.4781  -6.2466  -6.1551  -1.7132
    -1.2329  -1.1401  -1.1306  -0.8570  -0.8081  -0.7003  -0.5565   0.0848
     0.1706   0.2723   0.3163   0.3687   0.3822   0.4897   0.7269   0.9104
     0.9129   1.1344   1.3064   1.4612   1.6937   2.1193   2.2815   4.9888
     5.0325   5.0531   5.0552   5.2008   5.3453   5.4312   5.4627   5.8871
     5.8979   6.0159   6.0913   6.1894   6.3718   6.4076   6.5609   6.6331
     6.7189   6.7428   6.8329   6.8521   6.9316   7.1014   7.1940   7.2430
     7.2565   7.2693   7.3031   7.3346   7.4261   7.4875   7.6516   7.7319
     7.9647   7.9958   8.1368   8.5018   8.5621   8.5661   8.6367   8.7686
     8.7765   8.8649   8.9153   9.0137   9.0565   9.0714   9.1670   9.3765
     9.4068   9.4484   9.4565   9.4821   9.4947   9.5083   9.5458   9.5880
     9.6239   9.8160  10.0195  10.0426  10.1455  10.1481  10.1985  10.4660
    10.4794  10.6044  10.6914  10.7003  11.2972  12.5081  12.5492  12.7669
    13.0156  13.1076  13.3322  13.5154  13.6116  13.8583  13.8930  14.0129
    14.0214  14.1017  14.1931  14.2937  14.3691  14.4490  14.5574  14.5760
    14.6562  14.6653  14.8373  14.8553  14.9153  14.9575  15.0467  15.1684
    15.4089  15.5032  15.5623  15.7229  15.8505  15.8549  16.0483  16.0537
    16.1756  16.1797  16.2457  16.2725  16.3659  16.3720  16.5210  16.5341
    16.5848  16.5946  16.9877

          k = 0.3333 0.3333 0.1065 ( 29175 PWs)   bands (ev):

   -35.4191 -35.4191 -35.4190 -35.4189 -35.4179 -35.4178 -35.4178 -35.4177
   -35.4067 -35.4066 -35.4066 -35.4065 -35.4058 -35.4058 -35.4057 -35.4056
   -35.4012 -35.4011 -35.4011 -35.4010 -35.3411 -35.3411 -35.3411 -35.3410
   -35.3394 -35.3393 -35.3393 -35.3392 -35.3345 -35.3345 -35.3344 -35.3343
   -35.3324 -35.3323 -35.3323 -35.3322 -35.3300 -35.3299 -35.3298 -35.3297
   -11.9865 -11.9850 -11.9748 -11.9742 -11.9674 -11.9645 -11.9559 -11.9430
   -11.9312 -11.8967 -11.8841 -11.8791 -11.8604 -11.8120 -11.8079 -11.7989
   -11.7980 -11.7966 -11.7878 -11.7860 -11.7854 -11.7786 -11.7740 -11.7734
   -11.7723 -11.7714 -11.7689 -11.7673 -11.7662 -11.7618 -11.7576 -11.7570
   -11.7550 -11.7540 -11.7524 -11.7519 -11.7487 -11.7484 -11.7473 -11.7451
   -11.7424 -11.7393 -11.7378 -11.7359 -11.7349 -11.7338 -11.7294 -11.7279
   -11.7261 -11.7247 -11.7223 -11.7216 -11.7197 -11.7180 -11.7155 -11.7146
   -11.7138 -11.7124 -11.7109 -11.7092 -11.7074 -11.7065 -11.7064 -11.7042
   -11.7025 -11.7007 -11.6995 -11.6986 -11.6967 -11.6945 -11.6936 -11.6905
   -11.6891 -11.6846 -11.6805 -11.6773 -11.6757 -11.6743 -11.6700 -11.6685
    -8.2009  -8.1015  -7.7106  -7.7035  -7.6912  -7.4969  -7.3142  -7.0721
    -6.5730  -6.5524  -6.5023  -6.4864  -6.4782  -6.2466  -6.1551  -1.6884
    -1.2762  -1.1231  -1.1140  -0.8783  -0.8351  -0.6909  -0.5664   0.0907
     0.2194   0.2611   0.3253   0.3683   0.3863   0.4888   0.7482   0.8621
     0.9178   1.1394   1.3286   1.4547   1.6718   2.1249   2.2748   5.0036
     5.0262   5.0561   5.0803   5.1852   5.3250   5.4110   5.4452   5.9136
     5.9466   6.0536   6.0948   6.2034   6.3482   6.3761   6.5464   6.6084
     6.7156   6.7526   6.8299   6.8541   6.9279   7.0357   7.0483   7.0982
     7.2408   7.2935   7.3658   7.4351   7.5200   7.5679   7.6903   7.8286
     7.9468   7.9978   8.1743   8.4832   8.5257   8.5632   8.6364   8.7759
     8.7765   8.8224   8.9118   8.9317   9.0543   9.0633   9.1219   9.3409
     9.3932   9.4369   9.4537   9.4967   9.5264   9.5469   9.5510   9.6163
     9.6673   9.8245   9.9814  10.0171  10.0783  10.1555  10.2829  10.4784
    10.4929  10.5991  10.6817  10.6887  11.3301  12.5651  12.6393  12.7957
    12.9329  13.1837  13.3128  13.5172  13.6256  13.7843  13.8569  13.8853
    14.0138  14.1233  14.2009  14.2889  14.3489  14.3905  14.4498  14.5405
    14.5871  14.6148  14.7583  14.9150  14.9685  15.0071  15.1259  15.1548
    15.4172  15.5413  15.6244  15.7862  15.8297  15.9129  16.0318  16.1294
    16.1568  16.2339  16.2427  16.2876  16.3307  16.3900  16.5115  16.5150
    16.5602  16.5830  16.9297

          k = 0.3333 0.3333 0.2129 ( 29182 PWs)   bands (ev):

   -35.4192 -35.4191 -35.4190 -35.4190 -35.4179 -35.4178 -35.4178 -35.4177
   -35.4067 -35.4066 -35.4066 -35.4065 -35.4058 -35.4057 -35.4057 -35.4056
   -35.4013 -35.4012 -35.4011 -35.4010 -35.3412 -35.3411 -35.3411 -35.3410
   -35.3393 -35.3393 -35.3393 -35.3392 -35.3345 -35.3344 -35.3344 -35.3344
   -35.3323 -35.3323 -35.3323 -35.3322 -35.3300 -35.3299 -35.3299 -35.3298
   -11.9860 -11.9838 -11.9742 -11.9734 -11.9680 -11.9661 -11.9570 -11.9407
   -11.9337 -11.8963 -11.8821 -11.8804 -11.8631 -11.8107 -11.8067 -11.7986
   -11.7971 -11.7954 -11.7900 -11.7859 -11.7849 -11.7778 -11.7765 -11.7738
   -11.7720 -11.7714 -11.7706 -11.7687 -11.7672 -11.7621 -11.7577 -11.7572
   -11.7554 -11.7540 -11.7527 -11.7514 -11.7500 -11.7489 -11.7471 -11.7445
   -11.7433 -11.7393 -11.7381 -11.7343 -11.7329 -11.7326 -11.7287 -11.7274
   -11.7254 -11.7237 -11.7222 -11.7210 -11.7181 -11.7163 -11.7149 -11.7148
   -11.7130 -11.7121 -11.7098 -11.7086 -11.7071 -11.7067 -11.7060 -11.7038
   -11.7032 -11.7006 -11.7000 -11.6989 -11.6964 -11.6953 -11.6947 -11.6913
   -11.6901 -11.6852 -11.6813 -11.6776 -11.6760 -11.6749 -11.6702 -11.6691
    -8.2003  -8.1021  -7.7075  -7.7033  -7.6943  -7.4969  -7.3142  -7.0722
    -6.5729  -6.5526  -6.5021  -6.4864  -6.4784  -6.2466  -6.1551  -1.6174
    -1.3816  -1.0767  -1.0670  -0.9298  -0.9042  -0.6674  -0.5910   0.1048
     0.2228   0.3140   0.3652   0.3756   0.4022   0.4906   0.7452   0.8104
     0.8990   1.1515   1.3855   1.4399   1.6158   2.1381   2.2598   5.0084
     5.0408   5.0929   5.1203   5.1515   5.2811   5.3667   5.4004   5.9693
     6.0653   6.1082   6.1594   6.2160   6.2759   6.3660   6.4770   6.5457
     6.6884   6.7593   6.8024   6.8398   6.8661   6.9287   6.9396   7.0474
     7.2155   7.3151   7.4388   7.5381   7.5423   7.6872   7.7969   7.9467
     8.0246   8.0936   8.2219   8.4137   8.4446   8.5387   8.6399   8.7020
     8.7318   8.7758   8.8365   8.8988   8.9930   9.0871   9.0981   9.3082
     9.3413   9.4090   9.4439   9.5053   9.5198   9.5875   9.6294   9.6640
     9.8142   9.8415   9.9145   9.9362  10.0180  10.1185  10.4095  10.5120
    10.5274  10.5800  10.6570  10.6592  11.3911  12.6448  12.7687  12.9196
    12.9914  13.2410  13.3479  13.4391  13.5190  13.6954  13.7695  13.7827
    13.8266  14.0921  14.1224  14.1964  14.2730  14.3536  14.4268  14.5420
    14.5968  14.6167  14.6970  14.8145  14.9750  15.0645  15.1552  15.2621
    15.4613  15.5352  15.7040  15.8635  15.9184  16.0115  16.0583  16.1379
    16.2263  16.2415  16.2945  16.3378  16.3429  16.4431  16.4478  16.4653
    16.5388  16.5808  16.7609

          k = 0.3333 0.3333-0.3194 ( 29178 PWs)   bands (ev):

   -35.4192 -35.4191 -35.4191 -35.4190 -35.4179 -35.4178 -35.4178 -35.4177
   -35.4067 -35.4066 -35.4066 -35.4065 -35.4058 -35.4057 -35.4057 -35.4056
   -35.4012 -35.4012 -35.4011 -35.4010 -35.3412 -35.3411 -35.3411 -35.3410
   -35.3393 -35.3393 -35.3393 -35.3392 -35.3344 -35.3344 -35.3344 -35.3344
   -35.3323 -35.3323 -35.3323 -35.3322 -35.3300 -35.3299 -35.3299 -35.3298
   -11.9858 -11.9831 -11.9739 -11.9729 -11.9685 -11.9669 -11.9575 -11.9383
   -11.9363 -11.8960 -11.8812 -11.8809 -11.8646 -11.8097 -11.8069 -11.7977
   -11.7964 -11.7940 -11.7928 -11.7853 -11.7846 -11.7784 -11.7772 -11.7740
   -11.7724 -11.7716 -11.7706 -11.7693 -11.7672 -11.7627 -11.7579 -11.7566
   -11.7563 -11.7537 -11.7530 -11.7509 -11.7507 -11.7492 -11.7469 -11.7441
   -11.7439 -11.7389 -11.7385 -11.7337 -11.7322 -11.7313 -11.7292 -11.7266
   -11.7247 -11.7233 -11.7227 -11.7199 -11.7180 -11.7156 -11.7150 -11.7140
   -11.7131 -11.7118 -11.7087 -11.7082 -11.7073 -11.7069 -11.7057 -11.7037
   -11.7035 -11.7006 -11.7004 -11.6989 -11.6963 -11.6962 -11.6948 -11.6914
   -11.6910 -11.6855 -11.6817 -11.6778 -11.6761 -11.6753 -11.6703 -11.6693
    -8.2001  -8.1024  -7.7052  -7.7033  -7.6966  -7.4970  -7.3142  -7.0722
    -6.5728  -6.5527  -6.5020  -6.4865  -6.4785  -6.2467  -6.1551  -1.5275
    -1.4878  -1.0379  -0.9954  -0.9853  -0.9719  -0.6473  -0.6117   0.1145
     0.2067   0.3224   0.3783   0.3849   0.4638   0.5180   0.6509   0.8552
     0.8638   1.1588   1.4295   1.4313   1.5727   2.1461   2.2508   5.0002
     5.0719   5.1212   5.1276   5.1393   5.2558   5.3449   5.3677   6.0245
     6.0946   6.1369   6.1617   6.2860   6.3058   6.3408   6.4028   6.5348
     6.5840   6.6930   6.8187   6.8571   6.8621   6.8902   6.9158   7.0371
     7.2155   7.3180   7.4555   7.5538   7.6067   7.7209   7.7674   8.0617
     8.1270   8.1953   8.2881   8.3180   8.3952   8.4595   8.6033   8.6520
     8.6603   8.7757   8.8643   8.8947   8.9379   9.0839   9.1821   9.2291
     9.2994   9.4347   9.4522   9.4684   9.5463   9.5574   9.7136   9.7412
     9.7783   9.8115   9.9306   9.9672  10.0211  10.0232  10.4714  10.5393
    10.5544  10.5617  10.6342  10.6371  11.4196  12.6163  12.8864  13.0174
    13.1764  13.2362  13.3287  13.4077  13.5002  13.5729  13.5791  13.6685
    13.8289  14.0854  14.0858  14.1450  14.2692  14.2992  14.5035  14.5185
    14.6314  14.6653  14.6718  14.7151  14.9910  15.0285  15.1988  15.3196
    15.3932  15.5866  15.7673  15.9093  15.9194  16.0194  16.1007  16.1454
    16.1851  16.2959  16.3523  16.3644  16.3845  16.4143  16.5095  16.5120
    16.5383  16.5568  16.6786

          k = 0.3333-0.5000 0.0000 ( 29156 PWs)   bands (ev):

   -35.4192 -35.4191 -35.4190 -35.4189 -35.4178 -35.4178 -35.4177 -35.4177
   -35.4067 -35.4066 -35.4065 -35.4065 -35.4058 -35.4057 -35.4057 -35.4056
   -35.4012 -35.4012 -35.4011 -35.4010 -35.3412 -35.3411 -35.3411 -35.3410
   -35.3393 -35.3392 -35.3392 -35.3392 -35.3345 -35.3344 -35.3344 -35.3343
   -35.3323 -35.3323 -35.3322 -35.3322 -35.3300 -35.3299 -35.3299 -35.3297
   -11.9839 -11.9805 -11.9803 -11.9784 -11.9657 -11.9614 -11.9606 -11.9310
   -11.9131 -11.9064 -11.8873 -11.8556 -11.8446 -11.8383 -11.8184 -11.8068
   -11.8012 -11.7962 -11.7879 -11.7841 -11.7824 -11.7774 -11.7726 -11.7723
   -11.7670 -11.7656 -11.7652 -11.7635 -11.7614 -11.7601 -11.7586 -11.7574
   -11.7557 -11.7555 -11.7531 -11.7529 -11.7487 -11.7473 -11.7453 -11.7442
   -11.7415 -11.7409 -11.7400 -11.7375 -11.7351 -11.7342 -11.7307 -11.7305
   -11.7298 -11.7244 -11.7238 -11.7227 -11.7203 -11.7186 -11.7180 -11.7175
   -11.7164 -11.7143 -11.7118 -11.7095 -11.7079 -11.7076 -11.7053 -11.7037
   -11.7033 -11.7019 -11.7017 -11.7003 -11.6980 -11.6955 -11.6932 -11.6894
   -11.6885 -11.6837 -11.6833 -11.6796 -11.6775 -11.6746 -11.6714 -11.6688
    -7.9951  -7.9786  -7.9731  -7.8089  -7.5426  -7.5254  -7.5232  -7.1209
    -6.5211  -6.5092  -6.5055  -6.4112  -6.2956  -6.2870  -6.2834  -1.4852
    -1.4488  -1.0703  -1.0340  -0.9638  -0.9268  -0.7123  -0.6931   0.2013
     0.2306   0.2411   0.2518   0.3165   0.3814   0.6634   0.6740   0.8616
     1.0494   1.1760   1.3565   1.7346   1.8474   1.8906   1.9937   4.9113
     4.9676   4.9896   4.9986   5.1789   5.2640   5.4294   5.4303   5.9016
     5.9124   6.2726   6.3501   6.4031   6.4117   6.4725   6.4990   6.5707
     6.6287   6.6858   6.7712   6.9332   6.9388   7.0276   7.0487   7.0775
     7.2634   7.3796   7.3971   7.4163   7.4294   7.4413   7.4516   7.4696
     7.8887   7.9958   8.1521   8.6832   8.7451   8.7559   8.7851   8.8133
     8.8591   8.8873   8.8966   8.9435   8.9588   9.0330   9.1656   9.2004
     9.2503   9.3008   9.3355   9.3680   9.4788   9.5545   9.5617   9.5654
    10.0077  10.0206  10.1005  10.1271  10.1676  10.2197  10.2402  10.2520
    10.4163  10.5704  10.6211  10.6870  11.2439  12.5018  12.5674  12.7596
    12.9460  13.0371  13.0937  13.6510  13.7309  13.7902  13.9476  14.0575
    14.0591  14.1937  14.2367  14.2656  14.4129  14.4295  14.4317  14.5366
    14.5971  14.6479  14.7385  14.7774  14.8854  14.9248  15.2295  15.2352
    15.3141  15.6041  15.6881  15.7132  15.7962  16.0655  16.0983  16.1263
    16.1903  16.2110  16.2341  16.2455  16.2741  16.3226  16.3371  16.3398
    16.6810  16.7869  16.9820

          k = 0.3333-0.5000 0.1065 ( 29140 PWs)   bands (ev):

   -35.4192 -35.4191 -35.4190 -35.4189 -35.4178 -35.4178 -35.4177 -35.4177
   -35.4067 -35.4066 -35.4065 -35.4064 -35.4058 -35.4057 -35.4057 -35.4056
   -35.4012 -35.4011 -35.4010 -35.4009 -35.3412 -35.3411 -35.3410 -35.3409
   -35.3393 -35.3393 -35.3392 -35.3391 -35.3345 -35.3344 -35.3344 -35.3343
   -35.3323 -35.3322 -35.3322 -35.3322 -35.3299 -35.3299 -35.3298 -35.3297
   -11.9835 -11.9802 -11.9799 -11.9782 -11.9660 -11.9618 -11.9612 -11.9308
   -11.9122 -11.9067 -11.8885 -11.8552 -11.8439 -11.8393 -11.8202 -11.8052
   -11.8002 -11.7955 -11.7870 -11.7850 -11.7828 -11.7772 -11.7737 -11.7735
   -11.7672 -11.7664 -11.7650 -11.7648 -11.7613 -11.7598 -11.7584 -11.7575
   -11.7560 -11.7546 -11.7530 -11.7526 -11.7486 -11.7475 -11.7456 -11.7444
   -11.7413 -11.7411 -11.7401 -11.7380 -11.7351 -11.7335 -11.7309 -11.7300
   -11.7295 -11.7237 -11.7235 -11.7219 -11.7200 -11.7179 -11.7178 -11.7165
   -11.7157 -11.7135 -11.7124 -11.7094 -11.7077 -11.7075 -11.7053 -11.7037
   -11.7032 -11.7022 -11.7018 -11.6999 -11.6986 -11.6955 -11.6940 -11.6897
   -11.6888 -11.6842 -11.6836 -11.6799 -11.6778 -11.6748 -11.6715 -11.6691
    -7.9936  -7.9785  -7.9746  -7.8090  -7.5414  -7.5254  -7.5244  -7.1209
    -6.5209  -6.5094  -6.5055  -6.4112  -6.2956  -6.2870  -6.2834  -1.4616
    -1.4289  -1.1014  -1.0748  -0.9482  -0.9137  -0.7281  -0.7142   0.2308
     0.2360   0.2431   0.2753   0.3239   0.3839   0.6442   0.6578   0.8677
     1.0707   1.1782   1.3396   1.7310   1.8512   1.8876   1.9836   4.9281
     4.9822   4.9982   5.0070   5.1615   5.2506   5.4056   5.4099   5.9366
     5.9503   6.2766   6.3719   6.4017   6.4126   6.4510   6.4687   6.5636
     6.6070   6.7097   6.7748   6.9369   6.9389   7.0098   7.0276   7.0326
     7.1702   7.2072   7.3002   7.3065   7.4775   7.5524   7.6119   7.7270
     7.9374   8.0207   8.1880   8.6279   8.7349   8.7360   8.7615   8.8130
     8.8416   8.8876   8.8928   8.9493   8.9731   8.9732   9.1836   9.2407
     9.2433   9.2767   9.3444   9.3758   9.4709   9.5478   9.5973   9.6072
     9.9486   9.9812  10.0605  10.0609  10.1249  10.1484  10.2958  10.3087
    10.4700  10.5949  10.6229  10.6974  11.2704  12.5726  12.6005  12.8301
    12.8750  13.0928  13.1416  13.6354  13.7178  13.8160  13.8567  13.9933
    14.0312  14.1439  14.2341  14.2597  14.3201  14.3715  14.3935  14.4358
    14.5205  14.6619  14.7734  14.8063  14.9368  14.9797  15.2256  15.2265
    15.3439  15.6669  15.6955  15.7618  15.7914  16.0712  16.0784  16.1392
    16.2204  16.2358  16.2398  16.2566  16.2863  16.3380  16.3388  16.3602
    16.6516  16.7490  16.9325

          k = 0.3333-0.5000 0.2129 ( 29158 PWs)   bands (ev):

   -35.4191 -35.4191 -35.4190 -35.4190 -35.4178 -35.4178 -35.4177 -35.4177
   -35.4067 -35.4066 -35.4065 -35.4064 -35.4058 -35.4057 -35.4057 -35.4056
   -35.4012 -35.4011 -35.4011 -35.4010 -35.3411 -35.3411 -35.3411 -35.3410
   -35.3393 -35.3393 -35.3392 -35.3392 -35.3345 -35.3344 -35.3344 -35.3343
   -35.3323 -35.3323 -35.3322 -35.3322 -35.3299 -35.3299 -35.3298 -35.3297
   -11.9828 -11.9795 -11.9790 -11.9777 -11.9668 -11.9628 -11.9624 -11.9305
   -11.9101 -11.9074 -11.8913 -11.8543 -11.8423 -11.8417 -11.8235 -11.8015
   -11.7978 -11.7940 -11.7890 -11.7851 -11.7818 -11.7772 -11.7760 -11.7754
   -11.7705 -11.7674 -11.7651 -11.7637 -11.7614 -11.7599 -11.7579 -11.7576
   -11.7564 -11.7533 -11.7526 -11.7522 -11.7487 -11.7481 -11.7458 -11.7446
   -11.7416 -11.7411 -11.7401 -11.7387 -11.7349 -11.7321 -11.7311 -11.7293
   -11.7290 -11.7230 -11.7222 -11.7199 -11.7194 -11.7176 -11.7166 -11.7144
   -11.7142 -11.7128 -11.7120 -11.7096 -11.7072 -11.7071 -11.7058 -11.7039
   -11.7031 -11.7025 -11.7020 -11.6997 -11.6995 -11.6959 -11.6953 -11.6902
   -11.6893 -11.6853 -11.6842 -11.6804 -11.6784 -11.6752 -11.6717 -11.6697
    -7.9896  -7.9786  -7.9783  -7.8093  -7.5383  -7.5276  -7.5254  -7.1210
    -6.5206  -6.5097  -6.5055  -6.4112  -6.2954  -6.2872  -6.2834  -1.3939
    -1.3738  -1.1766  -1.1746  -0.9038  -0.8830  -0.7690  -0.7651   0.2348
     0.2440   0.2786   0.3171   0.3765   0.4055   0.5886   0.6157   0.8801
     1.1249   1.1826   1.2941   1.7234   1.8614   1.8817   1.9608   4.9697
     4.9963   5.0208   5.0514   5.1186   5.2214   5.3458   5.3651   6.0343
     6.0502   6.2824   6.3209   6.3793   6.4036   6.4516   6.4700   6.5547
     6.5791   6.7503   6.7881   6.8181   6.8612   6.9511   7.0113   7.0131
     7.0859   7.1265   7.2557   7.2714   7.5040   7.6404   7.7467   8.0234
     8.0897   8.1331   8.2627   8.4849   8.6100   8.6377   8.7441   8.7984
     8.8117   8.8455   8.8937   8.8960   9.0013   9.0183   9.1451   9.1938
     9.3277   9.3747   9.3837   9.4102   9.4446   9.5167   9.6815   9.7023
     9.7707   9.7934   9.9778   9.9897  10.1436  10.1641  10.3043  10.3203
    10.5458  10.6247  10.6254  10.7186  11.3294  12.5655  12.7744  12.9093
    13.0086  13.2241  13.2611  13.4678  13.5540  13.7481  13.7641  13.8823
    13.9842  14.1027  14.1510  14.1934  14.1984  14.2552  14.2935  14.3813
    14.5608  14.6929  14.7573  14.8433  15.0220  15.0401  15.1696  15.2055
    15.3816  15.6932  15.7303  15.8424  15.8911  16.0352  16.0799  16.1609
    16.2082  16.2574  16.2853  16.3236  16.3271  16.3445  16.4359  16.4514
    16.5722  16.6411  16.8028

          k = 0.3333-0.5000-0.3194 ( 29148 PWs)   bands (ev):

   -35.4191 -35.4190 -35.4190 -35.4189 -35.4179 -35.4178 -35.4177 -35.4177
   -35.4067 -35.4066 -35.4065 -35.4065 -35.4058 -35.4057 -35.4056 -35.4056
   -35.4012 -35.4011 -35.4011 -35.4010 -35.3411 -35.3410 -35.3410 -35.3409
   -35.3393 -35.3393 -35.3392 -35.3392 -35.3345 -35.3344 -35.3344 -35.3343
   -35.3323 -35.3323 -35.3322 -35.3322 -35.3299 -35.3299 -35.3299 -35.3298
   -11.9824 -11.9793 -11.9785 -11.9774 -11.9672 -11.9634 -11.9630 -11.9303
   -11.9087 -11.9076 -11.8929 -11.8536 -11.8430 -11.8414 -11.8252 -11.7985
   -11.7964 -11.7940 -11.7915 -11.7841 -11.7811 -11.7781 -11.7765 -11.7761
   -11.7724 -11.7686 -11.7644 -11.7632 -11.7614 -11.7601 -11.7576 -11.7576
   -11.7565 -11.7529 -11.7523 -11.7520 -11.7488 -11.7484 -11.7458 -11.7447
   -11.7419 -11.7410 -11.7400 -11.7389 -11.7348 -11.7315 -11.7312 -11.7293
   -11.7285 -11.7228 -11.7216 -11.7191 -11.7185 -11.7177 -11.7162 -11.7138
   -11.7132 -11.7120 -11.7112 -11.7098 -11.7069 -11.7068 -11.7063 -11.7039
   -11.7031 -11.7024 -11.7022 -11.7002 -11.6994 -11.6970 -11.6951 -11.6904
   -11.6895 -11.6859 -11.6845 -11.6806 -11.6787 -11.6754 -11.6718 -11.6700
    -7.9848  -7.9835  -7.9781  -7.8094  -7.5354  -7.5304  -7.5254  -7.1211
    -6.5204  -6.5099  -6.5055  -6.4112  -6.2953  -6.2873  -6.2834  -1.3187
    -1.2974  -1.2862  -1.2411  -0.8590  -0.8456  -0.8324  -0.7923   0.2364
     0.2444   0.2861   0.3292   0.4358   0.4486   0.5282   0.5837   0.8864
     1.1698   1.1848   1.2536   1.7194   1.8688   1.8789   1.9469   5.0010
     5.0017   5.0357   5.0860   5.0891   5.2031   5.3065   5.3388   6.1347
     6.1505   6.2003   6.2639   6.3519   6.4035   6.4459   6.5065   6.5891
     6.6078   6.6457   6.7685   6.8128   6.8253   6.8912   7.0261   7.0274
     7.0467   7.1053   7.2493   7.2750   7.5055   7.6681   7.7832   8.2162
     8.2465   8.3030   8.3093   8.3719   8.3969   8.4913   8.7287   8.7863
     8.7988   8.8346   8.8969   8.8995   9.0192   9.0781   9.1170   9.1200
     9.3767   9.4082   9.4512   9.4683   9.5081   9.5483   9.5812   9.5888
     9.8060   9.8106   9.8781   9.8839  10.1961  10.2316  10.2732  10.2817
    10.5788  10.6236  10.6354  10.7286  11.3627  12.5036  13.0183  13.0430
    13.1015  13.1920  13.2843  13.4252  13.4808  13.5701  13.6310  13.8970
    13.9859  13.9956  14.1289  14.1606  14.1724  14.1914  14.3238  14.3429
    14.6380  14.7017  14.7131  14.8615  15.0577  15.0639  15.1288  15.1950
    15.3787  15.6892  15.7520  15.8896  15.9618  16.0019  16.0845  16.1640
    16.1953  16.2810  16.2839  16.3345  16.4076  16.4302  16.4570  16.5104
    16.5914  16.6055  16.6658

          k =-0.5000-0.5000 0.0000 ( 29128 PWs)   bands (ev):

   -35.4191 -35.4191 -35.4190 -35.4190 -35.4177 -35.4177 -35.4176 -35.4176
   -35.4066 -35.4066 -35.4065 -35.4065 -35.4057 -35.4057 -35.4057 -35.4056
   -35.4012 -35.4011 -35.4011 -35.4010 -35.3411 -35.3411 -35.3411 -35.3410
   -35.3391 -35.3391 -35.3391 -35.3390 -35.3344 -35.3344 -35.3344 -35.3344
   -35.3323 -35.3322 -35.3322 -35.3322 -35.3299 -35.3299 -35.3299 -35.3298
   -11.9841 -11.9807 -11.9807 -11.9788 -11.9656 -11.9618 -11.9618 -11.9236
   -11.8782 -11.8781 -11.8781 -11.8734 -11.8522 -11.8517 -11.8517 -11.8040
   -11.7987 -11.7987 -11.7897 -11.7811 -11.7722 -11.7722 -11.7718 -11.7688
   -11.7687 -11.7647 -11.7635 -11.7608 -11.7595 -11.7587 -11.7587 -11.7555
   -11.7555 -11.7551 -11.7550 -11.7542 -11.7533 -11.7462 -11.7461 -11.7428
   -11.7423 -11.7414 -11.7414 -11.7405 -11.7372 -11.7333 -11.7333 -11.7322
   -11.7272 -11.7219 -11.7219 -11.7219 -11.7202 -11.7196 -11.7196 -11.7185
   -11.7156 -11.7156 -11.7154 -11.7113 -11.7095 -11.7094 -11.7092 -11.7053
   -11.7044 -11.7044 -11.7026 -11.7005 -11.6940 -11.6931 -11.6926 -11.6926
   -11.6905 -11.6838 -11.6838 -11.6803 -11.6792 -11.6792 -11.6729 -11.6694
    -7.7992  -7.7928  -7.7928  -7.7794  -7.7783  -7.7707  -7.7706  -7.1677
    -6.3897  -6.3896  -6.3772  -6.3698  -6.3684  -6.3641  -6.3641  -1.2752
    -1.2484  -1.2483  -1.1998  -0.9476  -0.8901  -0.8655  -0.8655   0.1914
     0.2474   0.2474   0.2954   0.4192   0.5062   0.5062   0.5369   0.8963
     1.4739   1.5190   1.5190   1.5698   1.6598   1.7685   1.7685   4.8236
     4.9108   4.9155   4.9155   5.1843   5.2900   5.3751   5.3751   6.2693
     6.3511   6.3830   6.3830   6.3855   6.4437   6.4437   6.4975   6.5302
     6.6890   6.7903   6.7903   6.8201   6.8319   6.8320   6.9056   6.9831
     7.1785   7.2126   7.2126   7.3824   7.3835   7.4321   7.4322   7.4324
     7.9381   7.9381   8.1809   8.8943   8.8960   8.8960   8.9111   8.9166
     8.9308   8.9308   8.9372   8.9417   9.0045   9.0111   9.0111   9.0169
     9.2309   9.2718   9.2820   9.2821   9.2891   9.3980   9.3980   9.4088
    10.1522  10.1522  10.2385  10.2467  10.4140  10.4140  10.4196  10.4625
    10.4808  10.6312  10.6312  10.7035  10.9621  12.2511  12.2511  12.2828
    12.8519  13.2542  13.2687  13.2688  13.7766  13.9072  13.9072  13.9395
    14.1408  14.1712  14.2933  14.2934  14.4418  14.4698  14.4698  14.5815
    14.6076  14.7102  14.7125  14.7125  15.0890  15.0890  15.2728  15.4491
    15.5725  15.5725  15.6066  15.6223  15.8563  15.8563  15.8773  16.1298
    16.1856  16.1857  16.1868  16.2058  16.2074  16.5976  16.5976  16.6818
    16.6918  16.6958  16.6958

          k =-0.5000-0.5000 0.1065 ( 29144 PWs)   bands (ev):

   -35.4191 -35.4191 -35.4190 -35.4190 -35.4178 -35.4177 -35.4177 -35.4176
   -35.4066 -35.4066 -35.4065 -35.4065 -35.4058 -35.4058 -35.4057 -35.4057
   -35.4011 -35.4011 -35.4010 -35.4009 -35.3411 -35.3411 -35.3411 -35.3410
   -35.3392 -35.3392 -35.3392 -35.3391 -35.3345 -35.3345 -35.3344 -35.3344
   -35.3323 -35.3323 -35.3323 -35.3322 -35.3299 -35.3298 -35.3298 -35.3297
   -11.9838 -11.9804 -11.9804 -11.9787 -11.9660 -11.9623 -11.9623 -11.9237
   -11.8774 -11.8774 -11.8774 -11.8737 -11.8536 -11.8531 -11.8531 -11.8027
   -11.7978 -11.7978 -11.7886 -11.7831 -11.7730 -11.7730 -11.7715 -11.7693
   -11.7693 -11.7660 -11.7627 -11.7623 -11.7586 -11.7580 -11.7580 -11.7566
   -11.7557 -11.7557 -11.7539 -11.7531 -11.7529 -11.7461 -11.7460 -11.7432
   -11.7427 -11.7414 -11.7414 -11.7404 -11.7372 -11.7332 -11.7332 -11.7328
   -11.7272 -11.7218 -11.7218 -11.7207 -11.7191 -11.7185 -11.7185 -11.7180
   -11.7149 -11.7149 -11.7147 -11.7118 -11.7094 -11.7094 -11.7094 -11.7051
   -11.7048 -11.7048 -11.7030 -11.6999 -11.6949 -11.6933 -11.6930 -11.6930
   -11.6901 -11.6841 -11.6841 -11.6809 -11.6794 -11.6794 -11.6731 -11.6697
    -7.7978  -7.7915  -7.7915  -7.7797  -7.7794  -7.7720  -7.7719  -7.1677
    -6.3896  -6.3896  -6.3771  -6.3700  -6.3684  -6.3642  -6.3641  -1.2544
    -1.2277  -1.2277  -1.1893  -0.9612  -0.9236  -0.8985  -0.8984   0.2163
     0.2695   0.2695   0.3019   0.4106   0.4999   0.4999   0.5335   0.8954
     1.4842   1.5274   1.5274   1.5710   1.6457   1.7560   1.7560   4.8460
     4.9276   4.9323   4.9323   5.1580   5.2685   5.3547   5.3547   6.2905
     6.3821   6.3978   6.3978   6.3992   6.4669   6.4669   6.4753   6.5814
     6.6485   6.7215   6.7216   6.8503   6.8796   6.8797   6.8884   6.9781
     7.0524   7.0654   7.0654   7.1035   7.4556   7.5559   7.5559   7.7378
     7.9967   7.9967   8.2080   8.8313   8.8364   8.8364   8.8958   8.9155
     8.9299   8.9299   8.9354   8.9400   9.0266   9.0343   9.0343   9.0443
     9.2670   9.2882   9.3274   9.3312   9.3312   9.3731   9.3731   9.3821
    10.0866  10.0867  10.1362  10.1528  10.4145  10.4145  10.4299  10.4780
    10.5110  10.6193  10.6193  10.6873  11.0254  12.3678  12.3678  12.4031
    12.7117  13.2908  13.2908  13.3368  13.8158  13.8239  13.8261  13.8261
    14.0845  14.2239  14.2239  14.2813  14.3891  14.4411  14.4412  14.5873
    14.6108  14.6651  14.6651  14.6727  15.1661  15.1661  15.2373  15.4928
    15.5231  15.5695  15.5695  15.5948  15.8891  15.8892  15.9834  16.0979
    16.1593  16.2260  16.2261  16.2498  16.2901  16.5592  16.5592  16.6461
    16.6661  16.6678  16.6679

          k =-0.5000-0.5000 0.2129 ( 29112 PWs)   bands (ev):

   -35.4191 -35.4190 -35.4190 -35.4189 -35.4178 -35.4177 -35.4176 -35.4176
   -35.4066 -35.4065 -35.4065 -35.4064 -35.4058 -35.4057 -35.4057 -35.4056
   -35.4011 -35.4011 -35.4010 -35.4009 -35.3411 -35.3410 -35.3410 -35.3409
   -35.3392 -35.3391 -35.3391 -35.3390 -35.3344 -35.3344 -35.3344 -35.3343
   -35.3323 -35.3322 -35.3322 -35.3321 -35.3298 -35.3298 -35.3298 -35.3297
   -11.9830 -11.9796 -11.9796 -11.9785 -11.9669 -11.9632 -11.9632 -11.9238
   -11.8755 -11.8754 -11.8754 -11.8743 -11.8566 -11.8560 -11.8560 -11.7993
   -11.7958 -11.7958 -11.7879 -11.7858 -11.7755 -11.7755 -11.7706 -11.7700
   -11.7694 -11.7694 -11.7625 -11.7610 -11.7589 -11.7578 -11.7568 -11.7568
   -11.7562 -11.7561 -11.7527 -11.7525 -11.7514 -11.7460 -11.7459 -11.7449
   -11.7426 -11.7414 -11.7414 -11.7404 -11.7370 -11.7336 -11.7331 -11.7331
   -11.7271 -11.7216 -11.7216 -11.7189 -11.7184 -11.7164 -11.7164 -11.7152
   -11.7134 -11.7134 -11.7131 -11.7127 -11.7100 -11.7091 -11.7091 -11.7058
   -11.7057 -11.7047 -11.7036 -11.6990 -11.6969 -11.6940 -11.6940 -11.6936
   -11.6889 -11.6849 -11.6849 -11.6823 -11.6798 -11.6798 -11.6734 -11.6704
    -7.7940  -7.7882  -7.7882  -7.7835  -7.7793  -7.7753  -7.7753  -7.1678
    -6.3895  -6.3895  -6.3768  -6.3703  -6.3684  -6.3642  -6.3642  -1.1951
    -1.1690  -1.1689  -1.1635  -1.0070  -0.9929  -0.9805  -0.9805   0.2743
     0.3154   0.3167   0.3167   0.3834   0.4830   0.4830   0.5260   0.8935
     1.5140   1.5482   1.5482   1.5733   1.6081   1.7272   1.7272   4.9083
     4.9694   4.9716   4.9716   5.0880   5.2175   5.3083   5.3083   6.3260
     6.4388   6.4421   6.4422   6.4752   6.5051   6.5253   6.5253   6.5743
     6.6355   6.6355   6.6524   6.8236   6.8405   6.8616   6.8616   6.8769
     6.8973   6.9289   6.9289   6.9631   7.5144   7.6606   7.6606   8.0720
     8.1787   8.1787   8.2777   8.6521   8.6724   8.6724   8.8561   8.9148
     8.9289   8.9289   8.9335   8.9384   9.0720   9.0983   9.0983   9.1161
     9.2214   9.2926   9.2926   9.3100   9.4408   9.4808   9.4809   9.4818
     9.9143   9.9143   9.9197   9.9468  10.4249  10.4249  10.4580  10.5211
    10.5242  10.5957  10.5957  10.6422  11.1622  12.4730  12.6641  12.6641
    12.7100  13.3021  13.3022  13.4908  13.5118  13.5941  13.5941  13.9273
    13.9629  14.1279  14.1279  14.2542  14.3832  14.3833  14.4814  14.6001
    14.6176  14.6308  14.6331  14.6331  15.1873  15.2391  15.2391  15.3507
    15.5402  15.5644  15.5644  15.5717  15.9767  15.9767  16.0043  16.1820
    16.2537  16.3300  16.3300  16.3501  16.3553  16.4724  16.4726  16.5494
    16.5888  16.5891  16.5921

          k =-0.5000-0.5000-0.3194 ( 29216 PWs)   bands (ev):

   -35.4191 -35.4191 -35.4191 -35.4190 -35.4179 -35.4179 -35.4178 -35.4177
   -35.4068 -35.4067 -35.4066 -35.4065 -35.4059 -35.4059 -35.4058 -35.4057
   -35.4013 -35.4012 -35.4012 -35.4011 -35.3411 -35.3411 -35.3411 -35.3410
   -35.3393 -35.3393 -35.3393 -35.3392 -35.3346 -35.3345 -35.3345 -35.3345
   -35.3324 -35.3324 -35.3324 -35.3323 -35.3300 -35.3299 -35.3299 -35.3298
   -11.9826 -11.9792 -11.9792 -11.9784 -11.9674 -11.9637 -11.9637 -11.9239
   -11.8746 -11.8744 -11.8743 -11.8743 -11.8584 -11.8578 -11.8578 -11.7960
   -11.7947 -11.7947 -11.7919 -11.7840 -11.7771 -11.7771 -11.7726 -11.7702
   -11.7693 -11.7693 -11.7625 -11.7604 -11.7599 -11.7575 -11.7567 -11.7567
   -11.7561 -11.7561 -11.7527 -11.7520 -11.7507 -11.7459 -11.7459 -11.7457
   -11.7426 -11.7414 -11.7414 -11.7404 -11.7369 -11.7339 -11.7332 -11.7332
   -11.7271 -11.7215 -11.7215 -11.7183 -11.7182 -11.7154 -11.7154 -11.7135
   -11.7130 -11.7126 -11.7126 -11.7114 -11.7111 -11.7088 -11.7088 -11.7066
   -11.7066 -11.7045 -11.7039 -11.6988 -11.6983 -11.6946 -11.6946 -11.6937
   -11.6880 -11.6853 -11.6853 -11.6835 -11.6801 -11.6801 -11.6735 -11.6708
    -7.7897  -7.7879  -7.7856  -7.7856  -7.7793  -7.7779  -7.7779  -7.1678
    -6.3895  -6.3895  -6.3766  -6.3705  -6.3684  -6.3643  -6.3643  -1.1462
    -1.1068  -1.1067  -1.0924  -1.0923  -1.0682  -1.0682  -1.0130   0.3225
     0.3321   0.3404   0.3439   0.3440   0.4703   0.4703   0.5219   0.8926
     1.5532   1.5618   1.5619   1.5650   1.5744   1.7095   1.7096   4.9944
     4.9959   4.9959   4.9980   4.9983   5.1842   5.2804   5.2804   6.3359
     6.4955   6.4994   6.4994   6.5043   6.5215   6.5215   6.6181   6.6217
     6.6265   6.6316   6.6318   6.6318   6.7522   6.7527   6.7527   6.8177
     6.9311   6.9373   6.9373   6.9411   7.5284   7.6891   7.6891   8.3216
     8.3854   8.3858   8.3858   8.3890   8.4799   8.4799   8.8293   8.9145
     8.9285   8.9285   8.9329   8.9380   9.0995   9.1722   9.1722   9.1935
     9.2112   9.2137   9.2137   9.2143   9.6084   9.6452   9.6452   9.7021
     9.7042   9.7294   9.7354   9.7354  10.4336  10.4337  10.4806  10.5154
    10.5805  10.5815  10.5829  10.5830  11.2405  12.3546  12.9868  12.9868
    13.0985  13.1014  13.1014  13.1178  13.5029  13.5030  13.6015  13.8610
    14.0846  14.0856  14.0877  14.0877  14.3570  14.3570  14.5930  14.6114
    14.6147  14.6210  14.6283  14.6283  15.1968  15.2248  15.2553  15.2553
    15.5515  15.5595  15.5612  15.5612  15.9797  16.0379  16.0379  16.2843
    16.3869  16.3871  16.3977  16.3978  16.4116  16.4332  16.4602  16.4605
    16.4805  16.4823  16.4902

     the Fermi energy is    11.7221 ev

!    total energy              =  -18126.65090592 Ry
     total all-electron energy =   -729913.053883 Ry
     estimated scf accuracy    <          1.5E-09 Ry
     smearing contrib. (-TS)   =       0.00241518 Ry
     internal energy E=F+TS    =  -18126.65332110 Ry

     The total energy is F=E-TS. E is the sum of the following terms:
     one-electron contribution =   -2227.38881949 Ry
     hartree contribution      =    1420.98998834 Ry
     xc contribution           =    -851.78027644 Ry
     ewald contribution        =   -3299.31209929 Ry
     one-center paw contrib.   =  -13169.16211423 Ry

     convergence has been achieved in   9 iterations

     Forces acting on atoms (cartesian axes, Ry/au):

     atom    1 type  1   force =     0.00000000   -0.00050663    0.00006213
     atom    2 type  1   force =     0.00000000   -0.00174149    0.00041509
     atom    3 type  1   force =     0.00174149    0.00000000   -0.00041509
     atom    4 type  1   force =     0.00050663    0.00000000   -0.00006213
     atom    5 type  1   force =     0.00000000    0.00050663    0.00006213
     atom    6 type  1   force =     0.00000000    0.00174149    0.00041509
     atom    7 type  1   force =     0.00000000   -0.00864399   -0.00078263
     atom    8 type  1   force =     0.00000000   -0.00103317   -0.00080846
     atom    9 type  1   force =     0.00103317    0.00000000    0.00080846
     atom   10 type  1   force =     0.00864399    0.00000000    0.00078263
     atom   11 type  1   force =    -0.00174149    0.00000000   -0.00041509
     atom   12 type  1   force =    -0.00050663    0.00000000   -0.00006213
     atom   13 type  1   force =     0.00000000    0.00864399   -0.00078263
     atom   14 type  1   force =     0.00000000    0.00103317   -0.00080846
     atom   15 type  1   force =    -0.00103317    0.00000000    0.00080846
     atom   16 type  1   force =    -0.00864399    0.00000000    0.00078263
     atom   17 type  3   force =     0.00000000   -0.00270916    0.00496203
     atom   18 type  3   force =     0.00270916    0.00000000   -0.00496203
     atom   19 type  3   force =     0.00000000    0.00270916    0.00496203
     atom   20 type  3   force =     0.00000000   -0.00060046   -0.00032092
     atom   21 type  3   force =     0.00060046    0.00000000    0.00032092
     atom   22 type  3   force =    -0.00270916    0.00000000   -0.00496203
     atom   23 type  3   force =     0.00000000    0.00060046   -0.00032092
     atom   24 type  3   force =    -0.00060046    0.00000000    0.00032092
     atom   25 type  2   force =     0.00000000    0.00000000    0.00000000
     atom   26 type  2   force =     0.00000000    0.00000000   -0.00019936
     atom   27 type  2   force =     0.00000000    0.00000000   -0.00473504
     atom   28 type  2   force =     0.00000000    0.00000000    0.00000000
     atom   29 type  2   force =     0.00217243    0.00217243    0.00000000
     atom   30 type  2   force =    -0.00079366    0.00079366    0.00000000
     atom   31 type  2   force =    -0.00217243    0.00217243    0.00000000
     atom   32 type  2   force =     0.00079366    0.00079366    0.00000000
     atom   33 type  2   force =    -0.00079366   -0.00079366    0.00000000
     atom   34 type  2   force =    -0.00217243   -0.00217243    0.00000000
     atom   35 type  2   force =     0.00000000    0.00000000    0.00473504
     atom   36 type  2   force =     0.00000000    0.00000000    0.00019936
     atom   37 type  2   force =     0.00000000    0.00000000    0.00000000
     atom   38 type  2   force =     0.00079366   -0.00079366    0.00000000
     atom   39 type  2   force =     0.00217243   -0.00217243    0.00000000

     Total force =     0.023227     Total SCF correction =     0.000160


     Computing stress (Cartesian axis) and pressure

          total   stress  (Ry/bohr**3)                   (kbar)     P=       -2.58
  -0.00001633  -0.00000000   0.00000000           -2.40       -0.00        0.00
  -0.00000000  -0.00001633   0.00000000           -0.00       -2.40        0.00
   0.00000000   0.00000000  -0.00001987            0.00        0.00       -2.92

     Energy error            =      7.2E-04 Ry
     Gradient error          =      8.6E-03 Ry/Bohr

     number of scf cycles    =   2
     number of bfgs steps    =   1

     energy             old  =  -18126.6501889266 Ry
     energy             new  =  -18126.6509059204 Ry

     CASE: energy            _new < energy            _old


     WARNING: bfgs curvature condition failed, Theta= 0.978
     new trust radius        =       0.0117396349 bohr
     new conv_thr            =            7.8E-11 Ry


ATOMIC_POSITIONS (crystal)
Bi               0.0000000000       -0.0000761818        0.3549603549
Bi               0.0000000000       -0.0003656018        0.6451390282
Bi               0.2503656801        0.2500000783        0.8548609189
Bi               0.2500762601        0.2500000783        0.1450396825
Bi               0.0000000000        0.5000762091        0.3549603549
Bi               0.0000000000        0.5003656291        0.6451390282
Bi               0.5000000273       -0.0015308293        0.3548490572
Bi               0.5000000273       -0.0002111998        0.6450332358
Bi               0.2502112781        0.7499999763        0.8549667113
Bi               0.2515309076        0.7499999763        0.1451509802
Bi               0.7496343745        0.2500000783        0.8548609189
Bi               0.7499237945        0.2500000783        0.1450396825
Bi               0.5000000273        0.5015308566        0.3548490572
Bi               0.5000000273        0.5002112271        0.6450332358
Bi               0.7497887765        0.7499999763        0.8549667113
Bi               0.7484691470        0.7499999763        0.1451509802
Se               0.0000000000       -0.0004383077        0.0005292446
Se               0.2504383860        0.2500000783        0.4994707928
Se               0.0000000000        0.5004383350        0.0005292446
Se               0.5000000273       -0.0000898941       -0.0000251860
Se               0.2500899724        0.7499999763        0.5000252234
Se               0.7495616686        0.2500000783        0.4994707928
Se               0.5000000273        0.5000899214       -0.0000251860
Se               0.7499100822        0.7499999763        0.5000252234
O                0.0000000000        0.2500000783        0.2499999774
O                0.0000000000        0.7499999763        0.7499736232
O                0.0000000000        0.7499999763        0.2494902213
O                0.0000000000        0.2500000783        0.7500000148
O                0.7503920423        0.0003920660        0.2499999774
O                0.2498517152        0.0001483631        0.7500000148
O                0.2496080123        0.0003920660        0.2499999774
O                0.7501483394        0.0001483631        0.7500000148
O                0.2498517152        0.4998516642        0.7500000148
O                0.2496080123        0.4996079613        0.2499999774
O                0.5000000273        0.2500000783        0.2505097335
O                0.5000000273        0.2500000783        0.7500264064
O                0.5000000273        0.7499999763        0.7500000148
O                0.7501483394        0.4998516642        0.7500000148
O                0.7503920423        0.4996079613        0.2499999774



     Writing config-only to output data dir ./out/voxy.save/ :
     XML data file
     NEW-OLD atomic charge density approx. for the potential

     total cpu time spent up to now is     1171.1 secs

     Self-consistent Calculation

     iteration #  1     ecut=    50.00 Ry     beta= 0.40
     Davidson diagonalization with overlap
     ethr =  1.00E-06,  avg # of iterations =  5.2

     Threshold (ethr) on eigenvalues was too large:
     Diagonalizing with lowered threshold

     Davidson diagonalization with overlap
     ethr =  2.35E-08,  avg # of iterations =  4.7

     total cpu time spent up to now is     1251.3 secs

     total energy              =  -18126.65166016 Ry
     estimated scf accuracy    <       0.00011110 Ry

     iteration #  2     ecut=    50.00 Ry     beta= 0.40
     Davidson diagonalization with overlap
     ethr =  2.43E-08,  avg # of iterations =  3.1

     total cpu time spent up to now is     1279.7 secs

     total energy              =  -18126.65162206 Ry
     estimated scf accuracy    <       0.00026254 Ry

     iteration #  3     ecut=    50.00 Ry     beta= 0.40
     Davidson diagonalization with overlap
     ethr =  2.43E-08,  avg # of iterations =  2.0
     Minimization algorithm failed to find Fermi energy: reverting to bisection
     Possible cause: smearing is larger than the electronic band-gap.

     total cpu time spent up to now is     1303.8 secs

     total energy              =  -18126.65160674 Ry
     estimated scf accuracy    <       0.00003158 Ry

     iteration #  4     ecut=    50.00 Ry     beta= 0.40
     Davidson diagonalization with overlap
     ethr =  6.89E-09,  avg # of iterations =  2.0

     total cpu time spent up to now is     1327.6 secs

     total energy              =  -18126.65157061 Ry
     estimated scf accuracy    <       0.00000357 Ry

     iteration #  5     ecut=    50.00 Ry     beta= 0.40
     Davidson diagonalization with overlap
     ethr =  7.80E-10,  avg # of iterations =  4.0
     Minimization algorithm failed to find Fermi energy: reverting to bisection
     Possible cause: smearing is larger than the electronic band-gap.

     total cpu time spent up to now is     1358.6 secs

     total energy              =  -18126.65155891 Ry
     estimated scf accuracy    <       0.00000080 Ry

     iteration #  6     ecut=    50.00 Ry     beta= 0.40
     Davidson diagonalization with overlap
     ethr =  1.75E-10,  avg # of iterations =  4.0

     total cpu time spent up to now is     1392.0 secs

     total energy              =  -18126.65155624 Ry
     estimated scf accuracy    <       0.00000016 Ry

     iteration #  7     ecut=    50.00 Ry     beta= 0.40
     Davidson diagonalization with overlap
     ethr =  3.44E-11,  avg # of iterations =  3.4

     total cpu time spent up to now is     1423.5 secs

     total energy              =  -18126.65155560 Ry
     estimated scf accuracy    <       0.00000004 Ry

     iteration #  8     ecut=    50.00 Ry     beta= 0.40
     Davidson diagonalization with overlap
     ethr =  9.44E-12,  avg # of iterations =  3.8
     Minimization algorithm failed to find Fermi energy: reverting to bisection
     Possible cause: smearing is larger than the electronic band-gap.

     total cpu time spent up to now is     1455.8 secs

     total energy              =  -18126.65155555 Ry
     estimated scf accuracy    <          8.8E-09 Ry

     iteration #  9     ecut=    50.00 Ry     beta= 0.40
     Davidson diagonalization with overlap
     ethr =  1.93E-12,  avg # of iterations =  4.0

     total cpu time spent up to now is     1488.5 secs

     total energy              =  -18126.65155555 Ry
     estimated scf accuracy    <          1.4E-09 Ry

     iteration # 10     ecut=    50.00 Ry     beta= 0.40
     Davidson diagonalization with overlap
     ethr =  3.16E-13,  avg # of iterations =  3.4

     total cpu time spent up to now is     1519.1 secs

     total energy              =  -18126.65155555 Ry
     estimated scf accuracy    <          4.8E-10 Ry

     iteration # 11     ecut=    50.00 Ry     beta= 0.40
     Davidson diagonalization with overlap
     ethr =  1.05E-13,  avg # of iterations =  2.0

     total cpu time spent up to now is     1544.7 secs

     End of self-consistent calculation

          k = 0.0000 0.0000 0.0000 ( 29231 PWs)   bands (ev):

   -35.4131 -35.4130 -35.4130 -35.4129 -35.4119 -35.4118 -35.4118 -35.4117
   -35.4005 -35.4005 -35.4004 -35.4004 -35.4001 -35.4000 -35.3999 -35.3998
   -35.3952 -35.3952 -35.3952 -35.3951 -35.3483 -35.3483 -35.3483 -35.3482
   -35.3466 -35.3466 -35.3465 -35.3464 -35.3416 -35.3416 -35.3415 -35.3414
   -35.3397 -35.3396 -35.3395 -35.3395 -35.3373 -35.3372 -35.3372 -35.3371
   -12.0038 -12.0012 -11.9977 -11.9751 -11.9738 -11.9540 -11.9355 -11.9355
   -11.9329 -11.9311 -11.9107 -11.9107 -11.9008 -11.8155 -11.8008 -11.8008
   -11.7985 -11.7957 -11.7957 -11.7956 -11.7903 -11.7788 -11.7788 -11.7778
   -11.7777 -11.7776 -11.7742 -11.7742 -11.7685 -11.7672 -11.7671 -11.7554
   -11.7554 -11.7546 -11.7520 -11.7512 -11.7506 -11.7505 -11.7497 -11.7389
   -11.7372 -11.7371 -11.7359 -11.7305 -11.7305 -11.7282 -11.7271 -11.7260
   -11.7244 -11.7229 -11.7229 -11.7175 -11.7175 -11.7139 -11.7118 -11.7096
   -11.7079 -11.7079 -11.7065 -11.7053 -11.7052 -11.7042 -11.6990 -11.6973
   -11.6946 -11.6946 -11.6888 -11.6883 -11.6883 -11.6878 -11.6846 -11.6840
   -11.6840 -11.6783 -11.6717 -11.6680 -11.6680 -11.6628 -11.6600 -11.6600
    -8.5916  -8.4079  -7.1542  -7.1542  -7.1436  -7.1386  -7.1386  -7.1372
    -7.1173  -6.8782  -6.7961  -6.7740  -6.7700  -6.1006  -5.9340  -2.1277
    -1.5538  -0.6350  -0.6295  -0.6295  -0.6226  -0.2544  -0.2544  -0.0450
    -0.0450   0.0520   0.0553   0.2283   0.2283   0.4147   0.4222   0.4223
     0.8549   1.1252   1.1277   1.1277   1.4467   2.3793   3.1913   5.3514
     5.3916   5.3916   5.4546   5.5832   5.5832   5.6620   5.9312   5.9398
     5.9566   5.9567   6.0544   6.1128   6.1348   6.1348   6.3216   6.3216
     6.3588   6.7891   6.7977   6.8222   6.8222   6.8340   6.8404   6.9367
     6.9403   6.9403   7.2545   7.2546   7.3823   7.4505   7.4845   7.6941
     7.6941   8.1290   8.3254   8.4095   8.4095   8.4436   8.4707   8.4708
     8.4803   8.8008   8.9165   8.9165   8.9412   9.0754   9.2139   9.2139
     9.5174   9.7504   9.7706   9.7707   9.7818   9.8411   9.8411  10.0007
    10.0007  10.1647  10.2486  10.2486  10.5388  10.5388  10.5741  10.6179
    10.7662  10.8501  10.8505  10.8586  10.8587  11.5709  11.8003  12.0261
    12.8027  12.9250  13.1727  13.1727  13.6360  13.6360  13.9216  14.0105
    14.0105  14.1263  14.3464  14.3464  14.4874  14.4903  14.5720  14.6170
    14.7659  14.7659  14.9958  15.0809  15.0991  15.3376  15.3376  15.4427
    15.5949  15.6406  15.7521  15.7521  15.7932  15.7932  15.8007  15.8071
    15.9135  15.9645  15.9645  16.0019  16.2295  16.2295  16.3222  16.6705
    17.0237  17.1392  17.1392

          k = 0.0000 0.0000 0.1065 ( 29155 PWs)   bands (ev):

   -35.4130 -35.4129 -35.4129 -35.4128 -35.4118 -35.4117 -35.4117 -35.4116
   -35.4004 -35.4004 -35.4003 -35.4002 -35.3999 -35.3999 -35.3998 -35.3998
   -35.3952 -35.3952 -35.3951 -35.3949 -35.3482 -35.3482 -35.3482 -35.3481
   -35.3465 -35.3465 -35.3464 -35.3464 -35.3415 -35.3414 -35.3414 -35.3414
   -35.3395 -35.3395 -35.3395 -35.3394 -35.3373 -35.3372 -35.3371 -35.3369
   -12.0037 -12.0003 -11.9971 -11.9752 -11.9749 -11.9545 -11.9353 -11.9353
   -11.9329 -11.9309 -11.9109 -11.9109 -11.9009 -11.8144 -11.8001 -11.8001
   -11.7988 -11.7953 -11.7951 -11.7951 -11.7901 -11.7801 -11.7785 -11.7785
   -11.7779 -11.7774 -11.7744 -11.7744 -11.7691 -11.7681 -11.7681 -11.7569
   -11.7569 -11.7549 -11.7528 -11.7514 -11.7514 -11.7499 -11.7490 -11.7419
   -11.7370 -11.7370 -11.7332 -11.7293 -11.7292 -11.7281 -11.7264 -11.7249
   -11.7223 -11.7219 -11.7219 -11.7171 -11.7171 -11.7134 -11.7116 -11.7092
   -11.7076 -11.7075 -11.7074 -11.7051 -11.7051 -11.7045 -11.6988 -11.6980
   -11.6949 -11.6949 -11.6891 -11.6887 -11.6887 -11.6881 -11.6851 -11.6840
   -11.6840 -11.6783 -11.6721 -11.6682 -11.6682 -11.6627 -11.6601 -11.6601
    -8.5915  -8.4081  -7.1533  -7.1533  -7.1436  -7.1394  -7.1394  -7.1365
    -7.1179  -6.8782  -6.7958  -6.7742  -6.7700  -6.1006  -5.9340  -2.0993
    -1.6090  -0.6350  -0.6285  -0.6284  -0.6217  -0.2467  -0.2467  -0.0606
    -0.0606   0.0395   0.1535   0.2360   0.2360   0.4143   0.4200   0.4201
     0.8534   1.1175   1.1297   1.1297   1.3322   2.4723   3.1621   5.3788
     5.3943   5.3943   5.4765   5.5774   5.5774   5.6299   5.8711   5.8851
     5.9375   5.9376   6.0772   6.1439   6.1440   6.1675   6.3491   6.3491
     6.3782   6.7899   6.7986   6.8221   6.8221   6.8331   6.8396   6.8853
     6.8883   6.8883   7.2802   7.2802   7.3902   7.5272   7.5541   7.7150
     7.7150   8.1291   8.3237   8.4183   8.4183   8.4635   8.4767   8.4768
     8.5128   8.7246   8.8216   8.9164   8.9164   9.0116   9.2139   9.2139
     9.5147   9.7379   9.7593   9.7594   9.7959   9.8637   9.8637   9.9749
     9.9750  10.1736  10.2171  10.2171  10.5378  10.5378  10.5724  10.6183
    10.8000  10.8503  10.8509  10.8589  10.8589  11.6797  11.9545  11.9864
    12.7604  12.9859  13.1940  13.1940  13.6246  13.6247  13.7595  14.0835
    14.0835  14.1271  14.1317  14.3603  14.3603  14.4834  14.4871  14.7459
    14.7598  14.7598  14.9286  15.1746  15.3028  15.3028  15.3235  15.5030
    15.5030  15.5272  15.5549  15.6824  15.7677  15.7677  15.8067  15.8132
    15.9721  16.0040  16.1836  16.1836  16.2939  16.2939  16.3436  16.6429
    16.9699  17.1187  17.1187

          k = 0.0000 0.0000 0.2129 ( 29220 PWs)   bands (ev):

   -35.4131 -35.4131 -35.4130 -35.4129 -35.4119 -35.4118 -35.4118 -35.4117
   -35.4005 -35.4004 -35.4004 -35.4003 -35.4000 -35.3999 -35.3999 -35.3998
   -35.3952 -35.3951 -35.3951 -35.3950 -35.3484 -35.3483 -35.3483 -35.3482
   -35.3467 -35.3466 -35.3465 -35.3465 -35.3416 -35.3415 -35.3414 -35.3414
   -35.3396 -35.3395 -35.3395 -35.3395 -35.3372 -35.3371 -35.3371 -35.3370
   -12.0037 -11.9983 -11.9962 -11.9773 -11.9755 -11.9556 -11.9351 -11.9351
   -11.9330 -11.9307 -11.9113 -11.9113 -11.9012 -11.8113 -11.8003 -11.7987
   -11.7987 -11.7947 -11.7941 -11.7941 -11.7894 -11.7844 -11.7780 -11.7780
   -11.7779 -11.7770 -11.7751 -11.7751 -11.7702 -11.7697 -11.7697 -11.7597
   -11.7596 -11.7554 -11.7545 -11.7531 -11.7531 -11.7503 -11.7472 -11.7441
   -11.7370 -11.7370 -11.7301 -11.7281 -11.7270 -11.7270 -11.7245 -11.7225
   -11.7202 -11.7202 -11.7181 -11.7161 -11.7161 -11.7132 -11.7111 -11.7094
   -11.7082 -11.7070 -11.7070 -11.7053 -11.7049 -11.7049 -11.7000 -11.6985
   -11.6954 -11.6954 -11.6896 -11.6896 -11.6896 -11.6887 -11.6862 -11.6841
   -11.6841 -11.6785 -11.6732 -11.6685 -11.6685 -11.6628 -11.6603 -11.6603
    -8.5912  -8.4084  -7.1512  -7.1512  -7.1435  -7.1416  -7.1416  -7.1350
    -7.1195  -6.8782  -6.7953  -6.7747  -6.7701  -6.1006  -5.9340  -2.0173
    -1.7396  -0.6350  -0.6264  -0.6263  -0.6199  -0.2273  -0.2272  -0.0944
    -0.0944   0.0407   0.2494   0.2494   0.3467   0.4159   0.4159   0.4383
     0.8470   1.0075   1.1337   1.1337   1.1775   2.6507   3.0828   5.4002
     5.4002   5.4588   5.5279   5.5655   5.5655   5.5901   5.7333   5.7969
     5.9089   5.9090   6.0322   6.1402   6.1402   6.3083   6.4459   6.4459
     6.4798   6.7531   6.7603   6.7603   6.7914   6.8004   6.8228   6.8228
     6.8312   6.8379   7.2789   7.3280   7.3280   7.7551   7.7551   7.7741
     7.8186   8.1292   8.3065   8.4321   8.4321   8.4865   8.4932   8.4932
     8.5160   8.5270   8.6068   8.8875   8.9161   8.9161   9.2139   9.2139
     9.5154   9.7179   9.7370   9.7370   9.8549   9.9112   9.9112   9.9377
     9.9378  10.1132  10.1353  10.1354  10.5364  10.5364  10.5907  10.6169
    10.8508  10.8517  10.8594  10.8595  10.9069  11.7989  12.0353  12.3537
    12.6362  13.0969  13.2436  13.2436  13.4785  13.5017  13.5924  13.5924
    14.2464  14.2858  14.2858  14.3914  14.3914  14.4754  14.4799  14.7412
    14.7412  14.7876  14.9261  15.0334  15.0334  15.0432  15.3609  15.3768
    15.3768  15.5167  15.7065  15.7845  15.7846  15.8186  15.8245  15.9793
    16.1032  16.1718  16.2131  16.2131  16.4051  16.5677  16.5709  16.5709
    16.7726  17.0464  17.0483

          k = 0.0000 0.0000-0.3194 ( 29204 PWs)   bands (ev):

   -35.4131 -35.4130 -35.4130 -35.4129 -35.4118 -35.4118 -35.4117 -35.4116
   -35.4004 -35.4004 -35.4004 -35.4003 -35.3999 -35.3999 -35.3998 -35.3997
   -35.3953 -35.3951 -35.3951 -35.3950 -35.3483 -35.3483 -35.3483 -35.3482
   -35.3466 -35.3465 -35.3465 -35.3464 -35.3415 -35.3415 -35.3413 -35.3413
   -35.3396 -35.3395 -35.3394 -35.3394 -35.3373 -35.3372 -35.3371 -35.3371
   -12.0037 -11.9971 -11.9956 -11.9788 -11.9757 -11.9561 -11.9350 -11.9350
   -11.9330 -11.9306 -11.9115 -11.9115 -11.9014 -11.8087 -11.8023 -11.7980
   -11.7980 -11.7944 -11.7935 -11.7935 -11.7887 -11.7865 -11.7779 -11.7778
   -11.7778 -11.7768 -11.7755 -11.7755 -11.7706 -11.7703 -11.7703 -11.7610
   -11.7609 -11.7557 -11.7556 -11.7539 -11.7539 -11.7505 -11.7462 -11.7452
   -11.7370 -11.7370 -11.7280 -11.7279 -11.7259 -11.7259 -11.7237 -11.7211
   -11.7194 -11.7194 -11.7162 -11.7155 -11.7155 -11.7124 -11.7115 -11.7108
   -11.7073 -11.7068 -11.7067 -11.7060 -11.7047 -11.7047 -11.7012 -11.6984
   -11.6957 -11.6957 -11.6901 -11.6901 -11.6897 -11.6890 -11.6869 -11.6841
   -11.6841 -11.6786 -11.6738 -11.6686 -11.6686 -11.6628 -11.6603 -11.6603
    -8.5910  -8.4086  -7.1496  -7.1496  -7.1435  -7.1431  -7.1431  -7.1341
    -7.1203  -6.8782  -6.7951  -6.7750  -6.7701  -6.1006  -5.9340  -1.9097
    -1.8694  -0.6351  -0.6253  -0.6252  -0.6190  -0.2135  -0.2135  -0.1147
    -0.1146   0.0418   0.2553   0.2553   0.3877   0.4139   0.4140   0.6274
     0.7497   0.8707   1.1357   1.1357   1.1607   2.7589   3.0155   5.4034
     5.4034   5.5396   5.5593   5.5593   5.5811   5.5849   5.6111   5.7379
     5.8972   5.8973   5.9972   6.1334   6.1335   6.4138   6.5606   6.5606
     6.5790   6.6206   6.6352   6.6352   6.7922   6.8014   6.8226   6.8226
     6.8302   6.8371   7.2082   7.3503   7.3503   7.7747   7.7747   8.0337
     8.1293   8.1637   8.1656   8.1660   8.3864   8.4371   8.4371   8.5036
     8.5036   8.5238   8.6884   8.7896   8.9159   8.9159   9.2139   9.2139
     9.5182   9.7070   9.7259   9.7259   9.8900   9.8901   9.9411  10.0071
    10.0072  10.0146  10.0504  10.0505  10.5360  10.5360  10.6084  10.6100
    10.8510  10.8521  10.8597  10.8598  10.9872  11.7363  12.3103  12.4239
    12.8806  12.9060  13.1719  13.2739  13.2739  13.3328  13.5698  13.5699
    14.3853  14.3886  14.3886  14.4714  14.4764  14.5608  14.5608  14.6245
    14.6245  14.7275  14.8324  14.8325  14.8660  14.9486  15.3636  15.3636
    15.4820  15.4861  15.7094  15.7921  15.7922  15.8246  15.8304  15.9748
    16.2198  16.2199  16.3811  16.4679  16.5078  16.5333  16.6244  16.6269
    16.7337  16.7337  16.9637

          k = 0.0000 0.1667 0.0000 ( 29199 PWs)   bands (ev):

   -35.4130 -35.4130 -35.4129 -35.4129 -35.4118 -35.4118 -35.4117 -35.4117
   -35.4005 -35.4004 -35.4004 -35.4003 -35.4000 -35.3999 -35.3999 -35.3997
   -35.3952 -35.3952 -35.3951 -35.3950 -35.3483 -35.3483 -35.3482 -35.3482
   -35.3466 -35.3465 -35.3465 -35.3464 -35.3416 -35.3415 -35.3415 -35.3414
   -35.3396 -35.3396 -35.3395 -35.3395 -35.3372 -35.3372 -35.3371 -35.3370
   -12.0012 -11.9967 -11.9933 -11.9726 -11.9695 -11.9582 -11.9522 -11.9395
   -11.9364 -11.9225 -11.9145 -11.9017 -11.8811 -11.8150 -11.8036 -11.7989
   -11.7965 -11.7949 -11.7938 -11.7924 -11.7880 -11.7821 -11.7786 -11.7771
   -11.7768 -11.7752 -11.7728 -11.7700 -11.7680 -11.7667 -11.7654 -11.7583
   -11.7552 -11.7550 -11.7537 -11.7493 -11.7493 -11.7480 -11.7468 -11.7423
   -11.7389 -11.7371 -11.7344 -11.7344 -11.7325 -11.7315 -11.7287 -11.7266
   -11.7265 -11.7240 -11.7209 -11.7181 -11.7161 -11.7134 -11.7126 -11.7111
   -11.7094 -11.7092 -11.7089 -11.7073 -11.7063 -11.7055 -11.6996 -11.6989
   -11.6978 -11.6940 -11.6926 -11.6896 -11.6885 -11.6880 -11.6868 -11.6855
   -11.6845 -11.6785 -11.6729 -11.6701 -11.6680 -11.6634 -11.6630 -11.6607
    -8.5403  -8.3655  -7.5059  -7.4163  -7.1320  -7.1163  -7.1162  -6.9707
    -6.8220  -6.8008  -6.7975  -6.7911  -6.7771  -6.1224  -5.9659  -2.0740
    -1.5111  -0.8986  -0.7162  -0.6023  -0.6011  -0.2645  -0.2552  -0.0478
    -0.0325   0.0660   0.1109   0.2750   0.3203   0.4037   0.4134   0.6624
     0.8015   0.9674   1.0776   1.3459   1.4598   2.3556   3.0497   5.2798
     5.3602   5.4062   5.4375   5.4464   5.6044   5.6626   5.7988   5.8043
     5.8219   5.8395   5.9545   5.9551   6.1585   6.2367   6.2532   6.4099
     6.4364   6.5525   6.6979   6.8682   6.9159   7.0423   7.0536   7.1238
     7.1972   7.2187   7.3335   7.4231   7.5210   7.6075   7.6417   7.7197
     7.8106   7.9388   8.2091   8.2778   8.3626   8.4090   8.4402   8.4411
     8.5991   8.8178   8.8591   8.8888   8.9762   9.0871   9.1148   9.1206
     9.5057   9.5730   9.7383   9.7550   9.8201   9.8393   9.8527   9.8775
     9.8984  10.1604  10.2574  10.2737  10.3506  10.3981  10.4168  10.5609
    10.5933  10.6084  10.7268  10.8315  10.9969  11.9344  12.1259  12.2836
    12.7970  13.0112  13.0351  13.3341  13.6170  13.7243  13.7720  13.9922
    14.0555  14.2784  14.3292  14.4383  14.4517  14.5090  14.6314  14.6743
    14.9072  14.9433  15.0608  15.0683  15.1038  15.1385  15.1869  15.3240
    15.4106  15.4647  15.5026  15.5330  15.6691  15.7579  15.8214  15.8680
    16.0004  16.0626  16.0683  16.0803  16.2365  16.3788  16.4407  16.8535
    16.9874  17.0232  17.1106

          k = 0.0000 0.1667 0.1065 ( 29197 PWs)   bands (ev):

   -35.4130 -35.4130 -35.4129 -35.4129 -35.4118 -35.4118 -35.4117 -35.4116
   -35.4005 -35.4005 -35.4004 -35.4003 -35.3999 -35.3999 -35.3999 -35.3998
   -35.3953 -35.3951 -35.3951 -35.3950 -35.3483 -35.3483 -35.3482 -35.3481
   -35.3466 -35.3465 -35.3465 -35.3464 -35.3415 -35.3415 -35.3415 -35.3414
   -35.3396 -35.3395 -35.3395 -35.3395 -35.3373 -35.3372 -35.3371 -35.3370
   -12.0012 -11.9958 -11.9928 -11.9727 -11.9705 -11.9581 -11.9528 -11.9393
   -11.9364 -11.9230 -11.9148 -11.9009 -11.8818 -11.8139 -11.8028 -11.7983
   -11.7968 -11.7945 -11.7937 -11.7921 -11.7880 -11.7819 -11.7797 -11.7777
   -11.7768 -11.7750 -11.7730 -11.7709 -11.7684 -11.7671 -11.7665 -11.7593
   -11.7559 -11.7552 -11.7544 -11.7503 -11.7501 -11.7476 -11.7473 -11.7443
   -11.7371 -11.7371 -11.7336 -11.7329 -11.7324 -11.7299 -11.7278 -11.7258
   -11.7255 -11.7222 -11.7202 -11.7178 -11.7157 -11.7133 -11.7124 -11.7107
   -11.7094 -11.7092 -11.7087 -11.7070 -11.7068 -11.7057 -11.6995 -11.6990
   -11.6985 -11.6942 -11.6929 -11.6899 -11.6889 -11.6883 -11.6868 -11.6858
   -11.6847 -11.6786 -11.6734 -11.6702 -11.6682 -11.6634 -11.6631 -11.6608
    -8.5401  -8.3657  -7.5057  -7.4165  -7.1311  -7.1170  -7.1162  -6.9707
    -6.8217  -6.8010  -6.7974  -6.7908  -6.7775  -6.1224  -5.9659  -2.0459
    -1.5649  -0.8869  -0.7286  -0.6013  -0.6008  -0.2592  -0.2506  -0.0613
    -0.0421   0.0888   0.1747   0.2790   0.3238   0.4087   0.4126   0.6097
     0.8353   1.0020   1.0790   1.2506   1.4299   2.4286   3.0240   5.2936
     5.3700   5.4053   5.4400   5.4439   5.5864   5.6568   5.7130   5.7550
     5.7957   5.8792   5.9664   6.0304   6.1111   6.2973   6.3084   6.4367
     6.4607   6.5792   6.6964   6.8274   6.8356   6.9792   7.1006   7.1331
     7.1968   7.2182   7.3145   7.3966   7.4644   7.6834   7.6935   7.7737
     7.8649   7.9380   8.2183   8.3072   8.3669   8.4211   8.4426   8.4452
     8.5873   8.7465   8.7940   8.8684   8.9085   8.9871   9.1302   9.1358
     9.4769   9.6580   9.7312   9.7567   9.8116   9.8647   9.8746   9.8942
     9.9188  10.1156  10.2369  10.2675  10.3515  10.4088  10.4266  10.5542
    10.5852  10.6050  10.7339  10.8247  11.0376  12.0036  12.2282  12.2506
    12.8012  13.0223  13.0625  13.3469  13.6149  13.7357  13.7528  13.8929
    14.0848  14.1863  14.2273  14.3278  14.4430  14.4578  14.6311  14.6561
    14.7955  14.9382  15.0300  15.0540  15.1304  15.2071  15.3729  15.4189
    15.4447  15.5194  15.5294  15.5382  15.6396  15.7313  15.8086  15.8886
    16.0135  16.0536  16.0774  16.2287  16.2341  16.3907  16.4381  16.8345
    16.9657  16.9702  17.0960

          k = 0.0000 0.1667 0.2129 ( 29192 PWs)   bands (ev):

   -35.4130 -35.4130 -35.4130 -35.4129 -35.4118 -35.4118 -35.4118 -35.4116
   -35.4005 -35.4004 -35.4004 -35.4003 -35.3999 -35.3999 -35.3999 -35.3998
   -35.3952 -35.3951 -35.3951 -35.3950 -35.3483 -35.3483 -35.3482 -35.3482
   -35.3466 -35.3465 -35.3465 -35.3464 -35.3415 -35.3415 -35.3415 -35.3414
   -35.3396 -35.3395 -35.3395 -35.3395 -35.3372 -35.3371 -35.3371 -35.3370
   -12.0012 -11.9939 -11.9918 -11.9730 -11.9729 -11.9576 -11.9543 -11.9388
   -11.9362 -11.9239 -11.9154 -11.8991 -11.8833 -11.8109 -11.8014 -11.7980
   -11.7971 -11.7935 -11.7934 -11.7914 -11.7877 -11.7833 -11.7814 -11.7773
   -11.7763 -11.7747 -11.7738 -11.7728 -11.7689 -11.7684 -11.7676 -11.7612
   -11.7577 -11.7558 -11.7555 -11.7532 -11.7513 -11.7481 -11.7477 -11.7450
   -11.7370 -11.7353 -11.7326 -11.7316 -11.7292 -11.7271 -11.7260 -11.7246
   -11.7232 -11.7192 -11.7191 -11.7168 -11.7149 -11.7133 -11.7120 -11.7098
   -11.7098 -11.7093 -11.7091 -11.7073 -11.7070 -11.7056 -11.7002 -11.6993
   -11.6990 -11.6947 -11.6934 -11.6905 -11.6898 -11.6889 -11.6869 -11.6867
   -11.6850 -11.6787 -11.6743 -11.6705 -11.6684 -11.6635 -11.6633 -11.6609
    -8.5398  -8.3661  -7.5054  -7.4169  -7.1291  -7.1191  -7.1162  -6.9708
    -6.8211  -6.8016  -6.7972  -6.7902  -6.7783  -6.1224  -5.9659  -1.9653
    -1.6925  -0.8554  -0.7613  -0.6003  -0.5995  -0.2464  -0.2402  -0.0877
    -0.0619   0.1014   0.2859   0.3181   0.3803   0.4113   0.4288   0.5430
     0.8492   0.9905   1.0817   1.1377   1.3565   2.5742   2.9551   5.3280
     5.3862   5.4048   5.4421   5.4458   5.5535   5.6365   5.6597   5.6708
     5.7620   5.8129   5.9687   6.1733   6.1898   6.3547   6.3871   6.4372
     6.5356   6.6414   6.6519   6.7170   6.7643   6.8664   7.1168   7.1483
     7.1941   7.2174   7.3076   7.3917   7.3996   7.7465   7.7513   7.9289
     7.9415   8.0200   8.2188   8.3749   8.3979   8.4323   8.4480   8.4850
     8.5037   8.5474   8.6047   8.7849   8.8796   8.8904   9.1389   9.1449
     9.4646   9.7169   9.7209   9.7740   9.8246   9.8957   9.9015   9.9586
     9.9733  10.0231  10.1673  10.2183  10.3669  10.4342  10.4507  10.5339
    10.5660  10.5963  10.7530  10.8062  11.1366  12.0921  12.2623  12.5170
    12.7387  13.1077  13.1110  13.3668  13.5603  13.5704  13.6880  13.8022
    13.8278  14.1449  14.2122  14.3361  14.3665  14.4798  14.5356  14.6104
    14.7438  14.9360  14.9928  15.0733  15.2103  15.2330  15.2702  15.4215
    15.4909  15.5526  15.6017  15.6089  15.7411  15.7772  15.9376  15.9723
    15.9993  16.0599  16.1555  16.2826  16.4204  16.4411  16.4904  16.7184
    16.8843  16.8937  16.9815

          k = 0.0000 0.1667-0.3194 ( 29188 PWs)   bands (ev):

   -35.4130 -35.4130 -35.4130 -35.4129 -35.4118 -35.4118 -35.4117 -35.4116
   -35.4005 -35.4004 -35.4003 -35.4003 -35.3999 -35.3999 -35.3999 -35.3998
   -35.3952 -35.3951 -35.3951 -35.3950 -35.3483 -35.3483 -35.3483 -35.3482
   -35.3466 -35.3465 -35.3465 -35.3464 -35.3415 -35.3415 -35.3414 -35.3414
   -35.3396 -35.3395 -35.3395 -35.3394 -35.3372 -35.3371 -35.3371 -35.3370
   -12.0012 -11.9927 -11.9913 -11.9743 -11.9731 -11.9571 -11.9553 -11.9386
   -11.9362 -11.9244 -11.9157 -11.8981 -11.8841 -11.8084 -11.8019 -11.7983
   -11.7964 -11.7932 -11.7929 -11.7911 -11.7874 -11.7849 -11.7812 -11.7769
   -11.7760 -11.7746 -11.7744 -11.7739 -11.7694 -11.7691 -11.7679 -11.7620
   -11.7587 -11.7562 -11.7560 -11.7546 -11.7519 -11.7485 -11.7482 -11.7450
   -11.7369 -11.7347 -11.7322 -11.7305 -11.7274 -11.7256 -11.7251 -11.7242
   -11.7218 -11.7187 -11.7181 -11.7163 -11.7144 -11.7129 -11.7117 -11.7111
   -11.7094 -11.7092 -11.7090 -11.7075 -11.7073 -11.7054 -11.7012 -11.6993
   -11.6990 -11.6949 -11.6936 -11.6908 -11.6903 -11.6892 -11.6872 -11.6869
   -11.6852 -11.6788 -11.6748 -11.6707 -11.6686 -11.6636 -11.6634 -11.6610
    -8.5396  -8.3663  -7.5052  -7.4171  -7.1277  -7.1205  -7.1161  -6.9708
    -6.8208  -6.8019  -6.7971  -6.7899  -6.7788  -6.1224  -5.9659  -1.8599
    -1.8194  -0.8230  -0.7942  -0.6001  -0.5986  -0.2384  -0.2342  -0.1016
    -0.0723   0.1055   0.2888   0.3262   0.4108   0.4261   0.4949   0.6193
     0.7401   0.8894   1.0831   1.2311   1.2671   2.6632   2.8985   5.3514
     5.3858   5.4106   5.4453   5.4492   5.5383   5.6093   5.6321   5.6509
     5.7533   5.7849   5.9486   6.2664   6.2688   6.3741   6.4221   6.4373
     6.5596   6.5700   6.6704   6.7022   6.7089   6.8306   7.0904   7.1673
     7.1899   7.2171   7.3100   7.3781   7.4033   7.7718   7.7748   7.9360
     8.0681   8.1784   8.1967   8.3391   8.3696   8.3786   8.4327   8.4530
     8.4929   8.5119   8.5993   8.6509   8.8694   8.8883   9.1413   9.1469
     9.4638   9.7097   9.7225   9.7625   9.8993   9.9011   9.9032   9.9366
    10.0412  10.0577  10.0908  10.1397  10.3790  10.4478  10.4754  10.5118
    10.5543  10.5908  10.7741  10.7853  11.1981  12.0498  12.4259  12.6134
    12.8695  12.9743  13.2449  13.3026  13.3345  13.4852  13.6481  13.7406
    14.0199  14.0731  14.1296  14.1807  14.4741  14.5439  14.5814  14.6231
    14.6640  14.7327  15.0449  15.1649  15.1729  15.2822  15.3197  15.3867
    15.4467  15.5400  15.5826  15.6657  15.7629  15.7959  15.8465  15.9657
    16.0249  16.2835  16.3210  16.4447  16.4470  16.4542  16.5583  16.6395
    16.6683  16.8289  16.8780

          k = 0.0000 0.3333 0.0000 ( 29167 PWs)   bands (ev):

   -35.4131 -35.4130 -35.4129 -35.4129 -35.4118 -35.4117 -35.4116 -35.4116
   -35.4005 -35.4004 -35.4003 -35.4002 -35.3999 -35.3999 -35.3999 -35.3998
   -35.3952 -35.3952 -35.3950 -35.3949 -35.3484 -35.3483 -35.3482 -35.3481
   -35.3465 -35.3465 -35.3464 -35.3463 -35.3415 -35.3415 -35.3415 -35.3414
   -35.3396 -35.3396 -35.3395 -35.3394 -35.3373 -35.3372 -35.3371 -35.3369
   -11.9945 -11.9844 -11.9819 -11.9732 -11.9666 -11.9577 -11.9522 -11.9510
   -11.9482 -11.9316 -11.9254 -11.8647 -11.8506 -11.8138 -11.8071 -11.7956
   -11.7954 -11.7921 -11.7897 -11.7865 -11.7857 -11.7839 -11.7801 -11.7773
   -11.7769 -11.7713 -11.7674 -11.7662 -11.7659 -11.7639 -11.7627 -11.7625
   -11.7576 -11.7556 -11.7531 -11.7493 -11.7487 -11.7469 -11.7453 -11.7443
   -11.7435 -11.7422 -11.7417 -11.7378 -11.7345 -11.7323 -11.7276 -11.7267
   -11.7263 -11.7240 -11.7214 -11.7199 -11.7185 -11.7173 -11.7161 -11.7150
   -11.7132 -11.7122 -11.7103 -11.7076 -11.7072 -11.7059 -11.7055 -11.7014
   -11.6985 -11.6985 -11.6954 -11.6934 -11.6933 -11.6896 -11.6875 -11.6867
   -11.6854 -11.6789 -11.6760 -11.6749 -11.6680 -11.6676 -11.6649 -11.6616
    -8.3908  -8.2492  -7.8526  -7.6934  -7.0702  -7.0539  -7.0530  -6.9446
    -6.8910  -6.8720  -6.8688  -6.5811  -6.4808  -6.1817  -6.0645  -1.9139
    -1.3881  -1.2968  -0.9505  -0.5267  -0.5263  -0.3197  -0.3091  -0.0412
     0.0464   0.1155   0.1909   0.2937   0.3911   0.4838   0.4857   0.6528
     0.7884   0.9392   1.1594   1.3918   1.7498   2.2858   2.6585   5.1830
     5.2277   5.2935   5.4140   5.4327   5.4466   5.5733   5.5931   5.6337
     5.6771   5.7785   5.8118   5.9054   6.0911   6.1139   6.3778   6.4873
     6.5512   6.7575   6.8318   6.8642   6.9523   7.1265   7.3890   7.4691
     7.5428   7.5970   7.6127   7.6942   7.6976   7.7516   7.7802   7.8964
     7.9203   8.0642   8.1020   8.1564   8.2075   8.2291   8.3285   8.3645
     8.5559   8.6505   8.6812   8.8964   8.9692   9.0592   9.0983   9.1403
     9.5047   9.5692   9.6321   9.6988   9.7145   9.7974   9.8337   9.8516
     9.8995   9.9947  10.0232  10.0364  10.0559  10.1026  10.1990  10.2321
    10.3857  10.4582  10.4934  10.6977  11.4516  12.5526  12.7195  12.7650
    12.8917  12.9424  13.3059  13.5098  13.6737  13.7306  13.8125  13.9110
    14.0385  14.2179  14.3859  14.5572  14.5725  14.5780  14.6103  14.6804
    14.7240  14.7948  14.8190  14.8619  14.8719  14.9420  15.0883  15.1239
    15.1655  15.4018  15.4170  15.5527  15.5690  15.7135  15.8948  16.0227
    16.1307  16.1811  16.2065  16.2882  16.3271  16.4910  16.5758  16.5985
    16.8915  16.9670  16.9848

          k = 0.0000 0.3333 0.1065 ( 29197 PWs)   bands (ev):

   -35.4131 -35.4130 -35.4129 -35.4129 -35.4118 -35.4118 -35.4117 -35.4117
   -35.4005 -35.4005 -35.4004 -35.4003 -35.4000 -35.3999 -35.3999 -35.3998
   -35.3953 -35.3952 -35.3951 -35.3950 -35.3484 -35.3483 -35.3482 -35.3481
   -35.3465 -35.3465 -35.3465 -35.3464 -35.3416 -35.3415 -35.3415 -35.3414
   -35.3396 -35.3396 -35.3395 -35.3394 -35.3373 -35.3372 -35.3372 -35.3370
   -11.9945 -11.9837 -11.9815 -11.9730 -11.9667 -11.9587 -11.9528 -11.9506
   -11.9480 -11.9321 -11.9260 -11.8639 -11.8517 -11.8129 -11.8060 -11.7961
   -11.7950 -11.7918 -11.7895 -11.7870 -11.7854 -11.7840 -11.7796 -11.7772
   -11.7767 -11.7731 -11.7682 -11.7676 -11.7673 -11.7648 -11.7621 -11.7620
   -11.7570 -11.7559 -11.7539 -11.7503 -11.7501 -11.7466 -11.7458 -11.7435
   -11.7422 -11.7421 -11.7413 -11.7373 -11.7340 -11.7316 -11.7269 -11.7262
   -11.7254 -11.7232 -11.7211 -11.7197 -11.7179 -11.7172 -11.7159 -11.7147
   -11.7136 -11.7119 -11.7103 -11.7076 -11.7072 -11.7058 -11.7050 -11.7013
   -11.6990 -11.6987 -11.6952 -11.6938 -11.6934 -11.6901 -11.6877 -11.6869
   -11.6858 -11.6790 -11.6764 -11.6750 -11.6682 -11.6677 -11.6650 -11.6617
    -8.3906  -8.2494  -7.8525  -7.6935  -7.0695  -7.0546  -7.0529  -6.9446
    -6.8907  -6.8724  -6.8688  -6.5811  -6.4808  -6.1817  -6.0645  -1.8872
    -1.4370  -1.2776  -0.9789  -0.5267  -0.5258  -0.3187  -0.3086  -0.0456
     0.0448   0.1439   0.2358   0.2932   0.3970   0.4868   0.4903   0.6517
     0.7861   0.9393   1.0919   1.4142   1.7317   2.3130   2.6438   5.1677
     5.2166   5.2894   5.3756   5.4049   5.4359   5.5770   5.6196   5.6703
     5.7053   5.7588   5.8287   5.9503   6.0838   6.0913   6.4054   6.5388
     6.5749   6.7772   6.7895   6.8653   6.9539   7.1095   7.3721   7.4862
     7.5253   7.5976   7.6101   7.6573   7.6700   7.7223   7.7746   7.9114
     7.9145   8.0990   8.1418   8.1921   8.2158   8.2170   8.3512   8.3592
     8.5456   8.6209   8.6591   8.8499   8.9556   9.0008   9.0648   9.0692
     9.4406   9.6310   9.6589   9.7418   9.7608   9.8140   9.8724   9.8844
     9.9088  10.0064  10.0127  10.0603  10.0693  10.0968  10.1975  10.2792
    10.3596  10.4535  10.5062  10.6837  11.4538  12.5582  12.7278  12.7465
    12.9401  12.9512  13.2985  13.5184  13.6751  13.7022  13.7891  13.9210
    13.9803  14.2411  14.2924  14.3095  14.3350  14.5207  14.6022  14.6671
    14.6978  14.7962  14.8365  14.9224  15.0090  15.0904  15.1333  15.1609
    15.3513  15.4694  15.4786  15.5559  15.5840  15.7259  15.8987  16.0045
    16.1562  16.1732  16.2043  16.2804  16.3290  16.4427  16.5615  16.5833
    16.8377  16.9478  16.9944

          k = 0.0000 0.3333 0.2129 ( 29173 PWs)   bands (ev):

   -35.4131 -35.4129 -35.4129 -35.4129 -35.4118 -35.4117 -35.4117 -35.4116
   -35.4005 -35.4004 -35.4004 -35.4003 -35.3999 -35.3999 -35.3999 -35.3998
   -35.3952 -35.3951 -35.3951 -35.3950 -35.3483 -35.3482 -35.3482 -35.3481
   -35.3465 -35.3465 -35.3465 -35.3464 -35.3415 -35.3415 -35.3415 -35.3414
   -35.3396 -35.3395 -35.3395 -35.3394 -35.3372 -35.3371 -35.3371 -35.3370
   -11.9944 -11.9818 -11.9804 -11.9727 -11.9670 -11.9609 -11.9541 -11.9497
   -11.9474 -11.9331 -11.9271 -11.8617 -11.8545 -11.8104 -11.8036 -11.7979
   -11.7939 -11.7911 -11.7893 -11.7884 -11.7847 -11.7840 -11.7789 -11.7775
   -11.7761 -11.7753 -11.7712 -11.7697 -11.7670 -11.7656 -11.7624 -11.7622
   -11.7590 -11.7561 -11.7529 -11.7516 -11.7515 -11.7473 -11.7467 -11.7442
   -11.7412 -11.7411 -11.7387 -11.7365 -11.7329 -11.7302 -11.7256 -11.7245
   -11.7237 -11.7221 -11.7206 -11.7192 -11.7168 -11.7166 -11.7159 -11.7145
   -11.7137 -11.7113 -11.7108 -11.7077 -11.7069 -11.7056 -11.7037 -11.7012
   -11.6999 -11.6992 -11.6949 -11.6948 -11.6938 -11.6912 -11.6881 -11.6874
   -11.6864 -11.6792 -11.6772 -11.6754 -11.6686 -11.6680 -11.6651 -11.6619
    -8.3902  -8.2498  -7.8522  -7.6938  -7.0679  -7.0562  -7.0528  -6.9446
    -6.8898  -6.8732  -6.8689  -6.5810  -6.4808  -6.1817  -6.0645  -1.8108
    -1.5543  -1.2237  -1.0502  -0.5268  -0.5247  -0.3165  -0.3076  -0.0531
     0.0417   0.1591   0.2922   0.3800   0.4287   0.4889   0.5046   0.6486
     0.7706   0.9335   0.9396   1.4724   1.6785   2.3738   2.6063   5.1386
     5.1937   5.2594   5.3082   5.4146   5.4605   5.5820   5.6144   5.6691
     5.7246   5.7519   5.9149   6.0087   6.0819   6.0917   6.4384   6.6409
     6.6436   6.7043   6.7612   6.8751   6.9774   7.0991   7.3273   7.4713
     7.5201   7.5482   7.5993   7.6118   7.6488   7.7060   7.7612   7.9040
     7.9351   8.1445   8.2036   8.2053   8.2362   8.2494   8.3482   8.3939
     8.5347   8.5673   8.6130   8.7087   8.8844   8.9308   9.0179   9.0443
     9.3803   9.5899   9.6935   9.8324   9.8498   9.8828   9.9077   9.9376
     9.9383  10.0165  10.0240  10.0494  10.1202  10.1479  10.2287  10.2908
    10.3293  10.4377  10.5420  10.6459  11.4611  12.5684  12.7295  12.7383
    12.9824  13.0922  13.2893  13.5290  13.5843  13.6471  13.7323  13.8538
    13.9347  13.9942  14.0276  14.2596  14.2651  14.4847  14.5601  14.6706
    14.7049  14.8000  14.8389  14.9829  15.0186  15.1643  15.1819  15.3309
    15.4614  15.5399  15.5932  15.7046  15.7318  15.9105  15.9118  15.9555
    16.0638  16.1503  16.2551  16.2779  16.3230  16.3744  16.5205  16.5594
    16.7148  16.8388  17.0130

          k = 0.0000 0.3333-0.3194 ( 29180 PWs)   bands (ev):

   -35.4131 -35.4130 -35.4130 -35.4129 -35.4118 -35.4118 -35.4117 -35.4117
   -35.4005 -35.4004 -35.4004 -35.4003 -35.4000 -35.3999 -35.3998 -35.3998
   -35.3952 -35.3951 -35.3951 -35.3950 -35.3483 -35.3483 -35.3482 -35.3482
   -35.3466 -35.3466 -35.3465 -35.3464 -35.3416 -35.3415 -35.3414 -35.3414
   -35.3396 -35.3395 -35.3395 -35.3395 -35.3372 -35.3371 -35.3371 -35.3370
   -11.9944 -11.9808 -11.9798 -11.9725 -11.9671 -11.9622 -11.9547 -11.9492
   -11.9471 -11.9336 -11.9277 -11.8593 -11.8571 -11.8087 -11.8028 -11.7988
   -11.7932 -11.7907 -11.7897 -11.7890 -11.7843 -11.7839 -11.7793 -11.7772
   -11.7758 -11.7756 -11.7726 -11.7708 -11.7668 -11.7656 -11.7628 -11.7620
   -11.7607 -11.7562 -11.7526 -11.7523 -11.7515 -11.7476 -11.7470 -11.7446
   -11.7413 -11.7406 -11.7372 -11.7362 -11.7322 -11.7299 -11.7250 -11.7229
   -11.7229 -11.7217 -11.7203 -11.7188 -11.7166 -11.7160 -11.7159 -11.7156
   -11.7131 -11.7113 -11.7111 -11.7077 -11.7067 -11.7055 -11.7029 -11.7012
   -11.7004 -11.6994 -11.6955 -11.6948 -11.6940 -11.6918 -11.6884 -11.6877
   -11.6867 -11.6793 -11.6776 -11.6755 -11.6689 -11.6681 -11.6651 -11.6620
    -8.3900  -8.2501  -7.8521  -7.6940  -7.0668  -7.0573  -7.0528  -6.9447
    -6.8894  -6.8737  -6.8689  -6.5810  -6.4808  -6.1817  -6.0645  -1.7126
    -1.6716  -1.1605  -1.1216  -0.5269  -0.5242  -0.3153  -0.3071  -0.0565
     0.0401   0.1624   0.2917   0.4015   0.4900   0.5109   0.5919   0.6331
     0.6941   0.8452   0.9398   1.5217   1.6306   2.4118   2.5793   5.1247
     5.1824   5.2403   5.2834   5.4310   5.4957   5.5771   5.5844   5.6684
     5.7108   5.7573   5.9767   5.9997   6.0918   6.1336   6.4469   6.6301
     6.6846   6.7161   6.7426   6.8729   6.9935   7.1174   7.2974   7.4354
     7.4914   7.5377   7.5999   7.6139   7.6462   7.6992   7.7528   7.8986
     7.9435   8.1617   8.2007   8.2078   8.2502   8.2881   8.3409   8.4382
     8.5509   8.5616   8.5702   8.5937   8.8329   8.9235   9.0068   9.0431
     9.3567   9.5712   9.6973   9.8424   9.8997   9.9090   9.9416   9.9550
     9.9697   9.9826  10.0260  10.0707  10.1966  10.2074  10.2087  10.2160
    10.3582  10.4204  10.5837  10.6033  11.4666  12.5717  12.7233  12.7443
    13.0428  13.2275  13.2972  13.4426  13.4608  13.6266  13.7666  13.8201
    13.8346  13.8752  13.9517  14.2093  14.2998  14.4800  14.6076  14.7479
    14.7499  14.7689  14.7834  14.8631  14.9997  15.2103  15.2362  15.3895
    15.5004  15.6249  15.6761  15.7367  15.7987  15.9187  15.9499  15.9661
    16.1250  16.1350  16.2055  16.2473  16.3703  16.4022  16.4743  16.5494
    16.6353  16.7129  17.0058

          k = 0.0000-0.5000 0.0000 ( 29172 PWs)   bands (ev):

   -35.4132 -35.4130 -35.4130 -35.4129 -35.4118 -35.4117 -35.4117 -35.4116
   -35.4005 -35.4005 -35.4003 -35.4002 -35.4000 -35.3999 -35.3999 -35.3997
   -35.3952 -35.3952 -35.3950 -35.3949 -35.3484 -35.3483 -35.3483 -35.3482
   -35.3466 -35.3465 -35.3465 -35.3464 -35.3416 -35.3415 -35.3415 -35.3413
   -35.3396 -35.3396 -35.3395 -35.3394 -35.3372 -35.3372 -35.3371 -35.3368
   -11.9860 -11.9847 -11.9694 -11.9682 -11.9658 -11.9628 -11.9618 -11.9506
   -11.9438 -11.9389 -11.9362 -11.8416 -11.8174 -11.8154 -11.8131 -11.8088
   -11.7941 -11.7906 -11.7898 -11.7874 -11.7855 -11.7843 -11.7786 -11.7770
   -11.7758 -11.7744 -11.7737 -11.7659 -11.7633 -11.7590 -11.7574 -11.7565
   -11.7561 -11.7560 -11.7549 -11.7537 -11.7522 -11.7515 -11.7512 -11.7436
   -11.7427 -11.7399 -11.7390 -11.7352 -11.7338 -11.7307 -11.7284 -11.7268
   -11.7266 -11.7260 -11.7233 -11.7223 -11.7223 -11.7207 -11.7185 -11.7177
   -11.7175 -11.7129 -11.7111 -11.7081 -11.7068 -11.7055 -11.7055 -11.7027
   -11.6998 -11.6998 -11.6986 -11.6934 -11.6923 -11.6917 -11.6903 -11.6861
   -11.6839 -11.6819 -11.6792 -11.6764 -11.6694 -11.6670 -11.6660 -11.6619
    -8.1632  -8.1537  -8.1383  -7.8539  -6.9906  -6.9752  -6.9671  -6.9645
    -6.9629  -6.9622  -6.9381  -6.4787  -6.2361  -6.2358  -6.2308  -1.6641
    -1.6384  -1.2154  -1.1664  -0.4346  -0.4280  -0.4153  -0.3992  -0.0372
     0.1398   0.1740   0.2261   0.2498   0.3033   0.5204   0.6218   0.7064
     0.8026   0.8922   0.9224   1.7550   2.1137   2.1352   2.2244   5.1889
     5.1975   5.2290   5.2452   5.2845   5.4194   5.5934   5.6035   5.6393
     5.6424   5.7666   5.8038   5.8466   5.9065   6.1144   6.3737   6.6561
     6.6920   6.6980   6.7880   7.1721   7.2262   7.2770   7.3762   7.4328
     7.4354   7.5820   7.6675   7.8076   7.8193   7.9178   7.9378   7.9726
     7.9748   8.0108   8.1146   8.1857   8.2118   8.2256   8.3381   8.3412
     8.3933   8.4396   8.6883   9.0493   9.1799   9.2770   9.2964   9.3176
     9.3499   9.3749   9.3913   9.3932   9.5836   9.6034   9.6487   9.6627
     9.7680   9.8381   9.9781   9.9972  10.1106  10.1603  10.2286  10.2349
    10.2394  10.3281  10.5205  10.5416  11.6657  12.6662  12.7232  13.0726
    13.4399  13.4883  13.6236  13.6392  13.6529  13.6702  13.7104  13.7135
    13.8167  14.1360  14.2252  14.3287  14.3433  14.3547  14.4133  14.4511
    14.5521  14.8926  14.9472  15.0177  15.0239  15.0594  15.1010  15.1317
    15.1489  15.1640  15.4217  15.4357  15.4645  15.8486  15.9561  16.0445
    16.0972  16.1711  16.3472  16.3543  16.4132  16.6488  16.6692  16.6816
    16.7208  16.7661  16.7935

          k = 0.0000-0.5000 0.1065 ( 29170 PWs)   bands (ev):

   -35.4131 -35.4130 -35.4130 -35.4129 -35.4118 -35.4117 -35.4117 -35.4116
   -35.4005 -35.4005 -35.4003 -35.4002 -35.3999 -35.3998 -35.3998 -35.3998
   -35.3952 -35.3952 -35.3951 -35.3950 -35.3484 -35.3483 -35.3482 -35.3482
   -35.3465 -35.3465 -35.3464 -35.3464 -35.3415 -35.3414 -35.3414 -35.3414
   -35.3396 -35.3395 -35.3394 -35.3394 -35.3373 -35.3372 -35.3371 -35.3370
   -11.9859 -11.9846 -11.9687 -11.9677 -11.9652 -11.9630 -11.9614 -11.9511
   -11.9447 -11.9397 -11.9369 -11.8416 -11.8174 -11.8164 -11.8124 -11.8071
   -11.7936 -11.7911 -11.7896 -11.7870 -11.7859 -11.7846 -11.7785 -11.7768
   -11.7767 -11.7742 -11.7732 -11.7677 -11.7645 -11.7624 -11.7582 -11.7565
   -11.7561 -11.7555 -11.7533 -11.7524 -11.7514 -11.7510 -11.7506 -11.7437
   -11.7434 -11.7396 -11.7392 -11.7351 -11.7343 -11.7307 -11.7284 -11.7264
   -11.7257 -11.7250 -11.7230 -11.7223 -11.7212 -11.7205 -11.7182 -11.7177
   -11.7167 -11.7130 -11.7107 -11.7082 -11.7061 -11.7060 -11.7054 -11.7025
   -11.6999 -11.6996 -11.6986 -11.6935 -11.6925 -11.6920 -11.6910 -11.6863
   -11.6843 -11.6823 -11.6793 -11.6765 -11.6697 -11.6671 -11.6660 -11.6620
    -8.1618  -8.1536  -8.1397  -7.8540  -6.9902  -6.9745  -6.9675  -6.9641
    -6.9630  -6.9629  -6.9385  -6.4787  -6.2360  -6.2358  -6.2309  -1.6385
    -1.6166  -1.2507  -1.2125  -0.4345  -0.4285  -0.4153  -0.3991  -0.0370
     0.1401   0.1829   0.2263   0.2961   0.3411   0.5245   0.6216   0.7019
     0.8023   0.8648   0.8943   1.7551   2.1150   2.1340   2.2171   5.1506
     5.1757   5.2033   5.2083   5.3004   5.4293   5.6284   5.6470   5.6534
     5.6663   5.7717   5.8042   5.8412   5.9339   6.1054   6.3730   6.6669
     6.7041   6.7102   6.7947   7.1952   7.2345   7.2754   7.3765   7.4334
     7.4345   7.5730   7.6352   7.7564   7.7683   7.9215   7.9386   7.9480
     7.9695   8.0198   8.1120   8.1916   8.2168   8.2305   8.3423   8.3667
     8.4047   8.4549   8.6600   8.9560   9.1321   9.2387   9.2627   9.2729
     9.3023   9.3344   9.3658   9.3716   9.6464   9.6954   9.7428   9.7670
     9.8226   9.8767   9.9966  10.0109  10.1322  10.1630  10.2400  10.2467
    10.2579  10.3274  10.5009  10.5193  11.6368  12.6764  12.7127  13.0732
    13.4471  13.4828  13.5822  13.5946  13.6284  13.6574  13.6770  13.7058
    13.7949  14.0995  14.1189  14.1873  14.1922  14.4572  14.5910  14.6016
    14.6129  14.8155  14.8295  14.8920  14.9515  15.0668  15.1226  15.2641
    15.2981  15.3588  15.3907  15.4266  15.5211  15.8695  15.9677  16.0477
    16.1207  16.1529  16.3521  16.3583  16.4089  16.6442  16.6482  16.6539
    16.7066  16.7348  16.7650

          k = 0.0000-0.5000 0.2129 ( 29198 PWs)   bands (ev):

   -35.4132 -35.4130 -35.4130 -35.4130 -35.4118 -35.4117 -35.4117 -35.4116
   -35.4005 -35.4005 -35.4004 -35.4003 -35.4001 -35.3999 -35.3999 -35.3998
   -35.3953 -35.3951 -35.3951 -35.3951 -35.3484 -35.3483 -35.3483 -35.3483
   -35.3465 -35.3465 -35.3465 -35.3464 -35.3416 -35.3415 -35.3415 -35.3414
   -35.3396 -35.3396 -35.3395 -35.3395 -35.3373 -35.3372 -35.3371 -35.3371
   -11.9857 -11.9845 -11.9671 -11.9666 -11.9639 -11.9634 -11.9605 -11.9522
   -11.9467 -11.9413 -11.9382 -11.8417 -11.8179 -11.8173 -11.8108 -11.8040
   -11.7925 -11.7924 -11.7890 -11.7868 -11.7863 -11.7859 -11.7782 -11.7781
   -11.7761 -11.7738 -11.7728 -11.7708 -11.7659 -11.7657 -11.7600 -11.7569
   -11.7563 -11.7560 -11.7522 -11.7505 -11.7503 -11.7500 -11.7496 -11.7446
   -11.7441 -11.7397 -11.7392 -11.7352 -11.7351 -11.7306 -11.7283 -11.7254
   -11.7244 -11.7225 -11.7221 -11.7218 -11.7201 -11.7194 -11.7189 -11.7160
   -11.7151 -11.7136 -11.7101 -11.7084 -11.7076 -11.7054 -11.7045 -11.7024
   -11.7001 -11.6997 -11.6983 -11.6937 -11.6928 -11.6928 -11.6925 -11.6868
   -11.6850 -11.6831 -11.6796 -11.6768 -11.6704 -11.6674 -11.6662 -11.6622
    -8.1585  -8.1535  -8.1431  -7.8543  -6.9894  -6.9726  -6.9684  -6.9649
    -6.9634  -6.9629  -6.9392  -6.4788  -6.2358  -6.2358  -6.2311  -1.5648
    -1.5555  -1.3373  -1.3242  -0.4344  -0.4295  -0.4152  -0.3989  -0.0365
     0.1405   0.1890   0.2268   0.4200   0.4243   0.5448   0.6212   0.6753
     0.8009   0.8017   0.8212   1.7555   2.1184   2.1317   2.2019   5.0916
     5.1311   5.1521   5.1587   5.3614   5.4588   5.5638   5.6962   5.7363
     5.7371   5.7855   5.8050   5.8269   5.9996   6.0960   6.3717   6.6921
     6.7320   6.7385   6.8108   7.2286   7.2525   7.2932   7.3623   7.4340
     7.4360   7.5456   7.5731   7.6555   7.6684   7.9025   7.9309   7.9402
     7.9612   8.0235   8.1047   8.1988   8.2045   8.2868   8.3479   8.4282
     8.4388   8.4798   8.6077   8.7547   9.0454   9.1354   9.1801   9.1844
     9.2484   9.3692   9.3752   9.3978   9.7069   9.8217   9.8514   9.9103
     9.9240   9.9412  10.0290  10.0308  10.1718  10.1980  10.2513  10.2957
    10.3096  10.3201  10.4495  10.4603  11.5796  12.6897  12.6992  13.0743
    13.4622  13.4799  13.5173  13.5202  13.5745  13.6058  13.6165  13.6481
    13.7725  13.9910  14.0507  14.0795  14.0809  14.4305  14.6954  14.7115
    14.7683  14.8165  14.8353  14.8937  14.9087  14.9709  15.2080  15.2781
    15.3356  15.3481  15.4783  15.6033  15.6973  15.9340  16.0006  16.0531
    16.1069  16.1720  16.3519  16.3897  16.4083  16.5665  16.5990  16.6371
    16.6763  16.6772  16.6928

          k = 0.0000-0.5000-0.3194 ( 29176 PWs)   bands (ev):

   -35.4132 -35.4130 -35.4130 -35.4129 -35.4117 -35.4117 -35.4116 -35.4116
   -35.4005 -35.4004 -35.4003 -35.4003 -35.4000 -35.4000 -35.3998 -35.3998
   -35.3952 -35.3951 -35.3951 -35.3950 -35.3485 -35.3483 -35.3483 -35.3482
   -35.3465 -35.3465 -35.3464 -35.3463 -35.3416 -35.3415 -35.3415 -35.3414
   -35.3396 -35.3395 -35.3395 -35.3394 -35.3372 -35.3371 -35.3371 -35.3370
   -11.9856 -11.9844 -11.9663 -11.9659 -11.9637 -11.9632 -11.9599 -11.9529
   -11.9478 -11.9422 -11.9389 -11.8417 -11.8184 -11.8172 -11.8098 -11.8022
   -11.7931 -11.7919 -11.7887 -11.7873 -11.7871 -11.7859 -11.7785 -11.7779
   -11.7758 -11.7736 -11.7727 -11.7722 -11.7667 -11.7661 -11.7608 -11.7572
   -11.7565 -11.7561 -11.7522 -11.7498 -11.7496 -11.7494 -11.7492 -11.7451
   -11.7442 -11.7399 -11.7389 -11.7355 -11.7353 -11.7305 -11.7283 -11.7249
   -11.7241 -11.7214 -11.7212 -11.7206 -11.7204 -11.7199 -11.7177 -11.7151
   -11.7143 -11.7143 -11.7097 -11.7085 -11.7084 -11.7053 -11.7037 -11.7022
   -11.7000 -11.6999 -11.6980 -11.6939 -11.6934 -11.6933 -11.6930 -11.6870
   -11.6853 -11.6835 -11.6797 -11.6770 -11.6707 -11.6674 -11.6662 -11.6623
    -8.1561  -8.1534  -8.1456  -7.8544  -6.9889  -6.9711  -6.9688  -6.9664
    -6.9630  -6.9629  -6.9396  -6.4788  -6.2358  -6.2356  -6.2312  -1.4921
    -1.4564  -1.4502  -1.4127  -0.4343  -0.4300  -0.4151  -0.3988  -0.0362
     0.1407   0.1904   0.2270   0.4554   0.5604   0.5789   0.5894   0.6210
     0.7640   0.7697   0.8015   1.7557   2.1206   2.1306   2.1938   5.0673
     5.1105   5.1291   5.1391   5.4350   5.4782   5.4855   5.6993   5.7732
     5.7767   5.8000   5.8051   5.8129   6.0347   6.0964   6.3711   6.7070
     6.7484   6.7550   6.8207   7.2200   7.3059   7.3080   7.3269   7.4358
     7.4384   7.5251   7.5413   7.6046   7.6180   7.8848   7.9388   7.9411
     7.9538   8.0209   8.1005   8.1897   8.2118   8.3228   8.3497   8.4608
     8.4901   8.5264   8.5809   8.5867   9.0080   9.0844   9.1490   9.1505
     9.2299   9.3793   9.3965   9.4136   9.7280   9.8733   9.8757   9.9691
     9.9691   9.9831  10.0364  10.0425  10.1782  10.2458  10.2581  10.3060
    10.3436  10.3808  10.3854  10.4008  11.5511  12.6770  12.7122  13.0746
    13.4700  13.4816  13.4877  13.4942  13.5426  13.5726  13.5892  13.6097
    13.7590  13.9601  14.0164  14.0301  14.0476  14.3993  14.6804  14.8004
    14.8256  14.8258  14.8425  14.8451  14.9866  15.0970  15.1479  15.1486
    15.3533  15.3572  15.5201  15.7114  15.7900  15.9811  16.0448  16.0543
    16.0563  16.1988  16.3631  16.4178  16.4198  16.5103  16.5435  16.6408
    16.6428  16.6527  16.6531

          k = 0.1667 0.1667 0.0000 ( 29209 PWs)   bands (ev):

   -35.4131 -35.4130 -35.4130 -35.4129 -35.4118 -35.4118 -35.4117 -35.4116
   -35.4005 -35.4005 -35.4004 -35.4003 -35.4000 -35.3999 -35.3999 -35.3998
   -35.3953 -35.3952 -35.3951 -35.3950 -35.3484 -35.3483 -35.3482 -35.3482
   -35.3466 -35.3465 -35.3465 -35.3464 -35.3416 -35.3415 -35.3415 -35.3414
   -35.3396 -35.3396 -35.3395 -35.3395 -35.3373 -35.3372 -35.3371 -35.3370
   -11.9990 -11.9962 -11.9851 -11.9710 -11.9662 -11.9600 -11.9595 -11.9503
   -11.9331 -11.9128 -11.9070 -11.8995 -11.8767 -11.8141 -11.8019 -11.8011
   -11.7964 -11.7924 -11.7919 -11.7898 -11.7858 -11.7806 -11.7802 -11.7777
   -11.7769 -11.7750 -11.7688 -11.7677 -11.7670 -11.7664 -11.7626 -11.7616
   -11.7559 -11.7557 -11.7540 -11.7500 -11.7487 -11.7475 -11.7471 -11.7456
   -11.7412 -11.7387 -11.7363 -11.7356 -11.7328 -11.7321 -11.7269 -11.7257
   -11.7241 -11.7238 -11.7231 -11.7176 -11.7168 -11.7154 -11.7132 -11.7131
   -11.7129 -11.7105 -11.7086 -11.7085 -11.7072 -11.7066 -11.7004 -11.6993
   -11.6985 -11.6971 -11.6928 -11.6906 -11.6895 -11.6887 -11.6884 -11.6873
   -11.6856 -11.6792 -11.6740 -11.6708 -11.6693 -11.6647 -11.6641 -11.6626
    -8.4899  -8.3234  -7.4775  -7.4761  -7.4578  -7.2757  -6.9293  -6.8880
    -6.7806  -6.7805  -6.7707  -6.7359  -6.7196  -6.1408  -5.9953  -2.0210
    -1.4690  -0.8696  -0.8587  -0.7078  -0.6722  -0.3276  -0.2680  -0.1280
     0.0907   0.0974   0.2208   0.2475   0.3672   0.4573   0.5738   0.7380
     0.7817   0.8103   1.2627   1.2736   1.4908   2.3270   2.9217   5.1576
     5.3104   5.3913   5.4560   5.4960   5.5272   5.5649   5.6305   5.6483
     5.7478   5.8393   5.9636   6.1257   6.1657   6.1731   6.2286   6.4309
     6.7021   6.7083   6.7580   6.7610   6.9269   6.9452   7.0526   7.1551
     7.3269   7.3826   7.4063   7.4343   7.5317   7.7136   7.7733   7.7814
     7.8777   8.1253   8.1389   8.1686   8.2221   8.3217   8.4564   8.5779
     8.5983   8.7441   8.8926   8.9297   8.9529   9.0279   9.1033   9.1795
     9.4407   9.5318   9.6173   9.6985   9.7824   9.8064   9.8433   9.9419
    10.0054  10.0472  10.0951  10.1121  10.2472  10.2811  10.3163  10.3870
    10.5982  10.6021  10.7351  10.7683  11.1833  12.1507  12.3434  12.5405
    12.6704  12.9149  13.3596  13.4088  13.5112  13.5272  13.7835  14.0900
    14.1016  14.1991  14.2949  14.3698  14.4906  14.6282  14.6749  14.7325
    14.8155  14.9365  15.0016  15.0127  15.1254  15.1485  15.2080  15.2799
    15.3059  15.4350  15.5141  15.5419  15.6158  15.6284  15.7788  15.9078
    15.9116  15.9644  16.1264  16.3099  16.4090  16.4699  16.4846  16.6569
    16.8899  17.0871  17.1217

          k = 0.1667 0.1667 0.1065 ( 29209 PWs)   bands (ev):

   -35.4131 -35.4130 -35.4129 -35.4129 -35.4118 -35.4118 -35.4117 -35.4116
   -35.4005 -35.4005 -35.4004 -35.4004 -35.3999 -35.3999 -35.3999 -35.3998
   -35.3953 -35.3952 -35.3951 -35.3950 -35.3483 -35.3483 -35.3482 -35.3482
   -35.3466 -35.3465 -35.3465 -35.3464 -35.3415 -35.3415 -35.3415 -35.3414
   -35.3396 -35.3395 -35.3395 -35.3395 -35.3373 -35.3372 -35.3372 -35.3370
   -11.9989 -11.9955 -11.9845 -11.9712 -11.9670 -11.9598 -11.9595 -11.9512
   -11.9339 -11.9122 -11.9061 -11.9001 -11.8774 -11.8130 -11.8012 -11.8003
   -11.7961 -11.7929 -11.7917 -11.7895 -11.7858 -11.7804 -11.7802 -11.7786
   -11.7775 -11.7751 -11.7697 -11.7691 -11.7666 -11.7662 -11.7638 -11.7619
   -11.7568 -11.7561 -11.7544 -11.7499 -11.7492 -11.7485 -11.7476 -11.7458
   -11.7429 -11.7373 -11.7353 -11.7335 -11.7322 -11.7303 -11.7260 -11.7253
   -11.7239 -11.7226 -11.7218 -11.7173 -11.7168 -11.7153 -11.7133 -11.7131
   -11.7123 -11.7106 -11.7086 -11.7084 -11.7073 -11.7070 -11.7003 -11.6998
   -11.6985 -11.6973 -11.6931 -11.6907 -11.6899 -11.6889 -11.6887 -11.6874
   -11.6860 -11.6792 -11.6744 -11.6709 -11.6695 -11.6648 -11.6642 -11.6627
    -8.4897  -8.3236  -7.4764  -7.4760  -7.4589  -7.2758  -6.9291  -6.8882
    -6.7805  -6.7799  -6.7714  -6.7358  -6.7198  -6.1408  -5.9953  -1.9934
    -1.5215  -0.8579  -0.8484  -0.7175  -0.6855  -0.3242  -0.2719  -0.1194
     0.0792   0.1521   0.2070   0.2911   0.3746   0.4472   0.5471   0.6528
     0.8128   0.9298   1.1829   1.2559   1.4604   2.3844   2.8989   5.1660
     5.3136   5.3910   5.4518   5.4725   5.5274   5.5702   5.5924   5.6246
     5.7066   5.9087   6.0186   6.0725   6.1799   6.2334   6.2692   6.4553
     6.6719   6.6841   6.7503   6.7593   6.8541   6.9144   7.0223   7.2021
     7.2959   7.4219   7.4660   7.4933   7.5355   7.6805   7.7797   7.7936
     7.8651   8.1318   8.1574   8.2100   8.2516   8.3479   8.4319   8.5822
     8.5990   8.6900   8.8161   8.8808   8.9341   8.9573   9.0207   9.1785
     9.4512   9.6178   9.6921   9.7316   9.7953   9.7969   9.8320   9.9600
     9.9893  10.0329  10.1027  10.1323  10.1921  10.2756  10.3044  10.4027
    10.6079  10.6144  10.7271  10.7589  11.2275  12.2330  12.3716  12.5145
    12.7179  12.9331  13.3361  13.4322  13.4366  13.6219  13.7631  14.0434
    14.1194  14.1509  14.2494  14.2728  14.2914  14.4720  14.5689  14.7169
    14.8566  14.8738  14.9547  15.1336  15.2496  15.2636  15.3343  15.3383
    15.3859  15.4546  15.5166  15.5508  15.6016  15.6215  15.7701  15.8941
    15.9405  16.0844  16.1581  16.2965  16.3916  16.4581  16.4847  16.6144
    16.8292  17.0598  17.1451

          k = 0.1667 0.1667 0.2129 ( 29191 PWs)   bands (ev):

   -35.4130 -35.4130 -35.4130 -35.4129 -35.4118 -35.4118 -35.4117 -35.4117
   -35.4005 -35.4004 -35.4003 -35.4003 -35.3999 -35.3999 -35.3998 -35.3997
   -35.3953 -35.3951 -35.3951 -35.3950 -35.3483 -35.3483 -35.3482 -35.3482
   -35.3466 -35.3465 -35.3465 -35.3465 -35.3415 -35.3415 -35.3414 -35.3414
   -35.3396 -35.3395 -35.3395 -35.3394 -35.3373 -35.3371 -35.3371 -35.3370
   -11.9989 -11.9941 -11.9829 -11.9719 -11.9685 -11.9593 -11.9591 -11.9530
   -11.9352 -11.9108 -11.9044 -11.9016 -11.8788 -11.8101 -11.8003 -11.7985
   -11.7963 -11.7935 -11.7916 -11.7888 -11.7857 -11.7828 -11.7795 -11.7790
   -11.7771 -11.7750 -11.7720 -11.7705 -11.7670 -11.7662 -11.7655 -11.7626
   -11.7581 -11.7574 -11.7552 -11.7523 -11.7500 -11.7491 -11.7479 -11.7464
   -11.7439 -11.7358 -11.7334 -11.7302 -11.7294 -11.7276 -11.7249 -11.7240
   -11.7230 -11.7209 -11.7193 -11.7173 -11.7164 -11.7150 -11.7131 -11.7129
   -11.7115 -11.7107 -11.7096 -11.7081 -11.7075 -11.7068 -11.7010 -11.7002
   -11.6985 -11.6976 -11.6936 -11.6911 -11.6908 -11.6895 -11.6890 -11.6877
   -11.6869 -11.6794 -11.6753 -11.6711 -11.6699 -11.6651 -11.6643 -11.6629
    -8.4893  -8.3240  -7.4759  -7.4737  -7.4617  -7.2759  -6.9288  -6.8884
    -6.7804  -6.7782  -6.7731  -6.7355  -6.7202  -6.1408  -5.9953  -1.9140
    -1.6461  -0.8304  -0.8178  -0.7414  -0.7217  -0.3143  -0.2829  -0.0963
     0.0412   0.1543   0.3343   0.3769   0.3918   0.4228   0.5212   0.5685
     0.8726   0.9697   1.1010   1.2197   1.3821   2.5028   2.8389   5.1924
     5.3185   5.3588   5.3963   5.4955   5.5009   5.5731   5.5845   5.6025
     5.6831   5.9343   5.9637   6.1514   6.2533   6.3436   6.3569   6.4844
     6.5970   6.6064   6.7319   6.7461   6.7815   6.8772   6.9544   7.2264
     7.2720   7.4774   7.5154   7.5376   7.6042   7.6909   7.7876   7.8457
     7.8798   8.1261   8.1685   8.2853   8.3338   8.3927   8.4208   8.5181
     8.5865   8.5968   8.6381   8.7365   8.8337   8.9219   9.0122   9.1778
     9.4420   9.6971   9.7400   9.7758   9.7992   9.8363   9.8848   9.9459
     9.9803  10.0361  10.0840  10.1606  10.1803  10.2571  10.2852  10.3802
    10.6267  10.6463  10.7082  10.7326  11.3160  12.3358  12.4522  12.5646
    12.8306  12.9632  13.2993  13.4275  13.4967  13.5681  13.7077  13.8240
    13.9259  14.1289  14.1409  14.2278  14.2319  14.3177  14.3415  14.7092
    14.8832  14.9818  15.0181  15.0501  15.2599  15.3071  15.3626  15.4265
    15.5103  15.5152  15.5609  15.5991  15.6728  15.7227  15.8432  15.9606
    16.0408  16.1685  16.2736  16.3236  16.3504  16.4151  16.5115  16.5356
    16.6468  16.9071  17.0737

          k = 0.1667 0.1667-0.3194 ( 29224 PWs)   bands (ev):

   -35.4131 -35.4131 -35.4130 -35.4130 -35.4118 -35.4118 -35.4118 -35.4117
   -35.4005 -35.4005 -35.4004 -35.4003 -35.4000 -35.3999 -35.3999 -35.3998
   -35.3953 -35.3951 -35.3951 -35.3950 -35.3483 -35.3483 -35.3483 -35.3483
   -35.3466 -35.3466 -35.3466 -35.3465 -35.3415 -35.3415 -35.3415 -35.3415
   -35.3396 -35.3396 -35.3395 -35.3395 -35.3372 -35.3372 -35.3371 -35.3371
   -11.9989 -11.9933 -11.9820 -11.9726 -11.9692 -11.9589 -11.9589 -11.9541
   -11.9359 -11.9100 -11.9035 -11.9024 -11.8796 -11.8078 -11.8011 -11.7975
   -11.7966 -11.7932 -11.7917 -11.7884 -11.7851 -11.7850 -11.7791 -11.7789
   -11.7768 -11.7750 -11.7732 -11.7713 -11.7672 -11.7664 -11.7662 -11.7630
   -11.7586 -11.7582 -11.7557 -11.7538 -11.7503 -11.7497 -11.7476 -11.7470
   -11.7441 -11.7352 -11.7328 -11.7286 -11.7266 -11.7265 -11.7256 -11.7233
   -11.7219 -11.7198 -11.7189 -11.7172 -11.7161 -11.7148 -11.7133 -11.7122
   -11.7119 -11.7104 -11.7100 -11.7084 -11.7074 -11.7067 -11.7018 -11.7002
   -11.6983 -11.6977 -11.6938 -11.6916 -11.6910 -11.6898 -11.6892 -11.6877
   -11.6876 -11.6795 -11.6758 -11.6712 -11.6701 -11.6652 -11.6644 -11.6630
    -8.4892  -8.3242  -7.4758  -7.4716  -7.4637  -7.2760  -6.9287  -6.8886
    -6.7804  -6.7762  -6.7751  -6.7353  -6.7204  -6.1408  -5.9953  -1.8109
    -1.7701  -0.8110  -0.7732  -0.7682  -0.7599  -0.3032  -0.2945  -0.0779
     0.0138   0.1533   0.3591   0.3913   0.4042   0.4897   0.5300   0.6074
     0.7377   0.9508   1.1909   1.2000   1.3049   2.5757   2.7912   5.2224
     5.2961   5.3217   5.4047   5.4702   5.5250   5.5583   5.5860   5.6005
     5.7013   5.8881   5.9399   6.2467   6.3389   6.3612   6.3998   6.4614
     6.5333   6.5940   6.7173   6.7378   6.7543   6.8752   6.9176   7.2034
     7.2808   7.4971   7.5351   7.5378   7.5936   7.7437   7.7960   7.8534
     8.0709   8.0782   8.1309   8.2340   8.3490   8.4614   8.5005   8.5007
     8.5243   8.5519   8.5594   8.5966   8.8165   8.9163   9.0137   9.1776
     9.4409   9.7173   9.7317   9.7397   9.8755   9.8765   9.9037   9.9230
     9.9727   9.9781  10.1603  10.1634  10.1940  10.2663  10.2840  10.3161
    10.6388  10.6748  10.7003  10.7016  11.3625  12.3189  12.4844  12.7405
    12.9428  12.9596  13.2691  13.3071  13.4476  13.5696  13.6818  13.8489
    13.8586  13.9326  14.0895  14.1101  14.2593  14.2834  14.5447  14.5640
    14.8587  14.9064  15.0538  15.1196  15.2555  15.3300  15.4610  15.4645
    15.5092  15.5167  15.6125  15.6349  15.6504  15.7253  15.8009  15.9742
    16.2689  16.2943  16.3136  16.3424  16.3726  16.4641  16.4985  16.5251
    16.5591  16.5663  17.0630

          k = 0.1667 0.3333 0.0000 ( 29163 PWs)   bands (ev):

   -35.4131 -35.4130 -35.4129 -35.4129 -35.4118 -35.4117 -35.4116 -35.4116
   -35.4005 -35.4004 -35.4003 -35.4002 -35.3999 -35.3999 -35.3998 -35.3997
   -35.3953 -35.3952 -35.3951 -35.3949 -35.3483 -35.3482 -35.3482 -35.3481
   -35.3465 -35.3465 -35.3464 -35.3464 -35.3415 -35.3415 -35.3414 -35.3413
   -35.3396 -35.3395 -35.3395 -35.3394 -35.3373 -35.3372 -35.3371 -35.3369
   -11.9929 -11.9896 -11.9751 -11.9696 -11.9663 -11.9646 -11.9594 -11.9453
   -11.9416 -11.9238 -11.9071 -11.8697 -11.8539 -11.8124 -11.8051 -11.7967
   -11.7946 -11.7930 -11.7877 -11.7858 -11.7849 -11.7826 -11.7806 -11.7788
   -11.7744 -11.7727 -11.7703 -11.7688 -11.7658 -11.7643 -11.7615 -11.7604
   -11.7596 -11.7553 -11.7545 -11.7512 -11.7494 -11.7477 -11.7449 -11.7444
   -11.7421 -11.7398 -11.7376 -11.7358 -11.7342 -11.7334 -11.7316 -11.7276
   -11.7263 -11.7248 -11.7228 -11.7200 -11.7185 -11.7178 -11.7170 -11.7158
   -11.7141 -11.7128 -11.7106 -11.7084 -11.7081 -11.7061 -11.7054 -11.7023
   -11.6996 -11.6983 -11.6967 -11.6954 -11.6934 -11.6905 -11.6899 -11.6877
   -11.6864 -11.6804 -11.6766 -11.6751 -11.6707 -11.6682 -11.6657 -11.6640
    -8.3430  -8.2075  -7.8143  -7.6801  -7.3843  -7.2769  -7.0877  -6.9722
    -6.7470  -6.7207  -6.6952  -6.5530  -6.4805  -6.1943  -6.0869  -1.8632
    -1.3482  -1.2559  -0.9211  -0.7645  -0.6190  -0.4353  -0.4156  -0.0380
     0.1244   0.1761   0.2794   0.3560   0.4359   0.4848   0.6116   0.6883
     0.7733   1.0772   1.1345   1.4014   1.7168   2.2437   2.5618   5.0849
     5.1913   5.2311   5.2690   5.3480   5.4121   5.4913   5.5066   5.6451
     5.7497   5.8011   6.0181   6.1165   6.2191   6.2544   6.3841   6.4386
     6.6437   6.7567   6.8270   6.8889   6.9926   7.1111   7.2569   7.3209
     7.4170   7.4580   7.5010   7.5362   7.6358   7.7124   7.7656   7.8782
     7.9159   8.0495   8.1109   8.2169   8.3023   8.4144   8.4328   8.5740
     8.7106   8.7319   8.8330   8.8670   9.0252   9.0545   9.1250   9.2439
     9.3129   9.4634   9.5895   9.6223   9.6494   9.6981   9.8049   9.8634
     9.8908   9.9266  10.0036  10.0206  10.0651  10.1051  10.1152  10.1722
    10.3840  10.5072  10.6508  10.7134  11.4618  12.4279  12.7573  12.8593
    12.9891  13.2190  13.2331  13.3592  13.5692  13.6793  13.8727  14.0176
    14.0892  14.2000  14.2385  14.3279  14.4683  14.5322  14.6035  14.6318
    14.6696  14.6919  14.7650  14.8745  14.9492  15.0402  15.0759  15.2358
    15.3463  15.4023  15.5325  15.6661  15.7632  15.8304  15.8751  15.9685
    16.0043  16.0343  16.1161  16.2324  16.2790  16.4777  16.6316  16.7415
    16.7944  16.8702  16.9996

          k = 0.1667 0.3333 0.1065 ( 29165 PWs)   bands (ev):

   -35.4131 -35.4130 -35.4129 -35.4129 -35.4118 -35.4117 -35.4117 -35.4116
   -35.4005 -35.4004 -35.4003 -35.4003 -35.3999 -35.3999 -35.3999 -35.3998
   -35.3952 -35.3951 -35.3951 -35.3949 -35.3483 -35.3482 -35.3482 -35.3482
   -35.3465 -35.3465 -35.3464 -35.3464 -35.3415 -35.3415 -35.3414 -35.3414
   -35.3396 -35.3395 -35.3395 -35.3394 -35.3373 -35.3371 -35.3371 -35.3370
   -11.9929 -11.9890 -11.9749 -11.9690 -11.9661 -11.9646 -11.9600 -11.9460
   -11.9425 -11.9229 -11.9080 -11.8690 -11.8550 -11.8115 -11.8041 -11.7964
   -11.7947 -11.7928 -11.7878 -11.7864 -11.7848 -11.7827 -11.7797 -11.7788
   -11.7749 -11.7735 -11.7712 -11.7698 -11.7673 -11.7638 -11.7614 -11.7605
   -11.7592 -11.7561 -11.7547 -11.7517 -11.7503 -11.7484 -11.7457 -11.7431
   -11.7415 -11.7408 -11.7368 -11.7351 -11.7336 -11.7322 -11.7301 -11.7273
   -11.7258 -11.7244 -11.7223 -11.7198 -11.7185 -11.7178 -11.7162 -11.7154
   -11.7136 -11.7131 -11.7105 -11.7085 -11.7080 -11.7061 -11.7052 -11.7022
   -11.6998 -11.6983 -11.6968 -11.6955 -11.6937 -11.6908 -11.6901 -11.6880
   -11.6869 -11.6806 -11.6769 -11.6752 -11.6708 -11.6684 -11.6658 -11.6641
    -8.3428  -8.2078  -7.8142  -7.6803  -7.3841  -7.2770  -7.0876  -6.9723
    -6.7469  -6.7207  -6.6952  -6.5530  -6.4805  -6.1943  -6.0869  -1.8370
    -1.3959  -1.2372  -0.9484  -0.7549  -0.6289  -0.4350  -0.4155  -0.0282
     0.1404   0.2142   0.2603   0.3558   0.4509   0.4931   0.5782   0.7222
     0.7940   1.0231   1.1231   1.4171   1.6966   2.2648   2.5488   5.0813
     5.1993   5.2256   5.2569   5.3131   5.3743   5.5016   5.5474   5.6509
     5.7880   5.8107   6.0222   6.1274   6.2218   6.2613   6.3729   6.4498
     6.6453   6.7757   6.7945   6.8715   6.9838   7.0780   7.2450   7.3075
     7.3843   7.4742   7.4979   7.5879   7.7079   7.7526   7.7788   7.8685
     7.9187   8.0459   8.1175   8.2039   8.2831   8.4194   8.4276   8.5710
     8.6915   8.7328   8.8032   8.8669   8.9406   9.0249   9.0577   9.1433
     9.3947   9.5273   9.5869   9.6310   9.6956   9.7262   9.8084   9.8647
     9.9007   9.9298  10.0033  10.0126  10.0632  10.0978  10.1523  10.1941
    10.3847  10.5085  10.6601  10.7172  11.4711  12.4740  12.7834  12.8801
    12.9551  13.1948  13.2543  13.3845  13.5711  13.6581  13.8458  13.9909
    14.0583  14.1753  14.1967  14.2589  14.3539  14.3766  14.4508  14.6130
    14.6896  14.7409  14.7929  14.8857  15.0023  15.1039  15.1911  15.3396
    15.3709  15.4894  15.5748  15.6440  15.7412  15.8612  15.9009  15.9620
    16.0245  16.0586  16.1309  16.2263  16.2937  16.4750  16.5984  16.7124
    16.7793  16.8596  16.9624

          k = 0.1667 0.3333 0.2129 ( 29179 PWs)   bands (ev):

   -35.4131 -35.4130 -35.4129 -35.4129 -35.4118 -35.4117 -35.4117 -35.4116
   -35.4005 -35.4004 -35.4004 -35.4003 -35.4000 -35.3999 -35.3999 -35.3998
   -35.3952 -35.3951 -35.3951 -35.3950 -35.3484 -35.3483 -35.3482 -35.3482
   -35.3465 -35.3465 -35.3465 -35.3464 -35.3415 -35.3415 -35.3415 -35.3414
   -35.3396 -35.3395 -35.3395 -35.3394 -35.3372 -35.3371 -35.3371 -35.3371
   -11.9928 -11.9878 -11.9743 -11.9680 -11.9661 -11.9641 -11.9614 -11.9474
   -11.9441 -11.9208 -11.9102 -11.8669 -11.8577 -11.8091 -11.8020 -11.7972
   -11.7942 -11.7919 -11.7885 -11.7876 -11.7848 -11.7824 -11.7790 -11.7779
   -11.7768 -11.7745 -11.7729 -11.7704 -11.7694 -11.7638 -11.7622 -11.7604
   -11.7592 -11.7572 -11.7549 -11.7525 -11.7515 -11.7493 -11.7466 -11.7434
   -11.7427 -11.7384 -11.7354 -11.7344 -11.7327 -11.7297 -11.7280 -11.7265
   -11.7245 -11.7233 -11.7215 -11.7198 -11.7180 -11.7176 -11.7149 -11.7145
   -11.7141 -11.7125 -11.7108 -11.7090 -11.7076 -11.7066 -11.7041 -11.7021
   -11.7005 -11.6982 -11.6970 -11.6957 -11.6946 -11.6918 -11.6905 -11.6885
   -11.6879 -11.6808 -11.6777 -11.6756 -11.6711 -11.6688 -11.6659 -11.6644
    -8.3424  -8.2082  -7.8139  -7.6806  -7.3839  -7.2773  -7.0875  -6.9724
    -6.7467  -6.7208  -6.6954  -6.5529  -6.4806  -6.1943  -6.0869  -1.7619
    -1.5104  -1.1848  -1.0168  -0.7298  -0.6545  -0.4353  -0.4145  -0.0014
     0.1257   0.2124   0.3283   0.3976   0.4673   0.5074   0.5743   0.7205
     0.8228   0.9258   1.0879   1.4666   1.6395   2.3126   2.5165   5.0737
     5.1763   5.2050   5.2655   5.3128   5.3374   5.4784   5.5359   5.7242
     5.7933   5.9107   5.9969   6.1357   6.2162   6.3260   6.3638   6.4823
     6.6453   6.7157   6.7739   6.8437   6.9364   7.0477   7.2203   7.2698
     7.3937   7.4876   7.5676   7.6767   7.7315   7.7822   7.8365   7.8774
     7.9384   8.0565   8.1045   8.1890   8.2690   8.4061   8.4511   8.5492
     8.6249   8.7099   8.7381   8.7908   8.8807   8.9545   8.9848   9.1159
     9.3619   9.5432   9.6273   9.7344   9.7653   9.7858   9.8177   9.8509
     9.8849   9.9548   9.9916  10.0105  10.0533  10.0701  10.2429  10.2710
    10.3766  10.4927  10.6757  10.7250  11.4875  12.5780  12.8058  12.8744
    13.0169  13.1867  13.2716  13.4414  13.5542  13.6319  13.7440  13.8777
    13.9109  14.0128  14.0716  14.1555  14.2340  14.3312  14.4119  14.6068
    14.6636  14.7213  14.7906  14.9249  15.1364  15.2073  15.3139  15.3744
    15.4463  15.5082  15.6178  15.7326  15.8402  15.8581  15.9519  15.9798
    16.0535  16.1529  16.2019  16.2289  16.3319  16.4646  16.5343  16.6360
    16.6827  16.8180  16.8624

          k = 0.1667 0.3333-0.3194 ( 29206 PWs)   bands (ev):

   -35.4131 -35.4130 -35.4130 -35.4129 -35.4118 -35.4117 -35.4117 -35.4117
   -35.4005 -35.4005 -35.4004 -35.4003 -35.4000 -35.3999 -35.3999 -35.3998
   -35.3952 -35.3951 -35.3951 -35.3951 -35.3484 -35.3483 -35.3482 -35.3482
   -35.3466 -35.3465 -35.3465 -35.3465 -35.3416 -35.3415 -35.3415 -35.3414
   -35.3396 -35.3396 -35.3395 -35.3395 -35.3372 -35.3372 -35.3371 -35.3371
   -11.9928 -11.9871 -11.9741 -11.9673 -11.9665 -11.9635 -11.9621 -11.9483
   -11.9450 -11.9194 -11.9116 -11.8653 -11.8597 -11.8075 -11.8013 -11.7977
   -11.7935 -11.7913 -11.7892 -11.7881 -11.7850 -11.7823 -11.7797 -11.7774
   -11.7764 -11.7750 -11.7739 -11.7713 -11.7696 -11.7639 -11.7624 -11.7612
   -11.7594 -11.7572 -11.7549 -11.7527 -11.7521 -11.7498 -11.7468 -11.7437
   -11.7432 -11.7371 -11.7350 -11.7339 -11.7324 -11.7289 -11.7275 -11.7253
   -11.7235 -11.7228 -11.7210 -11.7199 -11.7180 -11.7172 -11.7151 -11.7139
   -11.7136 -11.7124 -11.7110 -11.7093 -11.7072 -11.7070 -11.7034 -11.7021
   -11.7009 -11.6981 -11.6971 -11.6958 -11.6952 -11.6923 -11.6906 -11.6887
   -11.6885 -11.6810 -11.6780 -11.6758 -11.6713 -11.6690 -11.6660 -11.6645
    -8.3421  -8.2085  -7.8137  -7.6808  -7.3838  -7.2774  -7.0875  -6.9725
    -6.7466  -6.7208  -6.6954  -6.5529  -6.4806  -6.1943  -6.0869  -1.6659
    -1.6248  -1.1243  -1.0851  -0.7056  -0.6791  -0.4357  -0.4137   0.0215
     0.0993   0.2127   0.3154   0.4712   0.4879   0.5736   0.5839   0.6901
     0.7243   0.9537   1.0537   1.5220   1.5808   2.3425   2.4939   5.0699
     5.1544   5.1964   5.2764   5.3042   5.3729   5.4304   5.5211   5.7867
     5.7927   5.9031   6.0583   6.1334   6.1667   6.3391   6.3998   6.5452
     6.6446   6.6525   6.7315   6.8493   6.8854   7.0555   7.1997   7.2570
     7.4194   7.4901   7.6464   7.6924   7.7344   7.7801   7.8196   7.9001
     7.9820   8.0499   8.0737   8.2231   8.2777   8.4278   8.4477   8.5071
     8.5693   8.6407   8.7315   8.7626   8.8771   8.9230   8.9721   9.1106
     9.3473   9.5316   9.6349   9.7582   9.7909   9.8216   9.8391   9.8484
     9.9256   9.9386   9.9801  10.0165  10.0403  10.0524  10.2958  10.3092
    10.3991  10.4503  10.6823  10.7290  11.4944  12.6435  12.8073  12.8353
    13.1344  13.2303  13.2912  13.3932  13.5306  13.6192  13.7305  13.7625
    13.7995  13.9161  14.0112  14.1124  14.2074  14.3177  14.5422  14.5841
    14.6221  14.6650  14.8050  14.9226  15.1619  15.3155  15.3234  15.4310
    15.4413  15.5446  15.6050  15.7145  15.8186  15.8856  15.9810  16.0535
    16.1392  16.2012  16.2390  16.2762  16.3752  16.4619  16.5471  16.5731
    16.6002  16.6294  16.8522

          k = 0.1667-0.5000 0.0000 ( 29174 PWs)   bands (ev):

   -35.4132 -35.4130 -35.4130 -35.4129 -35.4118 -35.4117 -35.4116 -35.4116
   -35.4005 -35.4004 -35.4003 -35.4003 -35.3999 -35.3999 -35.3998 -35.3998
   -35.3953 -35.3952 -35.3951 -35.3949 -35.3484 -35.3483 -35.3483 -35.3482
   -35.3466 -35.3465 -35.3464 -35.3464 -35.3415 -35.3415 -35.3415 -35.3414
   -35.3396 -35.3395 -35.3395 -35.3394 -35.3373 -35.3372 -35.3371 -35.3369
   -11.9856 -11.9842 -11.9792 -11.9777 -11.9628 -11.9549 -11.9512 -11.9465
   -11.9450 -11.9330 -11.9150 -11.8443 -11.8238 -11.8217 -11.8114 -11.8069
   -11.7946 -11.7935 -11.7914 -11.7871 -11.7859 -11.7853 -11.7780 -11.7771
   -11.7736 -11.7733 -11.7718 -11.7651 -11.7624 -11.7622 -11.7597 -11.7581
   -11.7569 -11.7566 -11.7548 -11.7509 -11.7499 -11.7466 -11.7457 -11.7451
   -11.7434 -11.7427 -11.7383 -11.7349 -11.7346 -11.7333 -11.7310 -11.7287
   -11.7265 -11.7255 -11.7240 -11.7221 -11.7211 -11.7197 -11.7192 -11.7177
   -11.7175 -11.7133 -11.7132 -11.7093 -11.7075 -11.7045 -11.7038 -11.7034
   -11.7018 -11.6991 -11.6987 -11.6976 -11.6937 -11.6934 -11.6908 -11.6867
   -11.6847 -11.6827 -11.6804 -11.6770 -11.6718 -11.6678 -11.6670 -11.6644
    -8.1194  -8.1099  -8.0948  -7.8355  -7.2557  -7.2474  -7.2397  -7.0215
    -6.7158  -6.7113  -6.7070  -6.4479  -6.2481  -6.2477  -6.2431  -1.6177
    -1.5915  -1.1796  -1.1307  -0.6254  -0.6027  -0.5297  -0.5116   0.0638
     0.0981   0.2251   0.2391   0.3922   0.4230   0.5689   0.5886   0.8097
     0.8191   0.9522   1.0098   1.7484   2.0482   2.0724   2.1679   5.1067
     5.1199   5.1399   5.1688   5.2729   5.3456   5.4434   5.4558   5.6236
     5.6641   6.0497   6.0537   6.0817   6.1834   6.3012   6.3235   6.4912
     6.6230   6.8750   6.8910   7.0561   7.0753   7.1507   7.2515   7.3927
     7.3948   7.4407   7.5513   7.6244   7.6366   7.7122   7.7327   7.7459
     7.8353   8.1018   8.1424   8.3431   8.3986   8.4461   8.5440   8.5670
     8.6474   8.6562   8.7395   8.9996   9.0747   9.1125   9.2329   9.2792
     9.3465   9.3732   9.5873   9.6062   9.6397   9.6776   9.6865   9.7633
     9.8007   9.8540   9.9000   9.9248   9.9290   9.9503  10.0926  10.1792
    10.3092  10.3767  10.6200  10.6778  11.5570  12.6829  12.8195  13.0963
    13.1125  13.4752  13.4852  13.5627  13.6261  13.7452  13.7504  13.9213
    13.9284  14.0632  14.0714  14.2387  14.3227  14.3348  14.4014  14.4914
    14.5338  14.8177  14.8191  14.9391  15.0047  15.0716  15.0965  15.2224
    15.2975  15.4491  15.4679  15.6028  15.6325  15.6870  15.9153  15.9464
    16.1643  16.2191  16.2861  16.3542  16.3626  16.5045  16.5513  16.5626
    16.7364  16.8042  16.9670

          k = 0.1667-0.5000 0.1065 ( 29142 PWs)   bands (ev):

   -35.4131 -35.4130 -35.4129 -35.4129 -35.4117 -35.4116 -35.4116 -35.4116
   -35.4005 -35.4004 -35.4003 -35.4002 -35.3999 -35.3999 -35.3998 -35.3998
   -35.3952 -35.3951 -35.3950 -35.3949 -35.3483 -35.3482 -35.3482 -35.3482
   -35.3465 -35.3464 -35.3464 -35.3463 -35.3415 -35.3415 -35.3414 -35.3414
   -35.3396 -35.3395 -35.3395 -35.3394 -35.3372 -35.3371 -35.3371 -35.3369
   -11.9855 -11.9841 -11.9787 -11.9774 -11.9629 -11.9553 -11.9520 -11.9457
   -11.9440 -11.9340 -11.9159 -11.8442 -11.8235 -11.8225 -11.8109 -11.8055
   -11.7953 -11.7928 -11.7909 -11.7868 -11.7867 -11.7851 -11.7781 -11.7780
   -11.7737 -11.7729 -11.7714 -11.7669 -11.7639 -11.7634 -11.7598 -11.7580
   -11.7571 -11.7550 -11.7547 -11.7507 -11.7501 -11.7466 -11.7457 -11.7451
   -11.7431 -11.7419 -11.7388 -11.7362 -11.7341 -11.7332 -11.7290 -11.7287
   -11.7265 -11.7246 -11.7235 -11.7217 -11.7207 -11.7192 -11.7189 -11.7172
   -11.7169 -11.7136 -11.7127 -11.7097 -11.7073 -11.7042 -11.7041 -11.7035
   -11.7014 -11.6992 -11.6989 -11.6976 -11.6939 -11.6936 -11.6914 -11.6870
   -11.6850 -11.6831 -11.6805 -11.6772 -11.6720 -11.6680 -11.6670 -11.6645
    -8.1180  -8.1098  -8.0962  -7.8356  -7.2546  -7.2474  -7.2407  -7.0216
    -6.7152  -6.7113  -6.7076  -6.4479  -6.2479  -6.2477  -6.2432  -1.5925
    -1.5701  -1.2137  -1.1757  -0.6177  -0.5991  -0.5330  -0.5189   0.0718
     0.1084   0.2474   0.2708   0.3716   0.3935   0.6099   0.6297   0.7837
     0.8086   0.9383   0.9937   1.7469   2.0499   2.0711   2.1599   5.0995
     5.0997   5.1428   5.1635   5.2655   5.2814   5.4882   5.5027   5.6558
     5.6788   6.0427   6.0526   6.0733   6.1728   6.2961   6.3235   6.5134
     6.6356   6.8607   6.8978   7.0630   7.0783   7.1575   7.2604   7.3595
     7.3724   7.4207   7.4700   7.5791   7.6536   7.7380   7.7834   7.8217
     7.8927   8.0968   8.1550   8.3297   8.3954   8.3994   8.5309   8.5802
     8.6458   8.6643   8.7158   8.9633   9.0528   9.0706   9.2036   9.2423
     9.3314   9.3625   9.5678   9.5955   9.6400   9.7083   9.7367   9.7922
     9.8330   9.8553   9.9066   9.9309   9.9761  10.0006  10.0702  10.1280
    10.3716  10.4282  10.6137  10.6763  11.5461  12.6762  12.8342  13.0824
    13.1246  13.4946  13.5112  13.5571  13.6378  13.7393  13.7398  13.7633
    13.8925  14.0614  14.0955  14.1485  14.2601  14.3440  14.4150  14.4841
    14.5131  14.7179  14.8081  14.9170  14.9751  15.0923  15.1954  15.3095
    15.3733  15.4813  15.5251  15.6023  15.6260  15.7325  15.9112  15.9697
    16.1780  16.2220  16.3029  16.3745  16.3772  16.4996  16.5451  16.5531
    16.7095  16.7682  16.9183

          k = 0.1667-0.5000 0.2129 ( 29174 PWs)   bands (ev):

   -35.4131 -35.4130 -35.4129 -35.4129 -35.4118 -35.4117 -35.4117 -35.4116
   -35.4005 -35.4005 -35.4003 -35.4003 -35.4000 -35.3999 -35.3999 -35.3998
   -35.3952 -35.3951 -35.3951 -35.3950 -35.3484 -35.3483 -35.3482 -35.3482
   -35.3465 -35.3465 -35.3464 -35.3464 -35.3416 -35.3415 -35.3415 -35.3414
   -35.3396 -35.3396 -35.3395 -35.3394 -35.3372 -35.3371 -35.3371 -35.3370
   -11.9852 -11.9840 -11.9776 -11.9765 -11.9634 -11.9564 -11.9537 -11.9436
   -11.9421 -11.9366 -11.9179 -11.8440 -11.8241 -11.8229 -11.8098 -11.8027
   -11.7957 -11.7922 -11.7904 -11.7884 -11.7865 -11.7849 -11.7796 -11.7782
   -11.7742 -11.7726 -11.7708 -11.7699 -11.7657 -11.7647 -11.7606 -11.7578
   -11.7574 -11.7549 -11.7531 -11.7505 -11.7503 -11.7469 -11.7456 -11.7452
   -11.7427 -11.7410 -11.7397 -11.7373 -11.7334 -11.7333 -11.7288 -11.7266
   -11.7258 -11.7226 -11.7221 -11.7210 -11.7201 -11.7188 -11.7181 -11.7161
   -11.7154 -11.7143 -11.7117 -11.7103 -11.7069 -11.7054 -11.7036 -11.7034
   -11.7006 -11.6997 -11.6992 -11.6975 -11.6944 -11.6940 -11.6927 -11.6875
   -11.6857 -11.6841 -11.6808 -11.6776 -11.6725 -11.6684 -11.6672 -11.6648
    -8.1147  -8.1097  -8.0996  -7.8358  -7.2518  -7.2473  -7.2435  -7.0216
    -6.7137  -6.7113  -6.7091  -6.4479  -6.2477  -6.2477  -6.2434  -1.5203
    -1.5106  -1.2975  -1.2847  -0.5968  -0.5925  -0.5391  -0.5390   0.0931
     0.1370   0.2297   0.2711   0.4137   0.4463   0.6308   0.6793   0.7502
     0.7929   0.9046   0.9500   1.7438   2.0543   2.0685   2.1430   5.0650
     5.0653   5.1218   5.2044   5.2414   5.2729   5.4467   5.5238   5.7703
     5.7823   6.0079   6.0513   6.0556   6.1338   6.2851   6.3223   6.5793
     6.6640   6.7980   6.9057   7.0830   7.0859   7.1595   7.2646   7.3203
     7.3276   7.3972   7.4066   7.5512   7.6026   7.7755   7.8558   7.9901
     8.0015   8.0994   8.1613   8.2594   8.3250   8.3993   8.4982   8.5985
     8.6442   8.6761   8.6802   8.7904   9.0330   9.0433   9.1516   9.1677
     9.3263   9.3876   9.5064   9.5382   9.6508   9.7957   9.8178   9.8646
     9.8930   9.9066   9.9320   9.9328  10.0128  10.0234  10.0610  10.0735
    10.4668  10.5205  10.5914  10.6677  11.5244  12.6704  12.8668  13.0575
    13.1782  13.4793  13.5126  13.5932  13.6128  13.6778  13.7180  13.7578
    13.7921  13.9551  13.9959  14.0858  14.1087  14.3089  14.4324  14.4772
    14.5070  14.7021  14.7392  14.8747  15.0603  15.1490  15.2423  15.3468
    15.3646  15.5708  15.6164  15.6849  15.7102  15.8342  15.9071  16.0063
    16.2065  16.2225  16.3067  16.4620  16.4656  16.4948  16.5340  16.5351
    16.6371  16.6722  16.7910

          k = 0.1667-0.5000-0.3194 ( 29164 PWs)   bands (ev):

   -35.4131 -35.4129 -35.4129 -35.4129 -35.4117 -35.4117 -35.4117 -35.4116
   -35.4005 -35.4004 -35.4003 -35.4003 -35.4000 -35.3999 -35.3998 -35.3998
   -35.3952 -35.3951 -35.3951 -35.3950 -35.3483 -35.3482 -35.3482 -35.3482
   -35.3465 -35.3465 -35.3464 -35.3464 -35.3415 -35.3415 -35.3415 -35.3414
   -35.3396 -35.3395 -35.3395 -35.3395 -35.3372 -35.3371 -35.3371 -35.3371
   -11.9851 -11.9839 -11.9770 -11.9760 -11.9636 -11.9569 -11.9544 -11.9414
   -11.9411 -11.9389 -11.9190 -11.8438 -11.8249 -11.8226 -11.8092 -11.8011
   -11.7952 -11.7932 -11.7904 -11.7884 -11.7871 -11.7847 -11.7800 -11.7783
   -11.7746 -11.7727 -11.7710 -11.7707 -11.7664 -11.7650 -11.7612 -11.7577
   -11.7575 -11.7551 -11.7525 -11.7506 -11.7501 -11.7470 -11.7456 -11.7452
   -11.7426 -11.7408 -11.7400 -11.7376 -11.7335 -11.7330 -11.7289 -11.7267
   -11.7241 -11.7220 -11.7205 -11.7201 -11.7196 -11.7190 -11.7184 -11.7154
   -11.7151 -11.7142 -11.7112 -11.7105 -11.7068 -11.7063 -11.7033 -11.7033
   -11.7001 -11.7000 -11.6991 -11.6974 -11.6946 -11.6943 -11.6935 -11.6877
   -11.6860 -11.6846 -11.6809 -11.6778 -11.6728 -11.6686 -11.6672 -11.6649
    -8.1123  -8.1096  -8.1021  -7.8359  -7.2490  -7.2473  -7.2464  -7.0217
    -6.7121  -6.7113  -6.7107  -6.4479  -6.2477  -6.2475  -6.2436  -1.4494
    -1.4142  -1.4078  -1.3702  -0.5894  -0.5729  -0.5624  -0.5418   0.1093
     0.1659   0.2078   0.2256   0.5008   0.5294   0.5924   0.6155   0.7961
     0.7963   0.8812   0.9122   1.7423   2.0573   2.0672   2.1337   5.0471
     5.0494   5.1146   5.1912   5.2850   5.2898   5.3886   5.5126   5.8677
     5.8722   5.9431   6.0495   6.0516   6.0931   6.2791   6.3207   6.6623
     6.6811   6.7094   6.9030   7.0929   7.1009   7.1474   7.2472   7.3132
     7.3133   7.3968   7.4106   7.5447   7.5603   7.7974   7.8713   8.0711
     8.1227   8.1398   8.1574   8.1656   8.2605   8.3956   8.4831   8.6286
     8.6329   8.6672   8.6789   8.6810   9.0188   9.0332   9.1283   9.1316
     9.3310   9.4377   9.4812   9.4845   9.6615   9.8180   9.8364   9.8839
     9.9114   9.9398   9.9871   9.9966   9.9996  10.0291  10.0336  10.0397
    10.5363  10.5515  10.5698  10.6556  11.5137  12.6721  12.8848  13.0465
    13.3012  13.3106  13.4465  13.6854  13.6950  13.7133  13.7349  13.7457
    13.7545  13.8727  13.8752  13.9107  14.1434  14.2833  14.4354  14.4778
    14.5141  14.7096  14.7319  14.8480  15.1165  15.2023  15.2330  15.3036
    15.3592  15.5885  15.6329  15.7536  15.7968  15.9074  15.9074  16.0042
    16.2290  16.2332  16.3003  16.5000  16.5239  16.5287  16.5726  16.5852
    16.6131  16.6152  16.6444

          k = 0.3333 0.3333 0.0000 ( 29195 PWs)   bands (ev):

   -35.4131 -35.4130 -35.4130 -35.4129 -35.4118 -35.4117 -35.4117 -35.4116
   -35.4005 -35.4005 -35.4004 -35.4003 -35.4000 -35.4000 -35.3999 -35.3998
   -35.3953 -35.3952 -35.3951 -35.3950 -35.3483 -35.3483 -35.3482 -35.3482
   -35.3466 -35.3465 -35.3464 -35.3464 -35.3416 -35.3415 -35.3415 -35.3415
   -35.3396 -35.3396 -35.3395 -35.3395 -35.3374 -35.3372 -35.3372 -35.3370
   -11.9892 -11.9884 -11.9781 -11.9777 -11.9632 -11.9606 -11.9511 -11.9446
   -11.9299 -11.8950 -11.8874 -11.8805 -11.8558 -11.8131 -11.8093 -11.8008
   -11.7997 -11.7952 -11.7903 -11.7884 -11.7845 -11.7813 -11.7763 -11.7760
   -11.7757 -11.7726 -11.7708 -11.7689 -11.7632 -11.7607 -11.7585 -11.7575
   -11.7558 -11.7552 -11.7539 -11.7515 -11.7492 -11.7467 -11.7464 -11.7451
   -11.7416 -11.7407 -11.7389 -11.7370 -11.7366 -11.7352 -11.7299 -11.7294
   -11.7289 -11.7253 -11.7240 -11.7233 -11.7208 -11.7196 -11.7169 -11.7169
   -11.7161 -11.7118 -11.7110 -11.7110 -11.7092 -11.7072 -11.7057 -11.7042
   -11.7039 -11.7003 -11.6979 -11.6975 -11.6950 -11.6944 -11.6913 -11.6886
   -11.6884 -11.6827 -11.6783 -11.6752 -11.6742 -11.6734 -11.6679 -11.6667
    -8.2036  -8.0911  -7.7066  -7.7048  -7.6837  -7.4895  -7.3170  -7.0671
    -6.5758  -6.5430  -6.4896  -6.4883  -6.4814  -6.2358  -6.1582  -1.7128
    -1.2339  -1.1409  -1.1314  -0.8583  -0.8078  -0.7016  -0.5562   0.0841
     0.1714   0.2761   0.3163   0.3657   0.3794   0.4956   0.7271   0.9096
     0.9122   1.1389   1.3055   1.4574   1.6959   2.1214   2.2788   4.9960
     5.0331   5.0493   5.0548   5.2038   5.3499   5.4336   5.4668   5.8927
     5.8999   6.0170   6.0895   6.1894   6.3739   6.4140   6.5668   6.6389
     6.7176   6.7422   6.8348   6.8563   6.9374   7.1018   7.1923   7.2471
     7.2617   7.2702   7.3033   7.3374   7.4252   7.4888   7.6501   7.7390
     7.9697   7.9979   8.1335   8.5101   8.5618   8.5653   8.6407   8.7697
     8.7737   8.8670   8.9295   9.0133   9.0558   9.0696   9.1711   9.3795
     9.4052   9.4500   9.4604   9.4820   9.4933   9.5095   9.5449   9.5854
     9.6264   9.8187  10.0141  10.0423  10.1443  10.1474  10.1970  10.4629
    10.4765  10.6024  10.6909  10.6982  11.2827  12.5073  12.5471  12.7691
    13.0093  13.1060  13.3339  13.5157  13.6083  13.8588  13.8920  14.0148
    14.0233  14.0994  14.1929  14.2918  14.3706  14.4484  14.5596  14.5736
    14.6531  14.6658  14.8372  14.8537  14.9153  14.9539  15.0432  15.1662
    15.4065  15.5011  15.5621  15.7202  15.8466  15.8549  16.0468  16.0527
    16.1752  16.1780  16.2444  16.2703  16.3652  16.3688  16.5227  16.5324
    16.5851  16.5892  16.9860

          k = 0.3333 0.3333 0.1065 ( 29175 PWs)   bands (ev):

   -35.4131 -35.4130 -35.4130 -35.4129 -35.4118 -35.4117 -35.4117 -35.4116
   -35.4005 -35.4004 -35.4004 -35.4003 -35.4000 -35.3999 -35.3998 -35.3998
   -35.3952 -35.3951 -35.3951 -35.3950 -35.3483 -35.3483 -35.3482 -35.3482
   -35.3466 -35.3465 -35.3465 -35.3464 -35.3416 -35.3415 -35.3415 -35.3414
   -35.3396 -35.3395 -35.3395 -35.3394 -35.3372 -35.3371 -35.3371 -35.3370
   -11.9891 -11.9881 -11.9779 -11.9774 -11.9634 -11.9612 -11.9514 -11.9438
   -11.9307 -11.8945 -11.8867 -11.8813 -11.8568 -11.8126 -11.8087 -11.7999
   -11.7989 -11.7963 -11.7900 -11.7879 -11.7860 -11.7806 -11.7765 -11.7763
   -11.7752 -11.7737 -11.7710 -11.7701 -11.7644 -11.7601 -11.7584 -11.7576
   -11.7559 -11.7550 -11.7539 -11.7517 -11.7497 -11.7482 -11.7463 -11.7449
   -11.7420 -11.7409 -11.7375 -11.7365 -11.7362 -11.7344 -11.7293 -11.7291
   -11.7285 -11.7254 -11.7234 -11.7219 -11.7208 -11.7191 -11.7171 -11.7162
   -11.7155 -11.7124 -11.7115 -11.7100 -11.7092 -11.7075 -11.7053 -11.7042
   -11.7038 -11.7005 -11.6982 -11.6974 -11.6951 -11.6945 -11.6918 -11.6892
   -11.6887 -11.6829 -11.6786 -11.6753 -11.6743 -11.6735 -11.6680 -11.6669
    -8.2034  -8.0913  -7.7054  -7.7048  -7.6848  -7.4895  -7.3170  -7.0671
    -6.5757  -6.5431  -6.4893  -6.4883  -6.4817  -6.2358  -6.1582  -1.6880
    -1.2774  -1.1235  -1.1145  -0.8798  -0.8348  -0.6920  -0.5662   0.0897
     0.2206   0.2640   0.3250   0.3653   0.3840   0.4945   0.7484   0.8632
     0.9158   1.1438   1.3277   1.4510   1.6741   2.1270   2.2721   5.0110
     5.0254   5.0551   5.0782   5.1881   5.3295   5.4140   5.4490   5.9151
     5.9528   6.0546   6.0931   6.2038   6.3528   6.3793   6.5511   6.6136
     6.7161   6.7527   6.8315   6.8584   6.9323   7.0382   7.0512   7.0999
     7.2412   7.2967   7.3647   7.4375   7.5200   7.5699   7.6920   7.8322
     7.9470   8.0023   8.1731   8.4915   8.5254   8.5625   8.6402   8.7735
     8.7770   8.8254   8.9258   8.9320   9.0539   9.0625   9.1246   9.3432
     9.3925   9.4361   9.4552   9.4965   9.5294   9.5465   9.5512   9.6184
     9.6657   9.8272   9.9763  10.0181  10.0754  10.1571  10.2784  10.4753
    10.4899  10.5971  10.6811  10.6874  11.3152  12.5635  12.6367  12.7977
    12.9284  13.1827  13.3145  13.5169  13.6240  13.7835  13.8560  13.8869
    14.0135  14.1238  14.1996  14.2904  14.3492  14.3886  14.4483  14.5407
    14.5863  14.6127  14.7585  14.9157  14.9655  15.0054  15.1219  15.1535
    15.4133  15.5423  15.6212  15.7830  15.8283  15.9111  16.0299  16.1295
    16.1566  16.2325  16.2411  16.2851  16.3286  16.3886  16.5115  16.5143
    16.5582  16.5807  16.9281

          k = 0.3333 0.3333 0.2129 ( 29182 PWs)   bands (ev):

   -35.4131 -35.4130 -35.4130 -35.4129 -35.4118 -35.4117 -35.4117 -35.4116
   -35.4005 -35.4004 -35.4004 -35.4003 -35.3999 -35.3999 -35.3999 -35.3998
   -35.3952 -35.3952 -35.3951 -35.3950 -35.3484 -35.3483 -35.3482 -35.3482
   -35.3465 -35.3465 -35.3464 -35.3464 -35.3415 -35.3415 -35.3415 -35.3414
   -35.3396 -35.3395 -35.3395 -35.3395 -35.3373 -35.3372 -35.3371 -35.3371
   -11.9889 -11.9871 -11.9775 -11.9769 -11.9638 -11.9624 -11.9523 -11.9416
   -11.9331 -11.8935 -11.8853 -11.8833 -11.8590 -11.8111 -11.8079 -11.7983
   -11.7978 -11.7965 -11.7902 -11.7885 -11.7871 -11.7800 -11.7782 -11.7765
   -11.7745 -11.7743 -11.7725 -11.7708 -11.7664 -11.7602 -11.7582 -11.7575
   -11.7560 -11.7551 -11.7536 -11.7519 -11.7506 -11.7500 -11.7462 -11.7447
   -11.7425 -11.7414 -11.7374 -11.7350 -11.7340 -11.7329 -11.7291 -11.7286
   -11.7271 -11.7248 -11.7223 -11.7208 -11.7196 -11.7179 -11.7169 -11.7154
   -11.7141 -11.7133 -11.7110 -11.7097 -11.7091 -11.7081 -11.7047 -11.7040
   -11.7034 -11.7011 -11.6986 -11.6974 -11.6952 -11.6948 -11.6931 -11.6903
   -11.6893 -11.6834 -11.6793 -11.6756 -11.6746 -11.6740 -11.6681 -11.6674
    -8.2029  -8.0919  -7.7046  -7.7026  -7.6877  -7.4896  -7.3170  -7.0672
    -6.5756  -6.5432  -6.4887  -6.4883  -6.4822  -6.2358  -6.1582  -1.6173
    -1.3823  -1.0776  -1.0667  -0.9314  -0.9038  -0.6681  -0.5914   0.1032
     0.2276   0.3112   0.3633   0.3728   0.4031   0.4955   0.7477   0.8106
     0.8971   1.1559   1.3843   1.4364   1.6185   2.1404   2.2566   5.0065
     5.0500   5.0920   5.1174   5.1536   5.2857   5.3705   5.4041   5.9700
     6.0691   6.1099   6.1600   6.2204   6.2794   6.3675   6.4784   6.5492
     6.6925   6.7621   6.8060   6.8392   6.8696   6.9321   6.9394   7.0547
     7.2136   7.3149   7.4455   7.5390   7.5449   7.6842   7.7969   7.9471
     8.0277   8.0943   8.2240   8.4209   8.4456   8.5388   8.6435   8.7033
     8.7342   8.7731   8.8391   8.9115   8.9980   9.0849   9.0981   9.3096
     9.3413   9.4085   9.4438   9.5070   9.5202   9.5894   9.6295   9.6655
     9.8156   9.8406   9.9133   9.9347  10.0160  10.1191  10.4036  10.5087
    10.5235  10.5781  10.6568  10.6592  11.3753  12.6388  12.7668  12.9207
    12.9907  13.2437  13.3472  13.4398  13.5181  13.6973  13.7678  13.7814
    13.8294  14.0908  14.1215  14.1954  14.2702  14.3529  14.4270  14.5411
    14.5972  14.6163  14.6969  14.8147  14.9742  15.0629  15.1508  15.2582
    15.4597  15.5333  15.7035  15.8597  15.9167  16.0088  16.0567  16.1376
    16.2265  16.2388  16.2927  16.3359  16.3416  16.4436  16.4470  16.4619
    16.5394  16.5786  16.7595

          k = 0.3333 0.3333-0.3194 ( 29178 PWs)   bands (ev):

   -35.4131 -35.4130 -35.4130 -35.4129 -35.4118 -35.4117 -35.4117 -35.4116
   -35.4005 -35.4004 -35.4004 -35.4003 -35.3999 -35.3999 -35.3999 -35.3998
   -35.3952 -35.3952 -35.3951 -35.3950 -35.3483 -35.3483 -35.3482 -35.3482
   -35.3465 -35.3465 -35.3464 -35.3464 -35.3415 -35.3415 -35.3415 -35.3414
   -35.3396 -35.3396 -35.3395 -35.3394 -35.3372 -35.3372 -35.3371 -35.3370
   -11.9889 -11.9866 -11.9772 -11.9766 -11.9640 -11.9631 -11.9526 -11.9398
   -11.9350 -11.8928 -11.8845 -11.8844 -11.8601 -11.8097 -11.8085 -11.7973
   -11.7972 -11.7953 -11.7925 -11.7884 -11.7868 -11.7798 -11.7797 -11.7765
   -11.7744 -11.7739 -11.7734 -11.7709 -11.7674 -11.7606 -11.7579 -11.7573
   -11.7565 -11.7553 -11.7534 -11.7516 -11.7512 -11.7510 -11.7462 -11.7444
   -11.7429 -11.7415 -11.7375 -11.7342 -11.7327 -11.7321 -11.7288 -11.7284
   -11.7268 -11.7238 -11.7222 -11.7204 -11.7186 -11.7176 -11.7167 -11.7146
   -11.7139 -11.7135 -11.7107 -11.7099 -11.7087 -11.7087 -11.7042 -11.7040
   -11.7031 -11.7014 -11.6988 -11.6975 -11.6952 -11.6950 -11.6937 -11.6911
   -11.6897 -11.6837 -11.6797 -11.6758 -11.6747 -11.6743 -11.6682 -11.6677
    -8.2027  -8.0921  -7.7046  -7.7007  -7.6896  -7.4896  -7.3170  -7.0672
    -6.5756  -6.5432  -6.4884  -6.4883  -6.4826  -6.2358  -6.1582  -1.5285
    -1.4871  -1.0389  -0.9957  -0.9844  -0.9732  -0.6474  -0.6129   0.1121
     0.2122   0.3187   0.3762   0.3823   0.4688   0.5157   0.6576   0.8555
     0.8615   1.1631   1.4274   1.4279   1.5762   2.1487   2.2472   4.9983
     5.0851   5.1191   5.1261   5.1364   5.2606   5.3488   5.3718   6.0232
     6.0928   6.1429   6.1692   6.2922   6.3077   6.3415   6.4018   6.5378
     6.5818   6.7039   6.8235   6.8556   6.8602   6.8902   6.9212   7.0455
     7.2135   7.3165   7.4663   7.5554   7.6071   7.7202   7.7633   8.0585
     8.1289   8.1986   8.2939   8.3186   8.4015   8.4600   8.6046   8.6581
     8.6606   8.7730   8.8714   8.8976   8.9486   9.0812   9.1831   9.2280
     9.3004   9.4335   9.4522   9.4708   9.5486   9.5577   9.7143   9.7398
     9.7800   9.8129   9.9272   9.9662  10.0215  10.0226  10.4644  10.5365
    10.5503  10.5580  10.6351  10.6384  11.4034  12.6099  12.8845  13.0162
    13.1827  13.2332  13.3269  13.4129  13.4973  13.5753  13.5782  13.6715
    13.8271  14.0823  14.0866  14.1427  14.2679  14.2983  14.5017  14.5180
    14.6329  14.6650  14.6700  14.7174  14.9891  15.0287  15.1928  15.3151
    15.3924  15.5838  15.7689  15.9069  15.9169  16.0168  16.0958  16.1446
    16.1848  16.2947  16.3502  16.3628  16.3839  16.4122  16.5085  16.5102
    16.5398  16.5563  16.6753

          k = 0.3333-0.5000 0.0000 ( 29156 PWs)   bands (ev):

   -35.4131 -35.4130 -35.4129 -35.4129 -35.4117 -35.4117 -35.4116 -35.4116
   -35.4005 -35.4004 -35.4003 -35.4003 -35.4000 -35.3999 -35.3999 -35.3998
   -35.3952 -35.3952 -35.3951 -35.3950 -35.3483 -35.3483 -35.3482 -35.3482
   -35.3465 -35.3464 -35.3464 -35.3463 -35.3415 -35.3415 -35.3415 -35.3414
   -35.3396 -35.3395 -35.3395 -35.3394 -35.3373 -35.3372 -35.3371 -35.3370
   -11.9856 -11.9838 -11.9834 -11.9822 -11.9624 -11.9570 -11.9564 -11.9288
   -11.9151 -11.9097 -11.8844 -11.8540 -11.8469 -11.8394 -11.8158 -11.8073
   -11.8025 -11.7970 -11.7901 -11.7860 -11.7830 -11.7804 -11.7747 -11.7744
   -11.7694 -11.7681 -11.7678 -11.7643 -11.7625 -11.7608 -11.7599 -11.7582
   -11.7555 -11.7553 -11.7535 -11.7532 -11.7489 -11.7464 -11.7463 -11.7447
   -11.7435 -11.7407 -11.7387 -11.7380 -11.7365 -11.7351 -11.7334 -11.7329
   -11.7284 -11.7242 -11.7231 -11.7220 -11.7211 -11.7202 -11.7194 -11.7182
   -11.7172 -11.7167 -11.7133 -11.7100 -11.7100 -11.7072 -11.7064 -11.7046
   -11.7038 -11.7007 -11.6994 -11.6992 -11.6964 -11.6956 -11.6917 -11.6881
   -11.6874 -11.6834 -11.6818 -11.6777 -11.6759 -11.6735 -11.6693 -11.6672
    -7.9920  -7.9826  -7.9683  -7.7937  -7.5387  -7.5296  -7.5192  -7.1162
    -6.5134  -6.5105  -6.5076  -6.3975  -6.2891  -6.2884  -6.2848  -1.4803
    -1.4531  -1.0784  -1.0286  -0.9600  -0.9322  -0.7168  -0.6890   0.2033
     0.2280   0.2391   0.2515   0.3210   0.3837   0.6636   0.6763   0.8588
     1.0503   1.1715   1.3609   1.7360   1.8453   1.8872   1.9982   4.9195
     4.9670   4.9882   4.9941   5.1845   5.2669   5.4319   5.4339   5.9085
     5.9102   6.2784   6.3531   6.4014   6.4097   6.4725   6.5064   6.5715
     6.6362   6.6897   6.7730   6.9369   6.9402   7.0328   7.0492   7.0792
     7.2617   7.3813   7.3990   7.4158   7.4291   7.4412   7.4601   7.4700
     7.8950   8.0019   8.1454   8.6857   8.7443   8.7542   8.7936   8.8274
     8.8602   8.8845   8.8952   8.9452   8.9602   9.0355   9.1636   9.2054
     9.2509   9.3031   9.3329   9.3716   9.4789   9.5565   9.5610   9.5684
    10.0063  10.0182  10.0962  10.1252  10.1759  10.2154  10.2391  10.2516
    10.4025  10.5720  10.6159  10.6884  11.2319  12.5035  12.5642  12.7582
    12.9406  13.0373  13.0996  13.6472  13.7281  13.7844  13.9503  14.0585
    14.0624  14.1929  14.2389  14.2656  14.4142  14.4282  14.4303  14.5363
    14.5976  14.6455  14.7356  14.7792  14.8812  14.9228  15.2274  15.2363
    15.3083  15.6043  15.6816  15.7129  15.7953  16.0595  16.0966  16.1251
    16.1906  16.2118  16.2322  16.2493  16.2729  16.3195  16.3356  16.3381
    16.6807  16.7827  16.9804

          k = 0.3333-0.5000 0.1065 ( 29140 PWs)   bands (ev):

   -35.4131 -35.4130 -35.4129 -35.4128 -35.4117 -35.4117 -35.4116 -35.4116
   -35.4005 -35.4004 -35.4003 -35.4002 -35.4000 -35.3999 -35.3998 -35.3998
   -35.3952 -35.3951 -35.3950 -35.3949 -35.3483 -35.3482 -35.3482 -35.3481
   -35.3465 -35.3464 -35.3464 -35.3463 -35.3415 -35.3415 -35.3414 -35.3414
   -35.3396 -35.3395 -35.3395 -35.3394 -35.3372 -35.3371 -35.3370 -35.3369
   -11.9853 -11.9836 -11.9831 -11.9820 -11.9627 -11.9574 -11.9568 -11.9285
   -11.9144 -11.9101 -11.8855 -11.8534 -11.8464 -11.8407 -11.8175 -11.8056
   -11.8015 -11.7963 -11.7893 -11.7859 -11.7844 -11.7803 -11.7756 -11.7754
   -11.7693 -11.7688 -11.7674 -11.7649 -11.7623 -11.7617 -11.7597 -11.7586
   -11.7554 -11.7551 -11.7533 -11.7527 -11.7490 -11.7467 -11.7462 -11.7448
   -11.7437 -11.7410 -11.7390 -11.7377 -11.7366 -11.7345 -11.7327 -11.7326
   -11.7287 -11.7232 -11.7224 -11.7218 -11.7200 -11.7194 -11.7187 -11.7178
   -11.7171 -11.7160 -11.7138 -11.7105 -11.7099 -11.7069 -11.7062 -11.7045
   -11.7039 -11.7008 -11.6998 -11.6990 -11.6969 -11.6955 -11.6923 -11.6883
   -11.6876 -11.6839 -11.6820 -11.6779 -11.6761 -11.6737 -11.6694 -11.6675
    -7.9906  -7.9825  -7.9696  -7.7938  -7.5375  -7.5296  -7.5204  -7.1162
    -6.5130  -6.5105  -6.5080  -6.3975  -6.2890  -6.2884  -6.2849  -1.4567
    -1.4333  -1.1090  -1.0696  -0.9442  -0.9191  -0.7327  -0.7101   0.2293
     0.2377   0.2405   0.2750   0.3274   0.3861   0.6446   0.6606   0.8646
     1.0715   1.1741   1.3442   1.7324   1.8490   1.8842   1.9882   4.9362
     4.9808   4.9971   5.0031   5.1671   5.2535   5.4092   5.4123   5.9434
     5.9480   6.2822   6.3745   6.4017   6.4106   6.4573   6.4697   6.5642
     6.6122   6.7133   6.7762   6.9371   6.9455   7.0148   7.0290   7.0360
     7.1705   7.2091   7.3016   7.3093   7.4738   7.5529   7.6122   7.7313
     7.9417   8.0270   8.1831   8.6306   8.7348   8.7377   8.7635   8.8256
     8.8472   8.8854   8.8915   8.9513   8.9740   8.9757   9.1844   9.2410
     9.2450   9.2795   9.3418   9.3793   9.4709   9.5503   9.5966   9.6101
     9.9458   9.9807  10.0568  10.0614  10.1272  10.1447  10.2942  10.3096
    10.4572  10.5962  10.6175  10.6989  11.2578  12.5741  12.5959  12.8290
    12.8706  13.0941  13.1473  13.6312  13.7151  13.8183  13.8525  13.9957
    14.0346  14.1419  14.2367  14.2583  14.3199  14.3687  14.3920  14.4363
    14.5209  14.6607  14.7706  14.8076  14.9333  14.9785  15.2244  15.2270
    15.3377  15.6671  15.6891  15.7608  15.7906  16.0658  16.0759  16.1390
    16.2200  16.2388  16.2388  16.2570  16.2849  16.3359  16.3360  16.3593
    16.6514  16.7447  16.9308

          k = 0.3333-0.5000 0.2129 ( 29158 PWs)   bands (ev):

   -35.4130 -35.4130 -35.4129 -35.4129 -35.4117 -35.4117 -35.4116 -35.4116
   -35.4005 -35.4004 -35.4003 -35.4002 -35.4000 -35.3999 -35.3999 -35.3998
   -35.3952 -35.3951 -35.3951 -35.3950 -35.3483 -35.3483 -35.3482 -35.3482
   -35.3465 -35.3464 -35.3464 -35.3463 -35.3415 -35.3415 -35.3415 -35.3414
   -35.3396 -35.3395 -35.3395 -35.3394 -35.3372 -35.3371 -35.3371 -35.3370
   -11.9848 -11.9833 -11.9825 -11.9816 -11.9634 -11.9581 -11.9577 -11.9279
   -11.9128 -11.9111 -11.8878 -11.8515 -11.8452 -11.8439 -11.8206 -11.8021
   -11.7991 -11.7947 -11.7889 -11.7877 -11.7844 -11.7800 -11.7782 -11.7772
   -11.7719 -11.7676 -11.7665 -11.7663 -11.7625 -11.7620 -11.7600 -11.7589
   -11.7561 -11.7544 -11.7529 -11.7517 -11.7494 -11.7472 -11.7460 -11.7448
   -11.7437 -11.7417 -11.7394 -11.7373 -11.7372 -11.7329 -11.7324 -11.7313
   -11.7290 -11.7217 -11.7211 -11.7210 -11.7184 -11.7178 -11.7177 -11.7165
   -11.7162 -11.7147 -11.7147 -11.7117 -11.7097 -11.7068 -11.7057 -11.7048
   -11.7037 -11.7011 -11.7001 -11.6989 -11.6979 -11.6952 -11.6938 -11.6888
   -11.6880 -11.6850 -11.6825 -11.6784 -11.6767 -11.6740 -11.6696 -11.6680
    -7.9873  -7.9823  -7.9730  -7.7940  -7.5344  -7.5296  -7.5235  -7.1163
    -6.5120  -6.5104  -6.5090  -6.3975  -6.2886  -6.2884  -6.2853  -1.3889
    -1.3788  -1.1830  -1.1697  -0.8996  -0.8882  -0.7701  -0.7651   0.2324
     0.2414   0.2843   0.3159   0.3763   0.4064   0.5898   0.6203   0.8764
     1.1249   1.1792   1.2995   1.7247   1.8587   1.8783   1.9657   4.9758
     4.9930   5.0225   5.0489   5.1233   5.2245   5.3496   5.3676   6.0408
     6.0477   6.2871   6.3285   6.3805   6.4029   6.4558   6.4700   6.5546
     6.5808   6.7528   6.7888   6.8206   6.8658   6.9573   7.0108   7.0165
     7.0894   7.1353   7.2564   7.2705   7.5015   7.6367   7.7475   8.0276
     8.0903   8.1384   8.2606   8.4881   8.6125   8.6407   8.7457   8.7988
     8.8194   8.8576   8.8915   8.8942   9.0028   9.0200   9.1469   9.1962
     9.3241   9.3797   9.3815   9.4130   9.4439   9.5198   9.6820   9.7063
     9.7654   9.7937   9.9795   9.9851  10.1414  10.1634  10.3026  10.3209
    10.5351  10.6187  10.6264  10.7202  11.3149  12.5587  12.7749  12.9069
    13.0084  13.2265  13.2646  13.4706  13.5507  13.7469  13.7678  13.8851
    13.9805  14.1001  14.1515  14.1936  14.1966  14.2517  14.2941  14.3814
    14.5603  14.6925  14.7538  14.8449  15.0185  15.0399  15.1674  15.2074
    15.3754  15.6868  15.7306  15.8418  15.8891  16.0322  16.0748  16.1632
    16.2059  16.2588  16.2846  16.3240  16.3254  16.3423  16.4337  16.4512
    16.5721  16.6373  16.8010

          k = 0.3333-0.5000-0.3194 ( 29148 PWs)   bands (ev):

   -35.4130 -35.4129 -35.4129 -35.4128 -35.4117 -35.4116 -35.4116 -35.4116
   -35.4005 -35.4004 -35.4003 -35.4003 -35.4000 -35.3999 -35.3998 -35.3998
   -35.3952 -35.3951 -35.3951 -35.3950 -35.3483 -35.3482 -35.3482 -35.3481
   -35.3465 -35.3464 -35.3464 -35.3463 -35.3415 -35.3415 -35.3414 -35.3414
   -35.3396 -35.3395 -35.3395 -35.3394 -35.3372 -35.3371 -35.3371 -35.3370
   -11.9846 -11.9831 -11.9821 -11.9814 -11.9637 -11.9585 -11.9581 -11.9276
   -11.9118 -11.9115 -11.8889 -11.8495 -11.8466 -11.8446 -11.8220 -11.7996
   -11.7978 -11.7941 -11.7914 -11.7868 -11.7840 -11.7801 -11.7793 -11.7783
   -11.7734 -11.7674 -11.7666 -11.7660 -11.7627 -11.7619 -11.7601 -11.7589
   -11.7565 -11.7541 -11.7527 -11.7514 -11.7496 -11.7474 -11.7459 -11.7448
   -11.7437 -11.7421 -11.7395 -11.7376 -11.7370 -11.7324 -11.7323 -11.7304
   -11.7290 -11.7213 -11.7205 -11.7201 -11.7185 -11.7175 -11.7166 -11.7154
   -11.7152 -11.7146 -11.7140 -11.7130 -11.7097 -11.7067 -11.7053 -11.7051
   -11.7035 -11.7014 -11.7003 -11.6990 -11.6985 -11.6950 -11.6946 -11.6890
   -11.6883 -11.6856 -11.6828 -11.6786 -11.6769 -11.6742 -11.6697 -11.6683
    -7.9847  -7.9821  -7.9756  -7.7941  -7.5317  -7.5296  -7.5262  -7.1163
    -6.5108  -6.5104  -6.5102  -6.3976  -6.2885  -6.2884  -6.2855  -1.3248
    -1.2903  -1.2834  -1.2460  -0.8642  -0.8392  -0.8306  -0.7975   0.2339
     0.2418   0.2923   0.3281   0.4341   0.4456   0.5317   0.5903   0.8824
     1.1675   1.1818   1.2612   1.7205   1.8656   1.8755   1.9524   4.9974
     5.0015   5.0505   5.0840   5.0859   5.2066   5.3108   5.3413   6.1317
     6.1532   6.2122   6.2661   6.3578   6.4018   6.4443   6.5141   6.5880
     6.6073   6.6458   6.7751   6.8128   6.8254   6.8991   7.0226   7.0285
     7.0549   7.1190   7.2500   7.2727   7.5033   7.6628   7.7848   8.2111
     8.2514   8.3057   8.3116   8.3743   8.4023   8.4946   8.7329   8.7837
     8.8047   8.8498   8.8944   8.8977   9.0221   9.0794   9.1176   9.1228
     9.3753   9.4054   9.4565   9.4708   9.5080   9.5539   9.5769   9.5888
     9.8035   9.8147   9.8736   9.8836  10.1930  10.2305  10.2722  10.2825
    10.5695  10.6168  10.6364  10.7302  11.3470  12.4972  13.0150  13.0400
    13.1039  13.1963  13.2816  13.4227  13.4910  13.5790  13.6271  13.8950
    13.9826  13.9948  14.1279  14.1627  14.1674  14.1899  14.3247  14.3429
    14.6377  14.7014  14.7085  14.8633  15.0579  15.0592  15.1276  15.1970
    15.3729  15.6825  15.7525  15.8891  15.9583  15.9998  16.0795  16.1677
    16.1926  16.2808  16.2831  16.3334  16.4114  16.4271  16.4535  16.5075
    16.5904  16.6038  16.6636

          k =-0.5000-0.5000 0.0000 ( 29128 PWs)   bands (ev):

   -35.4130 -35.4130 -35.4130 -35.4129 -35.4116 -35.4115 -35.4115 -35.4114
   -35.4004 -35.4004 -35.4003 -35.4003 -35.3999 -35.3999 -35.3999 -35.3998
   -35.3952 -35.3951 -35.3951 -35.3950 -35.3483 -35.3483 -35.3482 -35.3482
   -35.3463 -35.3463 -35.3463 -35.3462 -35.3415 -35.3415 -35.3415 -35.3414
   -35.3395 -35.3395 -35.3395 -35.3394 -35.3372 -35.3371 -35.3371 -35.3371
   -11.9858 -11.9839 -11.9839 -11.9828 -11.9625 -11.9574 -11.9573 -11.9213
   -11.8806 -11.8806 -11.8801 -11.8773 -11.8500 -11.8484 -11.8484 -11.8042
   -11.7997 -11.7997 -11.7922 -11.7813 -11.7742 -11.7742 -11.7741 -11.7714
   -11.7714 -11.7675 -11.7658 -11.7641 -11.7619 -11.7614 -11.7614 -11.7562
   -11.7533 -11.7532 -11.7528 -11.7525 -11.7514 -11.7498 -11.7498 -11.7448
   -11.7413 -11.7395 -11.7394 -11.7394 -11.7386 -11.7361 -11.7361 -11.7308
   -11.7303 -11.7243 -11.7228 -11.7220 -11.7220 -11.7196 -11.7196 -11.7174
   -11.7170 -11.7147 -11.7147 -11.7110 -11.7109 -11.7105 -11.7098 -11.7092
   -11.7043 -11.7043 -11.7000 -11.6996 -11.6925 -11.6915 -11.6915 -11.6912
   -11.6905 -11.6825 -11.6824 -11.6803 -11.6773 -11.6773 -11.6708 -11.6678
    -7.7971  -7.7879  -7.7879  -7.7835  -7.7761  -7.7639  -7.7638  -7.1631
    -6.3766  -6.3766  -6.3748  -6.3743  -6.3679  -6.3679  -6.3635  -1.2669
    -1.2475  -1.2475  -1.2099  -0.9605  -0.8806  -0.8659  -0.8659   0.1922
     0.2476   0.2476   0.2937   0.4212   0.5073   0.5074   0.5436   0.8867
     1.4757   1.5173   1.5174   1.5654   1.6646   1.7713   1.7714   4.8321
     4.9067   4.9140   4.9140   5.1908   5.2937   5.3768   5.3768   6.2692
     6.3534   6.3847   6.3847   6.3923   6.4485   6.4485   6.5067   6.5228
     6.6911   6.7902   6.7902   6.8272   6.8374   6.8374   6.9074   6.9848
     7.1722   7.2140   7.2140   7.3793   7.3887   7.4342   7.4343   7.4351
     7.9458   7.9458   8.1732   8.8972   8.8977   8.8978   8.9216   8.9272
     8.9295   8.9295   8.9387   8.9392   9.0015   9.0124   9.0124   9.0214
     9.2267   9.2797   9.2809   9.2809   9.2907   9.3991   9.3991   9.4124
    10.1502  10.1503  10.2399  10.2472  10.4107  10.4107  10.4156  10.4595
    10.4638  10.6302  10.6302  10.7053  10.9593  12.2503  12.2503  12.2852
    12.8455  13.2464  13.2733  13.2733  13.7798  13.9058  13.9058  13.9404
    14.1327  14.1705  14.2946  14.2946  14.4397  14.4680  14.4680  14.5848
    14.6074  14.7116  14.7124  14.7124  15.0854  15.0854  15.2688  15.4505
    15.5675  15.5675  15.6111  15.6155  15.8591  15.8592  15.8731  16.1334
    16.1790  16.1866  16.1866  16.2008  16.2071  16.5942  16.5942  16.6846
    16.6876  16.6971  16.6971

          k =-0.5000-0.5000 0.1065 ( 29144 PWs)   bands (ev):

   -35.4131 -35.4130 -35.4130 -35.4129 -35.4117 -35.4116 -35.4116 -35.4115
   -35.4004 -35.4004 -35.4003 -35.4003 -35.4000 -35.4000 -35.3999 -35.3998
   -35.3951 -35.3951 -35.3950 -35.3949 -35.3483 -35.3483 -35.3483 -35.3482
   -35.3464 -35.3464 -35.3463 -35.3463 -35.3416 -35.3415 -35.3415 -35.3414
   -35.3395 -35.3395 -35.3395 -35.3395 -35.3371 -35.3370 -35.3370 -35.3369
   -11.9855 -11.9837 -11.9836 -11.9828 -11.9629 -11.9577 -11.9577 -11.9213
   -11.8800 -11.8800 -11.8795 -11.8776 -11.8513 -11.8496 -11.8496 -11.8030
   -11.7989 -11.7989 -11.7912 -11.7831 -11.7748 -11.7748 -11.7739 -11.7721
   -11.7721 -11.7682 -11.7656 -11.7649 -11.7612 -11.7608 -11.7608 -11.7565
   -11.7535 -11.7535 -11.7532 -11.7523 -11.7506 -11.7497 -11.7496 -11.7450
   -11.7415 -11.7398 -11.7398 -11.7394 -11.7390 -11.7356 -11.7356 -11.7310
   -11.7306 -11.7230 -11.7214 -11.7212 -11.7212 -11.7192 -11.7192 -11.7168
   -11.7167 -11.7142 -11.7142 -11.7113 -11.7109 -11.7109 -11.7098 -11.7088
   -11.7047 -11.7047 -11.7004 -11.6992 -11.6932 -11.6919 -11.6919 -11.6913
   -11.6901 -11.6827 -11.6827 -11.6808 -11.6775 -11.6775 -11.6709 -11.6681
    -7.7957  -7.7867  -7.7867  -7.7835  -7.7775  -7.7651  -7.7650  -7.1632
    -6.3765  -6.3765  -6.3747  -6.3743  -6.3680  -6.3680  -6.3636  -1.2461
    -1.2269  -1.2268  -1.1995  -0.9736  -0.9143  -0.8988  -0.8987   0.2171
     0.2694   0.2694   0.2996   0.4126   0.5012   0.5013   0.5405   0.8859
     1.4860   1.5257   1.5257   1.5666   1.6504   1.7590   1.7590   4.8543
     4.9235   4.9306   4.9306   5.1648   5.2722   5.3565   5.3565   6.2907
     6.3845   6.3997   6.3997   6.4060   6.4716   6.4716   6.4784   6.5794
     6.6521   6.7228   6.7228   6.8560   6.8836   6.8836   6.8900   6.9795
     7.0497   7.0675   7.0675   7.1078   7.4486   7.5574   7.5574   7.7417
     8.0040   8.0040   8.2006   8.8343   8.8386   8.8386   8.9065   8.9271
     8.9286   8.9286   8.9357   8.9369   9.0247   9.0356   9.0356   9.0488
     9.2677   9.2846   9.3307   9.3307   9.3353   9.3736   9.3736   9.3858
    10.0846  10.0846  10.1287  10.1613  10.4111  10.4111  10.4255  10.4795
    10.4942  10.6183  10.6183  10.6892  11.0188  12.3669  12.3669  12.4054
    12.7051  13.2948  13.2948  13.3301  13.8189  13.8243  13.8271  13.8271
    14.0825  14.2233  14.2233  14.2747  14.3875  14.4389  14.4389  14.5909
    14.6104  14.6641  14.6641  14.6757  15.1641  15.1641  15.2324  15.4939
    15.5165  15.5647  15.5648  15.5993  15.8918  15.8919  15.9802  16.0897
    16.1617  16.2270  16.2270  16.2490  16.2855  16.5560  16.5560  16.6484
    16.6620  16.6689  16.6690

          k =-0.5000-0.5000 0.2129 ( 29112 PWs)   bands (ev):

   -35.4130 -35.4130 -35.4129 -35.4128 -35.4116 -35.4116 -35.4115 -35.4114
   -35.4004 -35.4003 -35.4003 -35.4002 -35.3999 -35.3999 -35.3998 -35.3998
   -35.3951 -35.3951 -35.3950 -35.3949 -35.3483 -35.3482 -35.3482 -35.3481
   -35.3464 -35.3463 -35.3463 -35.3462 -35.3415 -35.3415 -35.3414 -35.3414
   -35.3395 -35.3395 -35.3395 -35.3394 -35.3371 -35.3370 -35.3370 -35.3369
   -11.9849 -11.9831 -11.9831 -11.9826 -11.9635 -11.9583 -11.9583 -11.9213
   -11.8786 -11.8786 -11.8782 -11.8779 -11.8539 -11.8520 -11.8520 -11.7999
   -11.7969 -11.7969 -11.7889 -11.7875 -11.7770 -11.7770 -11.7734 -11.7724
   -11.7724 -11.7711 -11.7663 -11.7634 -11.7603 -11.7597 -11.7597 -11.7575
   -11.7540 -11.7540 -11.7539 -11.7515 -11.7494 -11.7493 -11.7491 -11.7454
   -11.7423 -11.7403 -11.7403 -11.7393 -11.7390 -11.7350 -11.7350 -11.7318
   -11.7302 -11.7214 -11.7199 -11.7199 -11.7190 -11.7182 -11.7182 -11.7161
   -11.7149 -11.7131 -11.7130 -11.7125 -11.7108 -11.7107 -11.7100 -11.7084
   -11.7056 -11.7056 -11.7008 -11.6988 -11.6949 -11.6928 -11.6928 -11.6916
   -11.6891 -11.6833 -11.6833 -11.6821 -11.6779 -11.6779 -11.6711 -11.6687
    -7.7920  -7.7839  -7.7839  -7.7834  -7.7812  -7.7679  -7.7679  -7.1633
    -6.3762  -6.3762  -6.3745  -6.3743  -6.3683  -6.3682  -6.3638  -1.1866
    -1.1744  -1.1680  -1.1680  -1.0042  -0.9981  -0.9808  -0.9807   0.2751
     0.3116   0.3157   0.3158   0.3857   0.4850   0.4850   0.5337   0.8843
     1.5156   1.5461   1.5461   1.5689   1.6131   1.7306   1.7307   4.9159
     4.9648   4.9697   4.9697   5.0955   5.2217   5.3103   5.3103   6.3275
     6.4449   6.4449   6.4450   6.4778   6.5057   6.5305   6.5305   6.5793
     6.6353   6.6353   6.6494   6.8261   6.8433   6.8663   6.8663   6.8772
     6.9019   6.9310   6.9310   6.9659   7.5044   7.6627   7.6628   8.0757
     8.1842   8.1842   8.2701   8.6554   8.6755   8.6755   8.8671   8.9275
     8.9275   8.9277   8.9323   8.9351   9.0727   9.0996   9.0996   9.1205
     9.2205   9.2939   9.2939   9.3139   9.4369   9.4799   9.4800   9.4897
     9.9116   9.9116   9.9133   9.9550  10.4213  10.4213  10.4520  10.5138
    10.5227  10.5948  10.5948  10.6442  11.1489  12.4672  12.6628  12.6628
    12.7117  13.3023  13.3023  13.4859  13.5125  13.6021  13.6022  13.9294
    13.9610  14.1254  14.1254  14.2538  14.3792  14.3792  14.4754  14.6043
    14.6161  14.6315  14.6315  14.6354  15.1806  15.2390  15.2390  15.3446
    15.5421  15.5601  15.5602  15.5758  15.9787  15.9787  15.9964  16.1788
    16.2529  16.3313  16.3313  16.3468  16.3536  16.4691  16.4693  16.5507
    16.5885  16.5893  16.5898

          k =-0.5000-0.5000-0.3194 ( 29216 PWs)   bands (ev):

   -35.4131 -35.4130 -35.4130 -35.4129 -35.4117 -35.4117 -35.4117 -35.4116
   -35.4006 -35.4005 -35.4004 -35.4004 -35.4001 -35.4000 -35.4000 -35.3999
   -35.3953 -35.3952 -35.3951 -35.3951 -35.3483 -35.3483 -35.3483 -35.3482
   -35.3465 -35.3465 -35.3465 -35.3464 -35.3416 -35.3416 -35.3416 -35.3415
   -35.3397 -35.3396 -35.3396 -35.3395 -35.3373 -35.3372 -35.3372 -35.3371
   -11.9847 -11.9829 -11.9829 -11.9825 -11.9639 -11.9587 -11.9586 -11.9214
   -11.8786 -11.8779 -11.8779 -11.8771 -11.8554 -11.8534 -11.8534 -11.7973
   -11.7958 -11.7958 -11.7907 -11.7874 -11.7785 -11.7785 -11.7733 -11.7732
   -11.7724 -11.7724 -11.7663 -11.7627 -11.7600 -11.7592 -11.7592 -11.7582
   -11.7543 -11.7543 -11.7541 -11.7513 -11.7493 -11.7493 -11.7485 -11.7458
   -11.7427 -11.7405 -11.7405 -11.7393 -11.7388 -11.7347 -11.7347 -11.7321
   -11.7300 -11.7208 -11.7195 -11.7195 -11.7183 -11.7175 -11.7175 -11.7150
   -11.7139 -11.7132 -11.7125 -11.7124 -11.7106 -11.7106 -11.7103 -11.7083
   -11.7063 -11.7063 -11.7010 -11.6988 -11.6958 -11.6933 -11.6933 -11.6917
   -11.6884 -11.6837 -11.6837 -11.6830 -11.6781 -11.6781 -11.6713 -11.6691
    -7.7882  -7.7852  -7.7834  -7.7820  -7.7820  -7.7699  -7.7698  -7.1633
    -6.3761  -6.3761  -6.3744  -6.3743  -6.3684  -6.3684  -6.3639  -1.1578
    -1.0990  -1.0972  -1.0886  -1.0886  -1.0712  -1.0712  -1.0236   0.3179
     0.3283   0.3422   0.3422   0.3475   0.4730   0.4730   0.5300   0.8835
     1.5499   1.5593   1.5593   1.5701   1.5749   1.7134   1.7134   4.9929
     4.9937   4.9937   4.9938   5.0139   5.1890   5.2827   5.2827   6.3383
     6.5011   6.5068   6.5068   6.5101   6.5213   6.5213   6.6164   6.6168
     6.6307   6.6315   6.6315   6.6333   6.7578   6.7578   6.7587   6.8177
     6.9389   6.9399   6.9401   6.9401   7.5175   7.6917   7.6917   8.3132
     8.3885   8.3885   8.3888   8.3926   8.4853   8.4854   8.8408   8.9271
     8.9271   8.9282   8.9308   8.9346   9.1036   9.1740   9.1740   9.1896
     9.2145   9.2146   9.2150   9.2189   9.6047   9.6489   9.6490   9.7107
     9.7115   9.7234   9.7281   9.7281  10.4299  10.4299  10.4718  10.5093
    10.5821  10.5822  10.5825  10.5831  11.2239  12.3500  12.9843  12.9843
    13.0970  13.0994  13.0994  13.1217  13.5153  13.5153  13.5980  13.8583
    14.0842  14.0850  14.0850  14.0879  14.3519  14.3519  14.5935  14.6133
    14.6161  14.6194  14.6265  14.6265  15.1865  15.2216  15.2560  15.2560
    15.5546  15.5573  15.5573  15.5626  15.9712  16.0397  16.0397  16.2814
    16.3813  16.3842  16.3972  16.3976  16.4083  16.4354  16.4606  16.4618
    16.4774  16.4797  16.4889

     the Fermi energy is    11.7064 ev

!    total energy              =  -18126.65155555 Ry
     total all-electron energy =   -729913.054533 Ry
     estimated scf accuracy    <          4.9E-11 Ry
     smearing contrib. (-TS)   =       0.00251368 Ry
     internal energy E=F+TS    =  -18126.65406923 Ry

     The total energy is F=E-TS. E is the sum of the following terms:
     one-electron contribution =   -2226.70519730 Ry
     hartree contribution      =    1420.64954394 Ry
     xc contribution           =    -851.77433515 Ry
     ewald contribution        =   -3299.66271503 Ry
     one-center paw contrib.   =  -13169.16136569 Ry

     convergence has been achieved in  11 iterations

     Forces acting on atoms (cartesian axes, Ry/au):

     atom    1 type  1   force =     0.00000000   -0.00057051   -0.00088185
     atom    2 type  1   force =     0.00000000   -0.00072629    0.00048824
     atom    3 type  1   force =     0.00072629    0.00000000   -0.00048824
     atom    4 type  1   force =     0.00057051    0.00000000    0.00088185
     atom    5 type  1   force =     0.00000000    0.00057051   -0.00088185
     atom    6 type  1   force =     0.00000000    0.00072629    0.00048824
     atom    7 type  1   force =     0.00000000   -0.00653201   -0.00123383
     atom    8 type  1   force =     0.00000000   -0.00048767   -0.00094120
     atom    9 type  1   force =     0.00048767    0.00000000    0.00094120
     atom   10 type  1   force =     0.00653201    0.00000000    0.00123383
     atom   11 type  1   force =    -0.00072629    0.00000000   -0.00048824
     atom   12 type  1   force =    -0.00057051    0.00000000    0.00088185
     atom   13 type  1   force =     0.00000000    0.00653201   -0.00123383
     atom   14 type  1   force =     0.00000000    0.00048767   -0.00094120
     atom   15 type  1   force =    -0.00048767    0.00000000    0.00094120
     atom   16 type  1   force =    -0.00653201    0.00000000    0.00123383
     atom   17 type  3   force =     0.00000000   -0.00252262    0.00430752
     atom   18 type  3   force =     0.00252262    0.00000000   -0.00430752
     atom   19 type  3   force =     0.00000000    0.00252262    0.00430752
     atom   20 type  3   force =     0.00000000   -0.00065844   -0.00042512
     atom   21 type  3   force =     0.00065844    0.00000000    0.00042512
     atom   22 type  3   force =    -0.00252262    0.00000000   -0.00430752
     atom   23 type  3   force =     0.00000000    0.00065844   -0.00042512
     atom   24 type  3   force =    -0.00065844    0.00000000    0.00042512
     atom   25 type  2   force =     0.00000000    0.00000000    0.00000000
     atom   26 type  2   force =     0.00000000    0.00000000   -0.00009814
     atom   27 type  2   force =     0.00000000    0.00000000   -0.00403858
     atom   28 type  2   force =     0.00000000    0.00000000    0.00000000
     atom   29 type  2   force =     0.00153894    0.00153894   -0.00000000
     atom   30 type  2   force =    -0.00054137    0.00054137   -0.00000000
     atom   31 type  2   force =    -0.00153894    0.00153894   -0.00000000
     atom   32 type  2   force =     0.00054137    0.00054137   -0.00000000
     atom   33 type  2   force =    -0.00054137   -0.00054137   -0.00000000
     atom   34 type  2   force =    -0.00153894   -0.00153894   -0.00000000
     atom   35 type  2   force =     0.00000000    0.00000000    0.00403858
     atom   36 type  2   force =     0.00000000    0.00000000    0.00009814
     atom   37 type  2   force =     0.00000000    0.00000000    0.00000000
     atom   38 type  2   force =     0.00054137   -0.00054137   -0.00000000
     atom   39 type  2   force =     0.00153894   -0.00153894   -0.00000000

     Total force =     0.018569     Total SCF correction =     0.000027


     Computing stress (Cartesian axis) and pressure

          total   stress  (Ry/bohr**3)                   (kbar)     P=       -2.91
  -0.00001861  -0.00000000   0.00000000           -2.74       -0.00        0.00
  -0.00000000  -0.00001861   0.00000000           -0.00       -2.74        0.00
   0.00000000   0.00000000  -0.00002205            0.00        0.00       -3.24

     Energy error            =      6.5E-04 Ry
     Gradient error          =      6.5E-03 Ry/Bohr

     number of scf cycles    =   3
     number of bfgs steps    =   2

     energy             old  =  -18126.6509059204 Ry
     energy             new  =  -18126.6515555507 Ry

     CASE: energy            _new < energy            _old

     new trust radius        =       0.0176094523 bohr
     new conv_thr            =            7.8E-11 Ry


ATOMIC_POSITIONS (crystal)
Bi               0.0000000000       -0.0001658533        0.3549077575
Bi               0.0000000000       -0.0005476393        0.6451857313
Bi               0.2505477176        0.2500000783        0.8548142158
Bi               0.2501659316        0.2500000783        0.1450922799
Bi               0.0000000000        0.5001658806        0.3549077575
Bi               0.0000000000        0.5005476666        0.6451857313
Bi               0.5000000273       -0.0027237100        0.3547405956
Bi               0.5000000273       -0.0003247601        0.6449405588
Bi               0.2503248384        0.7499999763        0.8550593883
Bi               0.2527237883        0.7499999763        0.1452594418
Bi               0.7494523370        0.2500000783        0.8548142158
Bi               0.7498341230        0.2500000783        0.1450922799
Bi               0.5000000273        0.5027237373        0.3547405956
Bi               0.5000000273        0.5003247874        0.6449405588
Bi               0.7496752162        0.7499999763        0.8550593883
Bi               0.7472762663        0.7499999763        0.1452594418
Se               0.0000000000       -0.0008603624        0.0010025031
Se               0.2508604407        0.2500000783        0.4989975343
Se               0.0000000000        0.5008603897        0.0010025031
Se               0.5000000273       -0.0001938719       -0.0000650547
Se               0.2501939502        0.7499999763        0.5000650921
Se               0.7491396139        0.2500000783        0.4989975343
Se               0.5000000273        0.5001938992       -0.0000650547
Se               0.7498061044        0.7499999763        0.5000650921
O                0.0000000000        0.2500000783        0.2499999774
O                0.0000000000        0.7499999763        0.7499592136
O                0.0000000000        0.7499999763        0.2490430815
O                0.0000000000        0.2500000783        0.7500000148
O                0.7506810085        0.0006810322        0.2499999774
O                0.2497474044        0.0002526739        0.7500000148
O                0.2493190461        0.0006810322        0.2499999774
O                0.7502526502        0.0002526739        0.7500000148
O                0.2497474044        0.4997473534        0.7500000148
O                0.2493190461        0.4993189951        0.2499999774
O                0.5000000273        0.2500000783        0.2509568733
O                0.5000000273        0.2500000783        0.7500408160
O                0.5000000273        0.7499999763        0.7500000148
O                0.7502526502        0.4997473534        0.7500000148
O                0.7506810085        0.4993189951        0.2499999774



     Writing config-only to output data dir ./out/voxy.save/ :
     XML data file
     NEW-OLD atomic charge density approx. for the potential

     total cpu time spent up to now is     1719.5 secs

     Self-consistent Calculation

     iteration #  1     ecut=    50.00 Ry     beta= 0.40
     Davidson diagonalization with overlap
     ethr =  1.00E-06,  avg # of iterations =  6.7

     Threshold (ethr) on eigenvalues was too large:
     Diagonalizing with lowered threshold

     Davidson diagonalization with overlap
     ethr =  4.64E-08,  avg # of iterations =  2.9

     total cpu time spent up to now is     1799.8 secs

     total energy              =  -18126.65255928 Ry
     estimated scf accuracy    <       0.00022368 Ry

     iteration #  2     ecut=    50.00 Ry     beta= 0.40
     Davidson diagonalization with overlap
     ethr =  4.88E-08,  avg # of iterations =  3.4

     total cpu time spent up to now is     1829.3 secs

     total energy              =  -18126.65246636 Ry
     estimated scf accuracy    <       0.00042970 Ry

     iteration #  3     ecut=    50.00 Ry     beta= 0.40
     Davidson diagonalization with overlap
     ethr =  4.88E-08,  avg # of iterations =  2.0

     total cpu time spent up to now is     1853.5 secs

     total energy              =  -18126.65240837 Ry
     estimated scf accuracy    <       0.00007587 Ry

     iteration #  4     ecut=    50.00 Ry     beta= 0.40
     Davidson diagonalization with overlap
     ethr =  1.66E-08,  avg # of iterations =  2.0

     total cpu time spent up to now is     1877.4 secs

     total energy              =  -18126.65232718 Ry
     estimated scf accuracy    <       0.00000751 Ry

     iteration #  5     ecut=    50.00 Ry     beta= 0.40
     Davidson diagonalization with overlap
     ethr =  1.64E-09,  avg # of iterations =  4.0

     total cpu time spent up to now is     1908.5 secs

     total energy              =  -18126.65229690 Ry
     estimated scf accuracy    <       0.00000216 Ry

     iteration #  6     ecut=    50.00 Ry     beta= 0.40
     Davidson diagonalization with overlap
     ethr =  4.73E-10,  avg # of iterations =  4.0

     total cpu time spent up to now is     1940.7 secs

     total energy              =  -18126.65228812 Ry
     estimated scf accuracy    <       0.00000055 Ry

     iteration #  7     ecut=    50.00 Ry     beta= 0.40
     Davidson diagonalization with overlap
     ethr =  1.20E-10,  avg # of iterations =  2.6

     total cpu time spent up to now is     1970.6 secs

     total energy              =  -18126.65228704 Ry
     estimated scf accuracy    <       0.00000012 Ry

     iteration #  8     ecut=    50.00 Ry     beta= 0.40
     Davidson diagonalization with overlap
     ethr =  2.56E-11,  avg # of iterations =  4.0

     total cpu time spent up to now is     2002.4 secs

     total energy              =  -18126.65228697 Ry
     estimated scf accuracy    <       0.00000002 Ry

     iteration #  9     ecut=    50.00 Ry     beta= 0.40
     Davidson diagonalization with overlap
     ethr =  4.40E-12,  avg # of iterations =  4.0

     total cpu time spent up to now is     2035.1 secs

     total energy              =  -18126.65228697 Ry
     estimated scf accuracy    <          3.2E-09 Ry

     iteration # 10     ecut=    50.00 Ry     beta= 0.40
     Davidson diagonalization with overlap
     ethr =  6.91E-13,  avg # of iterations =  3.4

     total cpu time spent up to now is     2066.9 secs

     total energy              =  -18126.65228698 Ry
     estimated scf accuracy    <          9.5E-10 Ry

     iteration # 11     ecut=    50.00 Ry     beta= 0.40
     Davidson diagonalization with overlap
     ethr =  2.07E-13,  avg # of iterations =  2.1

     total cpu time spent up to now is     2093.1 secs

     total energy              =  -18126.65228698 Ry
     estimated scf accuracy    <          1.5E-10 Ry

     iteration # 12     ecut=    50.00 Ry     beta= 0.40
     Davidson diagonalization with overlap
     ethr =  1.00E-13,  avg # of iterations =  2.0

     total cpu time spent up to now is     2116.8 secs

     End of self-consistent calculation

          k = 0.0000 0.0000 0.0000 ( 29231 PWs)   bands (ev):

   -35.4038 -35.4038 -35.4037 -35.4036 -35.4025 -35.4025 -35.4024 -35.4023
   -35.3912 -35.3911 -35.3911 -35.3910 -35.3910 -35.3910 -35.3909 -35.3909
   -35.3861 -35.3860 -35.3860 -35.3859 -35.3578 -35.3578 -35.3578 -35.3577
   -35.3561 -35.3561 -35.3560 -35.3559 -35.3510 -35.3509 -35.3508 -35.3508
   -35.3493 -35.3492 -35.3492 -35.3491 -35.3468 -35.3468 -35.3468 -35.3467
   -12.0080 -12.0046 -12.0013 -11.9725 -11.9695 -11.9492 -11.9392 -11.9391
   -11.9371 -11.9346 -11.9089 -11.9089 -11.8928 -11.8168 -11.8030 -11.8030
   -11.8003 -11.7995 -11.7988 -11.7988 -11.7941 -11.7822 -11.7821 -11.7818
   -11.7813 -11.7803 -11.7780 -11.7780 -11.7658 -11.7644 -11.7644 -11.7545
   -11.7545 -11.7513 -11.7510 -11.7508 -11.7499 -11.7499 -11.7480 -11.7381
   -11.7380 -11.7377 -11.7377 -11.7325 -11.7315 -11.7314 -11.7296 -11.7279
   -11.7270 -11.7261 -11.7261 -11.7178 -11.7178 -11.7158 -11.7138 -11.7127
   -11.7119 -11.7119 -11.7098 -11.7097 -11.7047 -11.7037 -11.7020 -11.6950
   -11.6919 -11.6919 -11.6879 -11.6863 -11.6862 -11.6850 -11.6843 -11.6827
   -11.6826 -11.6761 -11.6695 -11.6660 -11.6660 -11.6604 -11.6582 -11.6581
    -8.5942  -8.3968  -7.1548  -7.1548  -7.1441  -7.1410  -7.1402  -7.1402
    -7.0852  -6.8628  -6.7955  -6.7768  -6.7732  -6.0855  -5.9375  -2.1266
    -1.5551  -0.6349  -0.6288  -0.6287  -0.6231  -0.2545  -0.2544  -0.0455
    -0.0455   0.0500   0.0529   0.2323   0.2323   0.4146   0.4226   0.4227
     0.8495   1.1241   1.1302   1.1302   1.4508   2.3750   3.1855   5.3509
     5.3901   5.3901   5.4564   5.5911   5.5911   5.6777   5.9299   5.9472
     5.9570   5.9571   6.0517   6.1124   6.1404   6.1404   6.3319   6.3319
     6.3608   6.7821   6.7994   6.8196   6.8196   6.8300   6.8443   6.9400
     6.9400   6.9456   7.2577   7.2577   7.3826   7.4514   7.4927   7.7000
     7.7000   8.1255   8.3277   8.4087   8.4087   8.4409   8.4735   8.4735
     8.4781   8.8036   8.9348   8.9349   8.9412   9.0773   9.2109   9.2109
     9.5293   9.7573   9.7700   9.7701   9.7772   9.8426   9.8426  10.0004
    10.0004  10.1444  10.2501  10.2501  10.5350  10.5350  10.5631  10.6156
    10.7695  10.8500  10.8506  10.8588  10.8589  11.5746  11.8010  12.0285
    12.7990  12.9119  13.1678  13.1678  13.6313  13.6314  13.9089  14.0111
    14.0111  14.1212  14.3501  14.3501  14.4866  14.4934  14.5723  14.6138
    14.7625  14.7625  14.9932  15.0886  15.0989  15.3329  15.3329  15.4424
    15.5902  15.6361  15.7533  15.7533  15.7930  15.7930  15.7983  15.8110
    15.9071  15.9622  15.9622  15.9938  16.2266  16.2267  16.3253  16.6736
    17.0118  17.1335  17.1335

          k = 0.0000 0.0000 0.1065 ( 29155 PWs)   bands (ev):

   -35.4037 -35.4037 -35.4036 -35.4035 -35.4024 -35.4024 -35.4024 -35.4023
   -35.3910 -35.3910 -35.3910 -35.3910 -35.3909 -35.3909 -35.3908 -35.3908
   -35.3861 -35.3860 -35.3859 -35.3857 -35.3577 -35.3577 -35.3577 -35.3576
   -35.3560 -35.3560 -35.3559 -35.3559 -35.3508 -35.3508 -35.3508 -35.3507
   -35.3491 -35.3491 -35.3491 -35.3490 -35.3469 -35.3468 -35.3467 -35.3465
   -12.0079 -12.0037 -12.0009 -11.9734 -11.9695 -11.9496 -11.9390 -11.9390
   -11.9370 -11.9347 -11.9090 -11.9090 -11.8929 -11.8157 -11.8024 -11.8024
   -11.8004 -11.7993 -11.7983 -11.7983 -11.7939 -11.7827 -11.7819 -11.7819
   -11.7818 -11.7812 -11.7780 -11.7780 -11.7663 -11.7655 -11.7655 -11.7560
   -11.7559 -11.7521 -11.7516 -11.7507 -11.7507 -11.7490 -11.7482 -11.7415
   -11.7375 -11.7375 -11.7348 -11.7324 -11.7302 -11.7302 -11.7286 -11.7275
   -11.7249 -11.7249 -11.7246 -11.7178 -11.7178 -11.7155 -11.7132 -11.7125
   -11.7115 -11.7115 -11.7096 -11.7096 -11.7056 -11.7038 -11.7018 -11.6956
   -11.6921 -11.6921 -11.6881 -11.6866 -11.6866 -11.6851 -11.6847 -11.6827
   -11.6827 -11.6761 -11.6698 -11.6661 -11.6661 -11.6603 -11.6582 -11.6582
    -8.5940  -8.3970  -7.1539  -7.1538  -7.1441  -7.1412  -7.1412  -7.1408
    -7.0854  -6.8627  -6.7952  -6.7771  -6.7733  -6.0855  -5.9375  -2.0982
    -1.6099  -0.6348  -0.6277  -0.6277  -0.6223  -0.2469  -0.2468  -0.0609
    -0.0609   0.0336   0.1545   0.2398   0.2398   0.4142   0.4204   0.4205
     0.8479   1.1161   1.1322   1.1322   1.3368   2.4681   3.1564   5.3783
     5.3927   5.3927   5.4785   5.5854   5.5854   5.6437   5.8700   5.8896
     5.9404   5.9404   6.0784   6.1459   6.1459   6.1694   6.3600   6.3600
     6.3782   6.7828   6.8004   6.8195   6.8195   6.8289   6.8436   6.8893
     6.8893   6.8941   7.2831   7.2831   7.3948   7.5304   7.5549   7.7207
     7.7207   8.1256   8.3257   8.4169   8.4169   8.4616   8.4799   8.4799
     8.5111   8.7297   8.8216   8.9347   8.9347   9.0105   9.2109   9.2109
     9.5267   9.7449   9.7588   9.7588   9.7907   9.8652   9.8652   9.9747
     9.9748  10.1579  10.2184  10.2184  10.5340  10.5341  10.5595  10.6154
    10.8014  10.8501  10.8512  10.8591  10.8592  11.6829  11.9551  11.9885
    12.7548  12.9759  13.1888  13.1888  13.6200  13.6200  13.7529  14.0845
    14.0845  14.1261  14.1272  14.3637  14.3637  14.4824  14.4905  14.7384
    14.7565  14.7565  14.9264  15.1782  15.3000  15.3001  15.3242  15.5002
    15.5002  15.5267  15.5502  15.6785  15.7690  15.7690  15.8047  15.8170
    15.9646  15.9986  16.1798  16.1798  16.2935  16.2935  16.3469  16.6456
    16.9595  17.1132  17.1132

          k = 0.0000 0.0000 0.2129 ( 29220 PWs)   bands (ev):

   -35.4038 -35.4038 -35.4038 -35.4037 -35.4026 -35.4025 -35.4025 -35.4024
   -35.3911 -35.3910 -35.3910 -35.3910 -35.3910 -35.3909 -35.3909 -35.3909
   -35.3860 -35.3859 -35.3859 -35.3858 -35.3578 -35.3578 -35.3578 -35.3577
   -35.3562 -35.3561 -35.3560 -35.3560 -35.3509 -35.3509 -35.3508 -35.3507
   -35.3492 -35.3491 -35.3491 -35.3491 -35.3468 -35.3467 -35.3467 -35.3466
   -12.0079 -12.0022 -12.0002 -11.9754 -11.9696 -11.9506 -11.9389 -11.9389
   -11.9367 -11.9349 -11.9094 -11.9094 -11.8932 -11.8130 -11.8012 -11.8012
   -11.8012 -11.7990 -11.7975 -11.7975 -11.7933 -11.7871 -11.7818 -11.7816
   -11.7815 -11.7810 -11.7780 -11.7780 -11.7677 -11.7677 -11.7674 -11.7587
   -11.7587 -11.7538 -11.7523 -11.7522 -11.7521 -11.7485 -11.7475 -11.7435
   -11.7373 -11.7373 -11.7324 -11.7317 -11.7280 -11.7279 -11.7267 -11.7262
   -11.7228 -11.7228 -11.7207 -11.7177 -11.7177 -11.7150 -11.7123 -11.7121
   -11.7109 -11.7109 -11.7092 -11.7092 -11.7077 -11.7042 -11.7017 -11.6973
   -11.6926 -11.6925 -11.6887 -11.6873 -11.6873 -11.6857 -11.6856 -11.6828
   -11.6828 -11.6763 -11.6708 -11.6664 -11.6664 -11.6604 -11.6584 -11.6583
    -8.5937  -8.3973  -7.1514  -7.1514  -7.1441  -7.1436  -7.1436  -7.1403
    -7.0859  -6.8627  -6.7946  -6.7777  -6.7733  -6.0855  -5.9375  -2.0165
    -1.7397  -0.6350  -0.6256  -0.6255  -0.6207  -0.2277  -0.2276  -0.0942
    -0.0942   0.0345   0.2530   0.2530   0.3447   0.4163   0.4163   0.4399
     0.8418   1.0084   1.1362   1.1362   1.1808   2.6464   3.0773   5.3983
     5.3983   5.4582   5.5330   5.5738   5.5739   5.5982   5.7324   5.8021
     5.9145   5.9145   6.0339   6.1394   6.1394   6.3136   6.4550   6.4550
     6.4781   6.7606   6.7643   6.7643   6.7841   6.8026   6.8201   6.8201
     6.8266   6.8421   7.2844   7.3305   7.3305   7.7604   7.7604   7.7751
     7.8192   8.1257   8.3096   8.4298   8.4298   8.4825   8.4966   8.4966
     8.5220   8.5271   8.6095   8.8844   8.9344   8.9344   9.2109   9.2109
     9.5263   9.7256   9.7365   9.7365   9.8486   9.9145   9.9145   9.9363
     9.9363  10.1049  10.1363  10.1363  10.5327  10.5328  10.5778  10.6127
    10.8504  10.8521  10.8597  10.8597  10.9016  11.7981  12.0396  12.3540
    12.6329  13.0894  13.2375  13.2375  13.4752  13.5020  13.5882  13.5882
    14.2395  14.2884  14.2884  14.3929  14.3930  14.4740  14.4837  14.7385
    14.7385  14.7858  14.9196  15.0341  15.0341  15.0431  15.3571  15.3705
    15.3705  15.5115  15.7041  15.7855  15.7855  15.8160  15.8278  15.9729
    16.1037  16.1675  16.2116  16.2116  16.4092  16.5693  16.5693  16.5696
    16.7671  17.0415  17.0484

          k = 0.0000 0.0000-0.3194 ( 29204 PWs)   bands (ev):

   -35.4038 -35.4038 -35.4037 -35.4037 -35.4025 -35.4025 -35.4024 -35.4023
   -35.3910 -35.3910 -35.3910 -35.3909 -35.3909 -35.3909 -35.3908 -35.3908
   -35.3861 -35.3859 -35.3859 -35.3858 -35.3578 -35.3578 -35.3578 -35.3577
   -35.3561 -35.3560 -35.3560 -35.3559 -35.3509 -35.3508 -35.3507 -35.3506
   -35.3491 -35.3491 -35.3490 -35.3490 -35.3469 -35.3468 -35.3467 -35.3466
   -12.0079 -12.0013 -11.9998 -11.9765 -11.9697 -11.9511 -11.9388 -11.9388
   -11.9366 -11.9350 -11.9096 -11.9096 -11.8933 -11.8109 -11.8025 -11.8006
   -11.8005 -11.7988 -11.7971 -11.7971 -11.7928 -11.7891 -11.7817 -11.7814
   -11.7813 -11.7809 -11.7780 -11.7780 -11.7687 -11.7687 -11.7679 -11.7599
   -11.7599 -11.7550 -11.7530 -11.7530 -11.7523 -11.7487 -11.7466 -11.7444
   -11.7372 -11.7372 -11.7323 -11.7296 -11.7269 -11.7269 -11.7257 -11.7256
   -11.7218 -11.7218 -11.7190 -11.7176 -11.7176 -11.7146 -11.7119 -11.7113
   -11.7106 -11.7106 -11.7095 -11.7089 -11.7088 -11.7044 -11.7016 -11.6981
   -11.6928 -11.6928 -11.6890 -11.6877 -11.6877 -11.6862 -11.6857 -11.6829
   -11.6829 -11.6763 -11.6712 -11.6665 -11.6665 -11.6604 -11.6584 -11.6584
    -8.5936  -8.3975  -7.1491  -7.1491  -7.1459  -7.1459  -7.1441  -7.1401
    -7.0862  -6.8627  -6.7943  -6.7780  -6.7734  -6.0855  -5.9375  -1.9098
    -1.8685  -0.6351  -0.6245  -0.6245  -0.6198  -0.2142  -0.2142  -0.1141
    -0.1141   0.0359   0.2588   0.2588   0.3850   0.4144   0.4144   0.6222
     0.7582   0.8665   1.1382   1.1382   1.1624   2.7543   3.0102   5.4013
     5.4013   5.5527   5.5679   5.5679   5.5807   5.5839   5.6080   5.7461
     5.9037   5.9037   5.9984   6.1321   6.1321   6.4203   6.5654   6.5654
     6.5776   6.6268   6.6435   6.6436   6.7848   6.8038   6.8199   6.8199
     6.8253   6.8414   7.2138   7.3527   7.3527   7.7801   7.7801   8.0282
     8.1258   8.1640   8.1683   8.1760   8.3865   8.4346   8.4346   8.5068
     8.5068   8.5252   8.6913   8.7853   8.9342   8.9342   9.2109   9.2109
     9.5281   9.7146   9.7253   9.7254   9.8919   9.8919   9.9333  10.0073
    10.0073  10.0101  10.0515  10.0515  10.5323  10.5324  10.5954  10.6071
    10.8507  10.8526  10.8599  10.8600  10.9774  11.7359  12.3131  12.4241
    12.8761  12.9111  13.1665  13.2671  13.2671  13.3278  13.5662  13.5662
    14.3751  14.3934  14.3934  14.4699  14.4803  14.5582  14.5582  14.6255
    14.6256  14.7311  14.8311  14.8311  14.8653  14.9428  15.3572  15.3572
    15.4718  15.4814  15.7078  15.7930  15.7930  15.8223  15.8337  15.9696
    16.2193  16.2194  16.3737  16.4676  16.5137  16.5335  16.6193  16.6323
    16.7315  16.7315  16.9592

          k = 0.0000 0.1667 0.0000 ( 29199 PWs)   bands (ev):

   -35.4037 -35.4037 -35.4037 -35.4036 -35.4025 -35.4025 -35.4024 -35.4023
   -35.3911 -35.3911 -35.3910 -35.3910 -35.3910 -35.3910 -35.3909 -35.3908
   -35.3860 -35.3860 -35.3859 -35.3858 -35.3578 -35.3578 -35.3577 -35.3577
   -35.3561 -35.3560 -35.3560 -35.3559 -35.3509 -35.3509 -35.3509 -35.3507
   -35.3492 -35.3492 -35.3491 -35.3491 -35.3468 -35.3468 -35.3467 -35.3466
   -12.0054 -12.0000 -11.9969 -11.9681 -11.9672 -11.9615 -11.9482 -11.9431
   -11.9398 -11.9183 -11.9127 -11.9047 -11.8764 -11.8163 -11.8058 -11.8013
   -11.7989 -11.7978 -11.7970 -11.7957 -11.7917 -11.7860 -11.7815 -11.7804
   -11.7796 -11.7790 -11.7766 -11.7739 -11.7656 -11.7638 -11.7629 -11.7574
   -11.7540 -11.7535 -11.7520 -11.7490 -11.7487 -11.7483 -11.7452 -11.7434
   -11.7401 -11.7389 -11.7364 -11.7357 -11.7337 -11.7328 -11.7299 -11.7299
   -11.7274 -11.7265 -11.7233 -11.7183 -11.7173 -11.7166 -11.7142 -11.7138
   -11.7132 -11.7125 -11.7121 -11.7113 -11.7045 -11.7045 -11.7043 -11.6964
   -11.6954 -11.6912 -11.6910 -11.6885 -11.6865 -11.6855 -11.6852 -11.6847
   -11.6833 -11.6762 -11.6706 -11.6683 -11.6659 -11.6611 -11.6610 -11.6590
    -8.5428  -8.3545  -7.5087  -7.4023  -7.1325  -7.1195  -7.1180  -6.9488
    -6.8215  -6.8035  -6.8014  -6.7928  -6.7631  -6.1076  -5.9694  -2.0728
    -1.5124  -0.8982  -0.7165  -0.6014  -0.6012  -0.2640  -0.2555  -0.0493
    -0.0326   0.0655   0.1077   0.2787   0.3242   0.4033   0.4138   0.6603
     0.8038   0.9646   1.0801   1.3470   1.4613   2.3524   3.0447   5.2807
     5.3625   5.4040   5.4360   5.4573   5.6108   5.6665   5.7971   5.8093
     5.8277   5.8400   5.9579   5.9633   6.1621   6.2424   6.2560   6.4135
     6.4339   6.5543   6.6945   6.8731   6.9155   7.0456   7.0538   7.1217
     7.2025   7.2186   7.3372   7.4242   7.5287   7.6115   7.6418   7.7254
     7.8171   7.9354   8.2072   8.2816   8.3606   8.4075   8.4383   8.4443
     8.6003   8.8271   8.8761   8.8967   8.9764   9.0904   9.1124   9.1178
     9.5098   9.5776   9.7350   9.7568   9.8247   9.8446   9.8509   9.8720
     9.8974  10.1613  10.2590  10.2656  10.3477  10.3965  10.4127  10.5579
    10.5928  10.6094  10.7270  10.8319  10.9861  11.9373  12.1264  12.2855
    12.7870  13.0065  13.0250  13.3267  13.6131  13.7211  13.7690  13.9898
    14.0579  14.2836  14.3343  14.4392  14.4402  14.5068  14.6316  14.6747
    14.9063  14.9453  15.0610  15.0635  15.1000  15.1384  15.1869  15.3244
    15.4057  15.4635  15.5006  15.5349  15.6686  15.7556  15.8149  15.8653
    15.9962  16.0658  16.0668  16.0791  16.2304  16.3802  16.4365  16.8513
    16.9833  17.0175  17.1068

          k = 0.0000 0.1667 0.1065 ( 29197 PWs)   bands (ev):

   -35.4037 -35.4037 -35.4037 -35.4036 -35.4025 -35.4024 -35.4024 -35.4023
   -35.3911 -35.3911 -35.3910 -35.3910 -35.3910 -35.3909 -35.3909 -35.3909
   -35.3861 -35.3860 -35.3859 -35.3858 -35.3578 -35.3577 -35.3577 -35.3576
   -35.3561 -35.3560 -35.3560 -35.3559 -35.3509 -35.3508 -35.3508 -35.3508
   -35.3492 -35.3491 -35.3491 -35.3491 -35.3469 -35.3468 -35.3467 -35.3466
   -12.0054 -11.9993 -11.9966 -11.9690 -11.9673 -11.9614 -11.9487 -11.9430
   -11.9398 -11.9188 -11.9130 -11.9040 -11.8768 -11.8153 -11.8051 -11.8008
   -11.7988 -11.7974 -11.7970 -11.7956 -11.7916 -11.7858 -11.7822 -11.7809
   -11.7801 -11.7789 -11.7766 -11.7741 -11.7661 -11.7649 -11.7641 -11.7582
   -11.7546 -11.7541 -11.7524 -11.7504 -11.7491 -11.7480 -11.7457 -11.7450
   -11.7387 -11.7381 -11.7360 -11.7346 -11.7330 -11.7316 -11.7291 -11.7287
   -11.7270 -11.7245 -11.7224 -11.7182 -11.7175 -11.7163 -11.7141 -11.7137
   -11.7130 -11.7127 -11.7114 -11.7108 -11.7052 -11.7052 -11.7037 -11.6965
   -11.6960 -11.6914 -11.6913 -11.6888 -11.6867 -11.6858 -11.6853 -11.6851
   -11.6834 -11.6763 -11.6710 -11.6684 -11.6660 -11.6612 -11.6610 -11.6591
    -8.5427  -8.3547  -7.5086  -7.4024  -7.1316  -7.1195  -7.1189  -6.9489
    -6.8211  -6.8039  -6.8014  -6.7926  -6.7633  -6.1076  -5.9694  -2.0448
    -1.5658  -0.8865  -0.7289  -0.6010  -0.6005  -0.2587  -0.2510  -0.0629
    -0.0421   0.0840   0.1756   0.2825   0.3278   0.4082   0.4130   0.6091
     0.8348   1.0004   1.0815   1.2530   1.4308   2.4253   3.0190   5.2946
     5.3726   5.4036   5.4385   5.4540   5.5925   5.6610   5.7175   5.7584
     5.7932   5.8840   5.9709   6.0376   6.1137   6.3000   6.3155   6.4343
     6.4638   6.5803   6.6931   6.8267   6.8411   6.9815   7.1012   7.1321
     7.2027   7.2177   7.3174   7.3977   7.4718   7.6889   7.6947   7.7775
     7.8700   7.9348   8.2166   8.3105   8.3648   8.4197   8.4432   8.4467
     8.5887   8.7516   8.8004   8.8799   8.9194   8.9904   9.1286   9.1330
     9.4827   9.6614   9.7291   9.7589   9.8143   9.8689   9.8718   9.8911
     9.9179  10.1157  10.2385  10.2606  10.3485  10.4071  10.4223  10.5509
    10.5848  10.6060  10.7341  10.8251  11.0254  12.0060  12.2286  12.2524
    12.7913  13.0188  13.0520  13.3393  13.6123  13.7330  13.7503  13.8922
    14.0884  14.1876  14.2270  14.3291  14.4403  14.4594  14.6248  14.6571
    14.7933  14.9408  15.0269  15.0502  15.1287  15.2055  15.3718  15.4147
    15.4443  15.5172  15.5275  15.5403  15.6403  15.7275  15.8063  15.8841
    16.0143  16.0525  16.0758  16.2226  16.2335  16.3921  16.4344  16.8300
    16.9617  16.9681  17.0927

          k = 0.0000 0.1667 0.2129 ( 29192 PWs)   bands (ev):

   -35.4038 -35.4037 -35.4037 -35.4036 -35.4025 -35.4024 -35.4024 -35.4023
   -35.3911 -35.3910 -35.3910 -35.3910 -35.3909 -35.3909 -35.3909 -35.3909
   -35.3861 -35.3859 -35.3859 -35.3858 -35.3578 -35.3578 -35.3577 -35.3577
   -35.3561 -35.3560 -35.3560 -35.3559 -35.3508 -35.3508 -35.3508 -35.3508
   -35.3492 -35.3491 -35.3491 -35.3491 -35.3468 -35.3467 -35.3467 -35.3466
   -12.0054 -11.9978 -11.9959 -11.9710 -11.9673 -11.9611 -11.9499 -11.9426
   -11.9398 -11.9197 -11.9135 -11.9026 -11.8779 -11.8126 -11.8035 -11.7997
   -11.7994 -11.7968 -11.7966 -11.7952 -11.7913 -11.7859 -11.7855 -11.7806
   -11.7797 -11.7787 -11.7766 -11.7746 -11.7675 -11.7668 -11.7659 -11.7600
   -11.7568 -11.7547 -11.7535 -11.7532 -11.7498 -11.7485 -11.7465 -11.7454
   -11.7382 -11.7359 -11.7353 -11.7329 -11.7308 -11.7288 -11.7272 -11.7266
   -11.7261 -11.7216 -11.7207 -11.7178 -11.7178 -11.7156 -11.7139 -11.7135
   -11.7124 -11.7124 -11.7111 -11.7100 -11.7068 -11.7060 -11.7033 -11.6974
   -11.6965 -11.6918 -11.6918 -11.6895 -11.6873 -11.6861 -11.6859 -11.6856
   -11.6836 -11.6764 -11.6718 -11.6686 -11.6662 -11.6614 -11.6611 -11.6592
    -8.5424  -8.3551  -7.5083  -7.4028  -7.1292  -7.1213  -7.1194  -6.9489
    -6.8204  -6.8046  -6.8014  -6.7923  -6.7638  -6.1076  -5.9694  -1.9645
    -1.6926  -0.8551  -0.7614  -0.6006  -0.5986  -0.2461  -0.2408  -0.0891
    -0.0615   0.0958   0.2892   0.3209   0.3804   0.4118   0.4285   0.5439
     0.8468   0.9923   1.0842   1.1392   1.3573   2.5709   2.9500   5.3295
     5.3918   5.4032   5.4439   5.4482   5.5594   5.6411   5.6605   5.6765
     5.7638   5.8150   5.9732   6.1785   6.1945   6.3579   6.3949   6.4348
     6.5389   6.6414   6.6533   6.7112   6.7703   6.8688   7.1165   7.1487
     7.2023   7.2156   7.3100   7.3930   7.4061   7.7524   7.7545   7.9288
     7.9407   8.0227   8.2178   8.3724   8.4009   8.4296   8.4519   8.4828
     8.5092   8.5491   8.6073   8.7847   8.8961   8.9062   9.1370   9.1420
     9.4717   9.7158   9.7260   9.7748   9.8249   9.8981   9.9013   9.9542
     9.9732  10.0220  10.1685  10.2136  10.3637  10.4325  10.4460  10.5297
    10.5659  10.5974  10.7533  10.8066  11.1212  12.0913  12.2658  12.5167
    12.7332  13.1001  13.1044  13.3595  13.5614  13.5695  13.6877  13.8007
    13.8259  14.1420  14.2140  14.3389  14.3654  14.4815  14.5336  14.6112
    14.7402  14.9358  14.9921  15.0690  15.2059  15.2311  15.2647  15.4183
    15.4882  15.5506  15.6012  15.6106  15.7377  15.7770  15.9376  15.9667
    15.9986  16.0613  16.1526  16.2799  16.4216  16.4378  16.4894  16.7106
    16.8877  16.8901  16.9811

          k = 0.0000 0.1667-0.3194 ( 29188 PWs)   bands (ev):

   -35.4038 -35.4037 -35.4037 -35.4036 -35.4025 -35.4024 -35.4024 -35.4023
   -35.3910 -35.3910 -35.3910 -35.3910 -35.3909 -35.3909 -35.3909 -35.3908
   -35.3860 -35.3859 -35.3859 -35.3858 -35.3578 -35.3578 -35.3577 -35.3576
   -35.3561 -35.3560 -35.3560 -35.3559 -35.3508 -35.3508 -35.3508 -35.3508
   -35.3492 -35.3491 -35.3491 -35.3490 -35.3468 -35.3467 -35.3467 -35.3466
   -12.0054 -11.9969 -11.9955 -11.9721 -11.9674 -11.9609 -11.9505 -11.9425
   -11.9398 -11.9201 -11.9138 -11.9019 -11.8784 -11.8107 -11.8030 -11.8001
   -11.7991 -11.7967 -11.7963 -11.7950 -11.7911 -11.7877 -11.7853 -11.7804
   -11.7794 -11.7785 -11.7767 -11.7749 -11.7684 -11.7676 -11.7665 -11.7609
   -11.7579 -11.7555 -11.7542 -11.7541 -11.7501 -11.7488 -11.7468 -11.7454
   -11.7379 -11.7352 -11.7351 -11.7321 -11.7286 -11.7275 -11.7263 -11.7259
   -11.7255 -11.7203 -11.7200 -11.7179 -11.7175 -11.7152 -11.7138 -11.7134
   -11.7121 -11.7118 -11.7112 -11.7097 -11.7078 -11.7063 -11.7032 -11.6982
   -11.6965 -11.6921 -11.6920 -11.6899 -11.6876 -11.6863 -11.6863 -11.6857
   -11.6837 -11.6764 -11.6722 -11.6687 -11.6664 -11.6615 -11.6612 -11.6593
    -8.5422  -8.3553  -7.5081  -7.4029  -7.1272  -7.1233  -7.1194  -6.9490
    -6.8200  -6.8050  -6.8014  -6.7921  -6.7640  -6.1076  -5.9694  -1.8601
    -1.8184  -0.8231  -0.7940  -0.6004  -0.5977  -0.2382  -0.2349  -0.1028
    -0.0718   0.1000   0.2921   0.3297   0.4114   0.4229   0.4958   0.6148
     0.7480   0.8883   1.0856   1.2298   1.2697   2.6599   2.8933   5.3533
     5.3924   5.4105   5.4471   5.4480   5.5444   5.6092   5.6369   5.6586
     5.7562   5.7852   5.9530   6.2721   6.2731   6.3779   6.4299   6.4349
     6.5610   6.5735   6.6719   6.7027   6.7051   6.8339   7.0907   7.1661
     7.2008   7.2145   7.3125   7.3837   7.4046   7.7778   7.7786   7.9330
     8.0687   8.1795   8.1976   8.3415   8.3714   8.3760   8.4298   8.4566
     8.4961   8.5154   8.6010   8.6483   8.8869   8.9046   9.1393   9.1440
     9.4713   9.7090   9.7281   9.7626   9.8975   9.9028   9.9066   9.9352
    10.0418  10.0494  10.0917  10.1384  10.3756  10.4456  10.4722  10.5060
    10.5545  10.5920  10.7746  10.7855  11.1805  12.0495  12.4273  12.6128
    12.8659  12.9715  13.2415  13.2972  13.3299  13.4810  13.6487  13.7402
    14.0178  14.0733  14.1248  14.1817  14.4800  14.5430  14.5821  14.6190
    14.6682  14.7304  15.0413  15.1594  15.1669  15.2780  15.3238  15.3812
    15.4433  15.5359  15.5807  15.6677  15.7625  15.7962  15.8449  15.9656
    16.0175  16.2807  16.3202  16.4430  16.4451  16.4546  16.5544  16.6390
    16.6684  16.8246  16.8793

          k = 0.0000 0.3333 0.0000 ( 29167 PWs)   bands (ev):

   -35.4038 -35.4037 -35.4036 -35.4036 -35.4025 -35.4024 -35.4023 -35.4022
   -35.3911 -35.3910 -35.3910 -35.3910 -35.3910 -35.3909 -35.3909 -35.3908
   -35.3860 -35.3860 -35.3858 -35.3857 -35.3578 -35.3578 -35.3577 -35.3576
   -35.3560 -35.3560 -35.3559 -35.3558 -35.3509 -35.3508 -35.3508 -35.3508
   -35.3492 -35.3492 -35.3491 -35.3490 -35.3468 -35.3468 -35.3467 -35.3465
   -11.9987 -11.9878 -11.9853 -11.9774 -11.9621 -11.9563 -11.9545 -11.9518
   -11.9468 -11.9259 -11.9238 -11.8661 -11.8488 -11.8153 -11.8094 -11.7986
   -11.7979 -11.7939 -11.7924 -11.7896 -11.7893 -11.7873 -11.7811 -11.7803
   -11.7788 -11.7732 -11.7714 -11.7672 -11.7663 -11.7659 -11.7630 -11.7625
   -11.7595 -11.7533 -11.7528 -11.7509 -11.7507 -11.7475 -11.7466 -11.7457
   -11.7453 -11.7415 -11.7402 -11.7361 -11.7333 -11.7320 -11.7293 -11.7276
   -11.7270 -11.7258 -11.7236 -11.7232 -11.7207 -11.7199 -11.7188 -11.7159
   -11.7142 -11.7134 -11.7112 -11.7104 -11.7086 -11.7061 -11.7058 -11.7042
   -11.6965 -11.6962 -11.6945 -11.6926 -11.6906 -11.6873 -11.6855 -11.6849
   -11.6843 -11.6765 -11.6747 -11.6729 -11.6660 -11.6653 -11.6625 -11.6602
    -8.3934  -8.2389  -7.8554  -7.6787  -7.0705  -7.0563  -7.0560  -6.9237
    -6.8906  -6.8746  -6.8720  -6.5641  -6.4841  -6.1682  -6.0680  -1.9126
    -1.3895  -1.2971  -0.9503  -0.5268  -0.5249  -0.3194  -0.3102  -0.0447
     0.0474   0.1150   0.1906   0.2946   0.3920   0.4816   0.4881   0.6576
     0.7879   0.9418   1.1621   1.3911   1.7445   2.2867   2.6550   5.1850
     5.2295   5.3011   5.4143   5.4350   5.4474   5.5719   5.5985   5.6336
     5.6800   5.7835   5.8188   5.9090   6.0887   6.1181   6.3802   6.4941
     6.5480   6.7621   6.8315   6.8644   6.9564   7.1275   7.3946   7.4693
     7.5492   7.5945   7.6108   7.6950   7.7061   7.7569   7.7868   7.8969
     7.9208   8.0687   8.1023   8.1620   8.2060   8.2277   8.3274   8.3683
     8.5672   8.6603   8.6753   8.8951   8.9705   9.0616   9.0983   9.1478
     9.5062   9.5737   9.6209   9.7110   9.7162   9.7990   9.8337   9.8516
     9.8985   9.9943  10.0252  10.0364  10.0536  10.0996  10.1960  10.2308
    10.3864  10.4582  10.4929  10.6985  11.4273  12.5506  12.7210  12.7547
    12.8866  12.9396  13.3022  13.5030  13.6729  13.7323  13.8136  13.9073
    14.0447  14.2219  14.3858  14.5567  14.5708  14.5838  14.6078  14.6822
    14.7192  14.7890  14.8192  14.8554  14.8689  14.9422  15.0884  15.1245
    15.1645  15.4007  15.4175  15.5522  15.5634  15.7125  15.8905  16.0208
    16.1293  16.1743  16.2047  16.2868  16.3269  16.4877  16.5750  16.5927
    16.8828  16.9668  16.9824

          k = 0.0000 0.3333 0.1065 ( 29197 PWs)   bands (ev):

   -35.4039 -35.4037 -35.4036 -35.4036 -35.4025 -35.4024 -35.4024 -35.4023
   -35.3911 -35.3911 -35.3911 -35.3910 -35.3910 -35.3909 -35.3909 -35.3908
   -35.3861 -35.3860 -35.3859 -35.3858 -35.3579 -35.3578 -35.3577 -35.3576
   -35.3560 -35.3560 -35.3560 -35.3559 -35.3509 -35.3509 -35.3508 -35.3507
   -35.3492 -35.3492 -35.3491 -35.3490 -35.3469 -35.3468 -35.3468 -35.3466
   -11.9987 -11.9872 -11.9849 -11.9773 -11.9622 -11.9571 -11.9542 -11.9517
   -11.9472 -11.9263 -11.9242 -11.8655 -11.8498 -11.8145 -11.8084 -11.7984
   -11.7982 -11.7936 -11.7924 -11.7897 -11.7893 -11.7873 -11.7810 -11.7800
   -11.7792 -11.7739 -11.7713 -11.7685 -11.7675 -11.7669 -11.7634 -11.7633
   -11.7570 -11.7558 -11.7539 -11.7514 -11.7509 -11.7475 -11.7469 -11.7460
   -11.7427 -11.7413 -11.7403 -11.7359 -11.7329 -11.7312 -11.7287 -11.7267
   -11.7266 -11.7250 -11.7236 -11.7230 -11.7203 -11.7197 -11.7183 -11.7159
   -11.7141 -11.7134 -11.7111 -11.7106 -11.7088 -11.7059 -11.7055 -11.7040
   -11.6968 -11.6966 -11.6944 -11.6931 -11.6907 -11.6877 -11.6858 -11.6851
   -11.6845 -11.6766 -11.6749 -11.6730 -11.6662 -11.6654 -11.6626 -11.6602
    -8.3932  -8.2391  -7.8553  -7.6788  -7.0697  -7.0568  -7.0562  -6.9236
    -6.8901  -6.8751  -6.8720  -6.5641  -6.4841  -6.1682  -6.0680  -1.8861
    -1.4382  -1.2774  -0.9788  -0.5269  -0.5244  -0.3184  -0.3097  -0.0497
     0.0459   0.1420   0.2367   0.2941   0.3981   0.4879   0.4892   0.6566
     0.7854   0.9420   1.0950   1.4134   1.7271   2.3135   2.6401   5.1700
     5.2183   5.2977   5.3779   5.4062   5.4353   5.5754   5.6239   5.6715
     5.7063   5.7648   5.8364   5.9540   6.0880   6.0889   6.4074   6.5461
     6.5720   6.7827   6.7891   6.8656   6.9567   7.1106   7.3777   7.4866
     7.5316   7.5951   7.6083   7.6586   7.6714   7.7348   7.7810   7.9107
     7.9154   8.1000   8.1452   8.1929   8.2139   8.2204   8.3515   8.3626
     8.5551   8.6296   8.6545   8.8488   8.9586   9.0049   9.0642   9.0759
     9.4448   9.6268   9.6595   9.7450   9.7656   9.8118   9.8740   9.8858
     9.9094  10.0065  10.0113  10.0600  10.0688  10.0934  10.1961  10.2766
    10.3600  10.4537  10.5061  10.6844  11.4291  12.5563  12.7292  12.7362
    12.9374  12.9461  13.2959  13.5110  13.6756  13.7040  13.7908  13.9201
    13.9827  14.2433  14.2887  14.3116  14.3366  14.5209  14.5997  14.6720
    14.6910  14.7929  14.8341  14.9242  15.0040  15.0900  15.1303  15.1615
    15.3514  15.4689  15.4769  15.5507  15.5848  15.7243  15.8947  16.0024
    16.1576  16.1664  16.2005  16.2791  16.3297  16.4375  16.5605  16.5786
    16.8306  16.9476  16.9911

          k = 0.0000 0.3333 0.2129 ( 29173 PWs)   bands (ev):

   -35.4038 -35.4037 -35.4037 -35.4036 -35.4024 -35.4024 -35.4023 -35.4023
   -35.3911 -35.3910 -35.3910 -35.3910 -35.3909 -35.3909 -35.3909 -35.3908
   -35.3860 -35.3859 -35.3859 -35.3858 -35.3578 -35.3577 -35.3577 -35.3576
   -35.3560 -35.3560 -35.3560 -35.3559 -35.3509 -35.3508 -35.3508 -35.3507
   -35.3492 -35.3491 -35.3491 -35.3490 -35.3468 -35.3467 -35.3467 -35.3466
   -11.9986 -11.9858 -11.9842 -11.9771 -11.9622 -11.9590 -11.9535 -11.9516
   -11.9480 -11.9270 -11.9252 -11.8639 -11.8519 -11.8124 -11.8061 -11.7997
   -11.7973 -11.7931 -11.7922 -11.7908 -11.7889 -11.7869 -11.7810 -11.7804
   -11.7795 -11.7742 -11.7711 -11.7706 -11.7696 -11.7678 -11.7639 -11.7638
   -11.7600 -11.7548 -11.7542 -11.7524 -11.7518 -11.7481 -11.7471 -11.7458
   -11.7416 -11.7404 -11.7388 -11.7354 -11.7320 -11.7294 -11.7274 -11.7256
   -11.7247 -11.7241 -11.7236 -11.7223 -11.7195 -11.7189 -11.7172 -11.7156
   -11.7137 -11.7135 -11.7116 -11.7112 -11.7088 -11.7056 -11.7054 -11.7029
   -11.6974 -11.6973 -11.6943 -11.6942 -11.6911 -11.6885 -11.6864 -11.6854
   -11.6849 -11.6767 -11.6755 -11.6734 -11.6666 -11.6656 -11.6627 -11.6604
    -8.3929  -8.2395  -7.8551  -7.6791  -7.0677  -7.0588  -7.0561  -6.9236
    -6.8891  -6.8761  -6.8722  -6.5641  -6.4841  -6.1682  -6.0680  -1.8100
    -1.5547  -1.2233  -1.0501  -0.5271  -0.5233  -0.3163  -0.3088  -0.0577
     0.0428   0.1567   0.2931   0.3800   0.4301   0.4913   0.5017   0.6538
     0.7699   0.9380   0.9423   1.4715   1.6749   2.3742   2.6022   5.1412
     5.1952   5.2672   5.3104   5.4140   5.4629   5.5800   5.6161   5.6712
     5.7318   5.7536   5.9213   6.0117   6.0881   6.0893   6.4394   6.6424
     6.6487   6.7031   6.7676   6.8756   6.9786   7.1001   7.3329   7.4778
     7.5207   7.5484   7.5966   7.6094   7.6505   7.7195   7.7683   7.9054
     7.9319   8.1445   8.2017   8.2029   8.2394   8.2562   8.3507   8.3958
     8.5399   8.5752   8.6121   8.7082   8.8948   8.9360   9.0206   9.0428
     9.3844   9.5894   9.6945   9.8362   9.8474   9.8800   9.9080   9.9401
     9.9403  10.0142  10.0257  10.0475  10.1197  10.1458  10.2264  10.2908
    10.3270  10.4381  10.5423  10.6465  11.4356  12.5672  12.7266  12.7293
    12.9809  13.0884  13.2896  13.5223  13.5865  13.6501  13.7328  13.8553
    13.9321  13.9932  14.0244  14.2625  14.2645  14.4872  14.5556  14.6762
    14.7022  14.7978  14.8336  14.9830  15.0166  15.1623  15.1831  15.3285
    15.4608  15.5393  15.5885  15.7044  15.7256  15.9103  15.9128  15.9519
    16.0626  16.1445  16.2533  16.2763  16.3229  16.3698  16.5188  16.5565
    16.7089  16.8383  17.0107

          k = 0.0000 0.3333-0.3194 ( 29180 PWs)   bands (ev):

   -35.4038 -35.4037 -35.4037 -35.4036 -35.4025 -35.4024 -35.4024 -35.4023
   -35.3912 -35.3910 -35.3910 -35.3910 -35.3909 -35.3909 -35.3908 -35.3908
   -35.3860 -35.3859 -35.3859 -35.3858 -35.3578 -35.3578 -35.3577 -35.3577
   -35.3561 -35.3560 -35.3560 -35.3559 -35.3509 -35.3508 -35.3508 -35.3507
   -35.3492 -35.3491 -35.3491 -35.3491 -35.3468 -35.3467 -35.3467 -35.3466
   -11.9986 -11.9850 -11.9838 -11.9770 -11.9622 -11.9599 -11.9531 -11.9515
   -11.9484 -11.9274 -11.9257 -11.8629 -11.8532 -11.8110 -11.8050 -11.8005
   -11.7968 -11.7928 -11.7921 -11.7917 -11.7886 -11.7867 -11.7821 -11.7802
   -11.7792 -11.7738 -11.7717 -11.7709 -11.7707 -11.7680 -11.7642 -11.7630
   -11.7626 -11.7553 -11.7533 -11.7530 -11.7523 -11.7483 -11.7475 -11.7455
   -11.7416 -11.7405 -11.7373 -11.7352 -11.7315 -11.7288 -11.7265 -11.7246
   -11.7244 -11.7238 -11.7233 -11.7218 -11.7190 -11.7185 -11.7166 -11.7154
   -11.7139 -11.7134 -11.7122 -11.7116 -11.7087 -11.7055 -11.7054 -11.7020
   -11.6978 -11.6975 -11.6950 -11.6943 -11.6913 -11.6889 -11.6868 -11.6855
   -11.6851 -11.6768 -11.6758 -11.6735 -11.6668 -11.6657 -11.6627 -11.6605
    -8.3927  -8.2397  -7.8549  -7.6793  -7.0663  -7.0602  -7.0561  -6.9236
    -6.8885  -6.8767  -6.8722  -6.5640  -6.4841  -6.1682  -6.0680  -1.7131
    -1.6703  -1.1603  -1.1214  -0.5272  -0.5228  -0.3151  -0.3083  -0.0613
     0.0413   0.1599   0.2925   0.4021   0.4924   0.5072   0.5879   0.6380
     0.6994   0.8493   0.9424   1.5210   1.6272   2.4125   2.5745   5.1274
     5.1838   5.2477   5.2855   5.4285   5.5032   5.5754   5.5822   5.6705
     5.7181   5.7598   5.9824   6.0029   6.0894   6.1406   6.4474   6.6302
     6.6917   6.7139   6.7491   6.8740   6.9945   7.1178   7.3033   7.4422
     7.4914   7.5387   7.5972   7.6112   7.6476   7.7124   7.7608   7.9003
     7.9392   8.1618   8.1986   8.2052   8.2569   8.2907   8.3432   8.4391
     8.5590   8.5625   8.5732   8.5959   8.8449   8.9290   9.0086   9.0416
     9.3605   9.5711   9.6988   9.8446   9.8964   9.9071   9.9441   9.9579
     9.9701   9.9774  10.0300  10.0689  10.1949  10.2056  10.2096  10.2122
    10.3566  10.4209  10.5847  10.6034  11.4405  12.5715  12.7217  12.7315
    13.0412  13.2248  13.3030  13.4444  13.4563  13.6241  13.7670  13.8172
    13.8351  13.8742  13.9500  14.2116  14.2981  14.4756  14.6162  14.7455
    14.7480  14.7720  14.7816  14.8582  14.9963  15.2135  15.2293  15.3917
    15.4987  15.6241  15.6706  15.7356  15.7963  15.9124  15.9515  15.9621
    16.1218  16.1373  16.1976  16.2455  16.3692  16.4046  16.4701  16.5473
    16.6293  16.7128  17.0032

          k = 0.0000-0.5000 0.0000 ( 29172 PWs)   bands (ev):

   -35.4039 -35.4038 -35.4037 -35.4037 -35.4025 -35.4024 -35.4024 -35.4023
   -35.3911 -35.3911 -35.3910 -35.3910 -35.3910 -35.3908 -35.3908 -35.3908
   -35.3860 -35.3860 -35.3858 -35.3857 -35.3579 -35.3578 -35.3578 -35.3577
   -35.3561 -35.3560 -35.3559 -35.3559 -35.3509 -35.3509 -35.3508 -35.3507
   -35.3492 -35.3492 -35.3490 -35.3490 -35.3468 -35.3468 -35.3467 -35.3464
   -11.9896 -11.9892 -11.9729 -11.9711 -11.9692 -11.9657 -11.9589 -11.9456
   -11.9423 -11.9373 -11.9295 -11.8381 -11.8210 -11.8192 -11.8146 -11.8113
   -11.7972 -11.7914 -11.7911 -11.7892 -11.7867 -11.7852 -11.7816 -11.7805
   -11.7794 -11.7777 -11.7770 -11.7627 -11.7618 -11.7603 -11.7600 -11.7599
   -11.7594 -11.7574 -11.7568 -11.7566 -11.7552 -11.7542 -11.7526 -11.7431
   -11.7421 -11.7375 -11.7373 -11.7352 -11.7327 -11.7316 -11.7294 -11.7263
   -11.7256 -11.7254 -11.7248 -11.7244 -11.7236 -11.7219 -11.7202 -11.7193
   -11.7167 -11.7150 -11.7143 -11.7116 -11.7097 -11.7074 -11.7058 -11.7042
   -11.7005 -11.6998 -11.6956 -11.6905 -11.6897 -11.6889 -11.6883 -11.6838
   -11.6831 -11.6823 -11.6767 -11.6742 -11.6674 -11.6647 -11.6636 -11.6606
    -8.1631  -8.1568  -8.1320  -7.8377  -6.9915  -6.9748  -6.9707  -6.9696
    -6.9637  -6.9626  -6.9179  -6.4596  -6.2413  -6.2371  -6.2195  -1.6558
    -1.6446  -1.2263  -1.1577  -0.4295  -0.4227  -0.4137  -0.4109  -0.0422
     0.1432   0.1743   0.2242   0.2513   0.3033   0.5159   0.6245   0.7100
     0.8054   0.8919   0.9297   1.7466   2.1098   2.1311   2.2316   5.1930
     5.1974   5.2381   5.2454   5.2859   5.4191   5.5980   5.6007   5.6449
     5.6476   5.7691   5.8015   5.8513   5.9079   6.1187   6.3730   6.6547
     6.6920   6.7053   6.7959   7.1813   7.2229   7.2695   7.3766   7.4365
     7.4390   7.5894   7.6701   7.8041   7.8207   7.9213   7.9340   7.9765
     7.9817   8.0152   8.1299   8.1917   8.2172   8.2297   8.3341   8.3396
     8.3942   8.4480   8.6801   9.0474   9.1865   9.2833   9.3027   9.3146
     9.3523   9.3746   9.3850   9.4004   9.5836   9.5923   9.6526   9.6766
     9.7628   9.8405   9.9767   9.9983  10.1135  10.1555  10.2217  10.2299
    10.2482  10.3309  10.5117  10.5501  11.6333  12.6671  12.7055  13.0655
    13.4462  13.4820  13.6245  13.6412  13.6553  13.6793  13.7121  13.7126
    13.8185  14.1295  14.2224  14.3265  14.3441  14.3548  14.4033  14.4575
    14.5556  14.8899  14.9414  15.0118  15.0320  15.0559  15.0976  15.1349
    15.1399  15.1742  15.4212  15.4316  15.4589  15.8465  15.9527  16.0408
    16.0952  16.1749  16.3436  16.3483  16.4030  16.6545  16.6708  16.6775
    16.7117  16.7626  16.7950

          k = 0.0000-0.5000 0.1065 ( 29170 PWs)   bands (ev):

   -35.4039 -35.4037 -35.4037 -35.4036 -35.4024 -35.4024 -35.4024 -35.4023
   -35.3910 -35.3910 -35.3910 -35.3909 -35.3909 -35.3909 -35.3909 -35.3908
   -35.3861 -35.3860 -35.3859 -35.3858 -35.3579 -35.3578 -35.3577 -35.3577
   -35.3560 -35.3560 -35.3559 -35.3559 -35.3509 -35.3508 -35.3507 -35.3507
   -35.3492 -35.3491 -35.3490 -35.3490 -35.3469 -35.3468 -35.3467 -35.3466
   -11.9896 -11.9892 -11.9723 -11.9707 -11.9687 -11.9655 -11.9591 -11.9459
   -11.9431 -11.9380 -11.9301 -11.8380 -11.8210 -11.8202 -11.8140 -11.8097
   -11.7969 -11.7911 -11.7910 -11.7901 -11.7870 -11.7852 -11.7813 -11.7802
   -11.7802 -11.7773 -11.7765 -11.7651 -11.7645 -11.7632 -11.7600 -11.7599
   -11.7599 -11.7577 -11.7562 -11.7556 -11.7535 -11.7520 -11.7516 -11.7438
   -11.7425 -11.7375 -11.7375 -11.7355 -11.7324 -11.7314 -11.7289 -11.7254
   -11.7254 -11.7253 -11.7242 -11.7235 -11.7233 -11.7222 -11.7193 -11.7183
   -11.7171 -11.7147 -11.7142 -11.7119 -11.7095 -11.7072 -11.7051 -11.7047
   -11.7002 -11.7000 -11.6958 -11.6906 -11.6900 -11.6891 -11.6888 -11.6839
   -11.6834 -11.6826 -11.6768 -11.6743 -11.6677 -11.6648 -11.6636 -11.6606
    -8.1621  -8.1567  -8.1330  -7.8378  -6.9911  -6.9740  -6.9712  -6.9696
    -6.9635  -6.9635  -6.9181  -6.4596  -6.2413  -6.2371  -6.2195  -1.6302
    -1.6229  -1.2610  -1.2040  -0.4301  -0.4226  -0.4136  -0.4109  -0.0427
     0.1435   0.1836   0.2245   0.2970   0.3410   0.5204   0.6243   0.7052
     0.8051   0.8653   0.9016   1.7469   2.1111   2.1300   2.2242   5.1550
     5.1743   5.2081   5.2129   5.3033   5.4278   5.6312   5.6508   5.6511
     5.6749   5.7740   5.8020   5.8463   5.9351   6.1100   6.3722   6.6659
     6.7038   6.7178   6.8024   7.2042   7.2310   7.2687   7.3780   7.4351
     7.4392   7.5810   7.6374   7.7524   7.7704   7.9245   7.9348   7.9484
     7.9790   8.0237   8.1267   8.1958   8.2212   8.2356   8.3388   8.3660
     8.4059   8.4630   8.6535   8.9553   9.1384   9.2475   9.2623   9.2734
     9.3008   9.3411   9.3652   9.3713   9.6441   9.6863   9.7468   9.7775
     9.8182   9.8803   9.9947  10.0113  10.1351  10.1591  10.2345  10.2398
    10.2667  10.3304  10.4920  10.5279  11.6048  12.6777  12.6957  13.0658
    13.4533  13.4770  13.5846  13.5952  13.6281  13.6648  13.6782  13.7063
    13.7980  14.0943  14.1142  14.1851  14.1904  14.4644  14.5941  14.5972
    14.6117  14.8137  14.8255  14.8919  14.9524  15.0650  15.1179  15.2689
    15.2959  15.3569  15.3900  15.4206  15.5197  15.8665  15.9644  16.0440
    16.1186  16.1562  16.3461  16.3550  16.3991  16.6417  16.6497  16.6566
    16.7004  16.7302  16.7668

          k = 0.0000-0.5000 0.2129 ( 29198 PWs)   bands (ev):

   -35.4039 -35.4038 -35.4037 -35.4037 -35.4024 -35.4024 -35.4024 -35.4023
   -35.3912 -35.3911 -35.3911 -35.3910 -35.3909 -35.3909 -35.3909 -35.3909
   -35.3861 -35.3859 -35.3859 -35.3859 -35.3579 -35.3578 -35.3578 -35.3577
   -35.3560 -35.3560 -35.3560 -35.3559 -35.3510 -35.3509 -35.3508 -35.3508
   -35.3492 -35.3492 -35.3491 -35.3491 -35.3469 -35.3468 -35.3467 -35.3467
   -11.9895 -11.9891 -11.9711 -11.9698 -11.9677 -11.9651 -11.9594 -11.9465
   -11.9447 -11.9394 -11.9311 -11.8379 -11.8219 -11.8210 -11.8125 -11.8068
   -11.7961 -11.7920 -11.7906 -11.7905 -11.7879 -11.7853 -11.7812 -11.7805
   -11.7796 -11.7768 -11.7760 -11.7682 -11.7673 -11.7672 -11.7602 -11.7601
   -11.7601 -11.7593 -11.7562 -11.7535 -11.7514 -11.7513 -11.7488 -11.7451
   -11.7432 -11.7381 -11.7376 -11.7360 -11.7322 -11.7312 -11.7279 -11.7255
   -11.7247 -11.7234 -11.7232 -11.7228 -11.7223 -11.7210 -11.7181 -11.7179
   -11.7164 -11.7143 -11.7142 -11.7126 -11.7093 -11.7070 -11.7061 -11.7038
   -11.7005 -11.6994 -11.6964 -11.6909 -11.6907 -11.6899 -11.6894 -11.6843
   -11.6839 -11.6833 -11.6770 -11.6745 -11.6683 -11.6651 -11.6637 -11.6608
    -8.1598  -8.1566  -8.1354  -7.8380  -6.9901  -6.9721  -6.9718  -6.9696
    -6.9657  -6.9631  -6.9185  -6.4596  -6.2413  -6.2370  -6.2196  -1.5624
    -1.5565  -1.3461  -1.3158  -0.4314  -0.4225  -0.4135  -0.4107  -0.0433
     0.1439   0.1900   0.2249   0.4177   0.4241   0.5426   0.6238   0.6768
     0.8041   0.8046   0.8289   1.7477   2.1142   2.1278   2.2089   5.0965
     5.1288   5.1515   5.1686   5.3656   5.4560   5.5664   5.7046   5.7344
     5.7390   5.7872   5.8028   5.8336   6.0008   6.1017   6.3708   6.6922
     6.7308   6.7465   6.8178   7.2256   7.2606   7.2873   7.3684   7.4342
     7.4388   7.5551   7.5744   7.6505   7.6718   7.9016   7.9323   7.9363
     7.9724   8.0266   8.1185   8.2035   8.2038   8.2885   8.3453   8.4299
     8.4422   8.4877   8.6059   8.7561   9.0501   9.1445   9.1783   9.1867
     9.2466   9.3738   9.3820   9.3916   9.7041   9.8133   9.8532   9.9187
     9.9189   9.9474  10.0261  10.0313  10.1703  10.1999  10.2448  10.2895
    10.3183  10.3237  10.4398  10.4689  11.5484  12.6738  12.7016  13.0662
    13.4682  13.4748  13.5171  13.5233  13.5713  13.6117  13.6158  13.6493
    13.7758  13.9870  14.0461  14.0756  14.0810  14.4389  14.6974  14.7068
    14.7676  14.8151  14.8324  14.8944  14.9109  14.9710  15.2054  15.2801
    15.3307  15.3391  15.4762  15.6034  15.6990  15.9288  15.9980  16.0494
    16.1088  16.1696  16.3466  16.3879  16.3994  16.5573  16.6018  16.6408
    16.6715  16.6744  16.6954

          k = 0.0000-0.5000-0.3194 ( 29176 PWs)   bands (ev):

   -35.4039 -35.4037 -35.4037 -35.4037 -35.4024 -35.4024 -35.4023 -35.4023
   -35.3911 -35.3911 -35.3910 -35.3910 -35.3909 -35.3909 -35.3908 -35.3908
   -35.3860 -35.3859 -35.3859 -35.3858 -35.3580 -35.3578 -35.3577 -35.3577
   -35.3560 -35.3560 -35.3559 -35.3559 -35.3509 -35.3509 -35.3508 -35.3507
   -35.3492 -35.3491 -35.3491 -35.3490 -35.3468 -35.3467 -35.3467 -35.3466
   -11.9894 -11.9891 -11.9704 -11.9694 -11.9672 -11.9648 -11.9596 -11.9468
   -11.9455 -11.9401 -11.9316 -11.8378 -11.8226 -11.8209 -11.8116 -11.8052
   -11.7956 -11.7930 -11.7903 -11.7903 -11.7887 -11.7853 -11.7815 -11.7800
   -11.7793 -11.7766 -11.7758 -11.7695 -11.7687 -11.7680 -11.7605 -11.7603
   -11.7602 -11.7598 -11.7563 -11.7526 -11.7510 -11.7506 -11.7479 -11.7457
   -11.7436 -11.7384 -11.7375 -11.7362 -11.7321 -11.7310 -11.7273 -11.7255
   -11.7245 -11.7229 -11.7225 -11.7220 -11.7220 -11.7194 -11.7185 -11.7174
   -11.7154 -11.7147 -11.7138 -11.7128 -11.7092 -11.7069 -11.7068 -11.7031
   -11.7006 -11.6991 -11.6968 -11.6912 -11.6911 -11.6904 -11.6896 -11.6844
   -11.6842 -11.6837 -11.6770 -11.6747 -11.6686 -11.6651 -11.6637 -11.6609
    -8.1584  -8.1565  -8.1368  -7.8381  -6.9896  -6.9727  -6.9696  -6.9692
    -6.9683  -6.9629  -6.9187  -6.4596  -6.2413  -6.2370  -6.2196  -1.5000
    -1.4472  -1.4428  -1.4202  -0.4320  -0.4224  -0.4134  -0.4106  -0.0434
     0.1442   0.1914   0.2251   0.4507   0.5555   0.5778   0.5938   0.6236
     0.7730   0.7749   0.8043   1.7481   2.1163   2.1267   2.2008   5.0723
     5.1080   5.1283   5.1490   5.4420   5.4748   5.4855   5.7075   5.7715
     5.7768   5.7978   5.8031   5.8250   6.0361   6.1027   6.3702   6.7079
     6.7467   6.7634   6.8272   7.2181   7.2994   7.3099   7.3416   7.4369
     7.4386   7.5352   7.5415   7.5989   7.6221   7.8837   7.9371   7.9375
     7.9678   8.0237   8.1137   8.1949   8.2075   8.3213   8.3474   8.4634
     8.4980   8.5338   8.5817   8.5886   9.0119   9.0930   9.1470   9.1532
     9.2280   9.3837   9.4030   9.4075   9.7255   9.8652   9.8772   9.9630
     9.9773   9.9893  10.0375  10.0390  10.1782  10.2462  10.2509  10.3108
    10.3409  10.3875  10.3875  10.3960  11.5204  12.6617  12.7153  13.0663
    13.4761  13.4770  13.4874  13.4973  13.5384  13.5776  13.5876  13.6108
    13.7616  13.9549  14.0190  14.0202  14.0493  14.4079  14.6763  14.7978
    14.8215  14.8229  14.8476  14.8527  14.9823  15.1029  15.1427  15.1511
    15.3432  15.3479  15.5203  15.7123  15.7916  15.9746  16.0402  16.0506
    16.0599  16.1958  16.3602  16.4093  16.4208  16.4987  16.5423  16.6374
    16.6461  16.6501  16.6590

          k = 0.1667 0.1667 0.0000 ( 29209 PWs)   bands (ev):

   -35.4038 -35.4038 -35.4037 -35.4036 -35.4025 -35.4024 -35.4024 -35.4023
   -35.3911 -35.3911 -35.3910 -35.3910 -35.3910 -35.3909 -35.3909 -35.3909
   -35.3861 -35.3860 -35.3859 -35.3858 -35.3578 -35.3578 -35.3577 -35.3577
   -35.3561 -35.3560 -35.3560 -35.3559 -35.3509 -35.3509 -35.3508 -35.3508
   -35.3492 -35.3492 -35.3491 -35.3491 -35.3469 -35.3468 -35.3467 -35.3466
   -12.0032 -11.9997 -11.9885 -11.9663 -11.9652 -11.9641 -11.9620 -11.9458
   -11.9287 -11.9135 -11.9106 -11.9002 -11.8715 -11.8155 -11.8039 -11.8033
   -11.7996 -11.7948 -11.7941 -11.7937 -11.7896 -11.7841 -11.7838 -11.7813
   -11.7797 -11.7782 -11.7723 -11.7712 -11.7642 -11.7640 -11.7603 -11.7600
   -11.7563 -11.7557 -11.7529 -11.7515 -11.7484 -11.7475 -11.7469 -11.7454
   -11.7423 -11.7397 -11.7365 -11.7361 -11.7326 -11.7317 -11.7301 -11.7282
   -11.7271 -11.7264 -11.7259 -11.7197 -11.7178 -11.7177 -11.7171 -11.7155
   -11.7143 -11.7122 -11.7115 -11.7113 -11.7075 -11.7052 -11.7048 -11.6969
   -11.6959 -11.6948 -11.6910 -11.6895 -11.6873 -11.6873 -11.6860 -11.6858
   -11.6850 -11.6769 -11.6717 -11.6687 -11.6674 -11.6631 -11.6618 -11.6608
    -8.4924  -8.3126  -7.4785  -7.4776  -7.4442  -7.2720  -6.9324  -6.8837
    -6.7824  -6.7807  -6.7573  -6.7281  -6.7208  -6.1263  -5.9988  -2.0198
    -1.4705  -0.8686  -0.8589  -0.7087  -0.6715  -0.3264  -0.2685  -0.1278
     0.0917   0.0935   0.2183   0.2512   0.3666   0.4569   0.5767   0.7405
     0.7830   0.8099   1.2590   1.2754   1.4935   2.3246   2.9172   5.1596
     5.3083   5.3983   5.4579   5.5037   5.5293   5.5645   5.6314   5.6512
     5.7504   5.8445   5.9691   6.1328   6.1693   6.1745   6.2311   6.4272
     6.7041   6.7114   6.7589   6.7622   6.9273   6.9497   7.0580   7.1572
     7.3259   7.3906   7.4068   7.4345   7.5306   7.7207   7.7760   7.7811
     7.8853   8.1254   8.1377   8.1673   8.2239   8.3262   8.4544   8.5891
     8.5954   8.7463   8.8956   8.9443   8.9530   9.0288   9.1082   9.1767
     9.4390   9.5398   9.6158   9.7011   9.7833   9.8066   9.8455   9.9372
    10.0038  10.0474  10.0990  10.1111  10.2423  10.2816  10.3173  10.3827
    10.5949  10.6022  10.7337  10.7666  11.1703  12.1518  12.3395  12.5424
    12.6663  12.9080  13.3539  13.4006  13.5078  13.5234  13.7823  14.0915
    14.0997  14.2065  14.2985  14.3697  14.4887  14.6237  14.6671  14.7323
    14.8163  14.9345  15.0009  15.0092  15.1257  15.1523  15.2096  15.2757
    15.3015  15.4362  15.5086  15.5430  15.6109  15.6275  15.7810  15.9053
    15.9089  15.9635  16.1204  16.3080  16.4033  16.4706  16.4845  16.6518
    16.8809  17.0848  17.1247

          k = 0.1667 0.1667 0.1065 ( 29209 PWs)   bands (ev):

   -35.4038 -35.4037 -35.4037 -35.4036 -35.4025 -35.4025 -35.4024 -35.4023
   -35.3911 -35.3911 -35.3910 -35.3910 -35.3910 -35.3909 -35.3909 -35.3909
   -35.3861 -35.3860 -35.3859 -35.3858 -35.3578 -35.3578 -35.3577 -35.3577
   -35.3561 -35.3560 -35.3560 -35.3559 -35.3509 -35.3508 -35.3508 -35.3508
   -35.3492 -35.3491 -35.3491 -35.3491 -35.3469 -35.3468 -35.3468 -35.3466
   -12.0031 -11.9992 -11.9880 -11.9666 -11.9654 -11.9639 -11.9623 -11.9466
   -11.9294 -11.9129 -11.9098 -11.9009 -11.8720 -11.8145 -11.8032 -11.8027
   -11.7993 -11.7948 -11.7944 -11.7934 -11.7895 -11.7839 -11.7837 -11.7815
   -11.7811 -11.7783 -11.7724 -11.7715 -11.7652 -11.7645 -11.7621 -11.7598
   -11.7565 -11.7562 -11.7525 -11.7518 -11.7493 -11.7487 -11.7477 -11.7455
   -11.7438 -11.7376 -11.7360 -11.7337 -11.7314 -11.7312 -11.7291 -11.7281
   -11.7264 -11.7255 -11.7244 -11.7199 -11.7178 -11.7175 -11.7168 -11.7154
   -11.7140 -11.7122 -11.7117 -11.7106 -11.7078 -11.7054 -11.7049 -11.6972
   -11.6959 -11.6950 -11.6913 -11.6897 -11.6876 -11.6874 -11.6861 -11.6860
   -11.6854 -11.6770 -11.6720 -11.6688 -11.6675 -11.6632 -11.6618 -11.6608
    -8.4922  -8.3128  -7.4779  -7.4776  -7.4448  -7.2720  -6.9322  -6.8838
    -6.7824  -6.7804  -6.7576  -6.7277  -6.7213  -6.1263  -5.9988  -1.9923
    -1.5225  -0.8573  -0.8482  -0.7186  -0.6848  -0.3231  -0.2723  -0.1195
     0.0763   0.1514   0.2071   0.2929   0.3737   0.4464   0.5513   0.6538
     0.8143   0.9295   1.1845   1.2537   1.4629   2.3820   2.8944   5.1679
     5.3115   5.3981   5.4601   5.4735   5.5298   5.5698   5.5950   5.6256
     5.7098   5.9132   6.0236   6.0790   6.1824   6.2363   6.2727   6.4524
     6.6744   6.6859   6.7508   6.7602   6.8539   6.9199   7.0282   7.2043
     7.3004   7.4239   7.4649   7.4941   7.5346   7.6875   7.7797   7.7952
     7.8741   8.1292   8.1548   8.2146   8.2518   8.3518   8.4336   8.5881
     8.5976   8.6901   8.8195   8.8834   8.9491   8.9588   9.0248   9.1756
     9.4559   9.6170   9.7012   9.7264   9.7952   9.7982   9.8340   9.9554
     9.9882  10.0339  10.1063  10.1308  10.1880  10.2749  10.3049  10.3981
    10.6055  10.6140  10.7255  10.7576  11.2131  12.2344  12.3676  12.5163
    12.7136  12.9262  13.3296  13.4248  13.4350  13.6198  13.7622  14.0421
    14.1230  14.1532  14.2510  14.2711  14.2923  14.4704  14.5678  14.7161
    14.8517  14.8718  14.9524  15.1320  15.2522  15.2595  15.3304  15.3391
    15.3839  15.4538  15.5117  15.5515  15.5996  15.6203  15.7724  15.8921
    15.9371  16.0834  16.1526  16.2950  16.3869  16.4582  16.4851  16.6091
    16.8213  17.0589  17.1462

          k = 0.1667 0.1667 0.2129 ( 29191 PWs)   bands (ev):

   -35.4038 -35.4037 -35.4037 -35.4036 -35.4025 -35.4025 -35.4024 -35.4023
   -35.3911 -35.3910 -35.3910 -35.3910 -35.3909 -35.3909 -35.3908 -35.3908
   -35.3861 -35.3859 -35.3859 -35.3858 -35.3578 -35.3578 -35.3577 -35.3577
   -35.3561 -35.3560 -35.3560 -35.3559 -35.3509 -35.3508 -35.3508 -35.3507
   -35.3492 -35.3491 -35.3491 -35.3490 -35.3469 -35.3467 -35.3467 -35.3466
   -12.0031 -11.9981 -11.9868 -11.9680 -11.9652 -11.9635 -11.9628 -11.9480
   -11.9307 -11.9115 -11.9082 -11.9025 -11.8731 -11.8120 -11.8020 -11.8011
   -11.7988 -11.7959 -11.7945 -11.7929 -11.7894 -11.7854 -11.7834 -11.7830
   -11.7806 -11.7781 -11.7727 -11.7721 -11.7666 -11.7665 -11.7634 -11.7607
   -11.7578 -11.7572 -11.7532 -11.7527 -11.7508 -11.7496 -11.7485 -11.7456
   -11.7452 -11.7358 -11.7328 -11.7307 -11.7301 -11.7290 -11.7274 -11.7271
   -11.7259 -11.7236 -11.7217 -11.7204 -11.7178 -11.7172 -11.7161 -11.7150
   -11.7134 -11.7123 -11.7113 -11.7101 -11.7082 -11.7069 -11.7045 -11.6981
   -11.6959 -11.6953 -11.6918 -11.6901 -11.6883 -11.6877 -11.6865 -11.6865
   -11.6860 -11.6771 -11.6728 -11.6690 -11.6678 -11.6634 -11.6619 -11.6610
    -8.4919  -8.3132  -7.4774  -7.4767  -7.4461  -7.2722  -6.9320  -6.8840
    -6.7823  -6.7799  -6.7581  -6.7265  -6.7225  -6.1263  -5.9988  -1.9132
    -1.6464  -0.8309  -0.8167  -0.7426  -0.7208  -0.3135  -0.2831  -0.0972
     0.0422   0.1489   0.3354   0.3763   0.3913   0.4215   0.5266   0.5703
     0.8726   0.9718   1.1018   1.2182   1.3846   2.5004   2.8342   5.1937
     5.3166   5.3650   5.4041   5.4959   5.5063   5.5754   5.5860   5.6021
     5.6839   5.9380   5.9705   6.1571   6.2558   6.3469   6.3613   6.4835
     6.5999   6.6072   6.7310   6.7459   6.7800   6.8843   6.9602   7.2287
     7.2791   7.4770   7.5127   7.5374   7.6095   7.6922   7.7855   7.8523
     7.8878   8.1236   8.1659   8.2902   8.3336   8.3979   8.4248   8.5175
     8.5850   8.5939   8.6426   8.7363   8.8453   8.9392   9.0127   9.1748
     9.4484   9.6988   9.7412   9.7784   9.7995   9.8352   9.8843   9.9461
     9.9816  10.0346  10.0807  10.1604  10.1778  10.2554  10.2856  10.3757
    10.6251  10.6454  10.7063  10.7318  11.2985  12.3344  12.4543  12.5619
    12.8267  12.9587  13.2951  13.4219  13.4956  13.5670  13.7087  13.8218
    13.9241  14.1281  14.1408  14.2273  14.2330  14.3197  14.3417  14.7093
    14.8809  14.9806  15.0189  15.0431  15.2561  15.3022  15.3598  15.4237
    15.5092  15.5151  15.5591  15.5978  15.6714  15.7246  15.8422  15.9586
    16.0388  16.1647  16.2719  16.3217  16.3479  16.4154  16.5117  16.5300
    16.6417  16.9055  17.0745

          k = 0.1667 0.1667-0.3194 ( 29224 PWs)   bands (ev):

   -35.4038 -35.4038 -35.4037 -35.4037 -35.4025 -35.4025 -35.4025 -35.4024
   -35.3911 -35.3911 -35.3910 -35.3910 -35.3910 -35.3910 -35.3909 -35.3909
   -35.3861 -35.3860 -35.3859 -35.3859 -35.3578 -35.3578 -35.3578 -35.3577
   -35.3561 -35.3561 -35.3560 -35.3560 -35.3509 -35.3509 -35.3508 -35.3508
   -35.3492 -35.3492 -35.3491 -35.3491 -35.3469 -35.3468 -35.3467 -35.3467
   -12.0031 -11.9975 -11.9861 -11.9690 -11.9650 -11.9632 -11.9630 -11.9488
   -11.9313 -11.9106 -11.9073 -11.9036 -11.8737 -11.8101 -11.8019 -11.8002
   -11.7989 -11.7963 -11.7946 -11.7926 -11.7890 -11.7873 -11.7831 -11.7830
   -11.7803 -11.7780 -11.7729 -11.7727 -11.7675 -11.7672 -11.7638 -11.7612
   -11.7583 -11.7581 -11.7541 -11.7538 -11.7501 -11.7501 -11.7489 -11.7458
   -11.7456 -11.7352 -11.7317 -11.7297 -11.7282 -11.7280 -11.7266 -11.7265
   -11.7259 -11.7227 -11.7208 -11.7204 -11.7177 -11.7173 -11.7157 -11.7148
   -11.7130 -11.7122 -11.7120 -11.7091 -11.7084 -11.7081 -11.7044 -11.6988
   -11.6958 -11.6954 -11.6920 -11.6904 -11.6887 -11.6880 -11.6868 -11.6867
   -11.6863 -11.6772 -11.6732 -11.6691 -11.6680 -11.6635 -11.6620 -11.6611
    -8.4918  -8.3134  -7.4774  -7.4760  -7.4467  -7.2723  -6.9319  -6.8841
    -6.7823  -6.7796  -6.7584  -6.7256  -6.7235  -6.1263  -5.9988  -1.8111
    -1.7691  -0.8118  -0.7726  -0.7666  -0.7609  -0.3023  -0.2949  -0.0801
     0.0169   0.1471   0.3597   0.3906   0.4014   0.4926   0.5338   0.6032
     0.7466   0.9500   1.1892   1.1996   1.3088   2.5736   2.7861   5.2217
     5.3041   5.3195   5.4128   5.4745   5.5266   5.5632   5.5841   5.6016
     5.6998   5.8945   5.9451   6.2543   6.3419   6.3640   6.4008   6.4631
     6.5368   6.5967   6.7151   6.7368   6.7523   6.8821   6.9231   7.2071
     7.2875   7.4940   7.5335   7.5382   7.6004   7.7437   7.7933   7.8630
     8.0772   8.0813   8.1286   8.2307   8.3536   8.4585   8.5016   8.5040
     8.5294   8.5561   8.5566   8.5938   8.8289   8.9339   9.0138   9.1746
     9.4478   9.7211   9.7327   9.7392   9.8736   9.8757   9.9069   9.9256
     9.9716   9.9772  10.1513  10.1651  10.1935  10.2666  10.2812  10.3127
    10.6375  10.6726  10.6995  10.7006  11.3431  12.3194  12.4822  12.7386
    12.9445  12.9531  13.2759  13.3002  13.4406  13.5651  13.6807  13.8474
    13.8603  13.9302  14.0892  14.1104  14.2595  14.2839  14.5412  14.5703
    14.8584  14.9026  15.0537  15.1148  15.2467  15.3258  15.4578  15.4621
    15.5084  15.5158  15.6158  15.6340  15.6484  15.7250  15.7991  15.9712
    16.2667  16.2918  16.3103  16.3375  16.3721  16.4639  16.4932  16.5256
    16.5616  16.5624  17.0626

          k = 0.1667 0.3333 0.0000 ( 29163 PWs)   bands (ev):

   -35.4038 -35.4037 -35.4036 -35.4036 -35.4024 -35.4024 -35.4023 -35.4023
   -35.3911 -35.3910 -35.3910 -35.3910 -35.3909 -35.3909 -35.3908 -35.3908
   -35.3861 -35.3860 -35.3859 -35.3857 -35.3578 -35.3577 -35.3577 -35.3576
   -35.3560 -35.3560 -35.3559 -35.3559 -35.3509 -35.3508 -35.3508 -35.3507
   -35.3492 -35.3491 -35.3491 -35.3490 -35.3469 -35.3468 -35.3467 -35.3465
   -11.9971 -11.9931 -11.9789 -11.9730 -11.9690 -11.9608 -11.9570 -11.9412
   -11.9375 -11.9266 -11.9048 -11.8721 -11.8509 -11.8139 -11.8074 -11.7988
   -11.7973 -11.7957 -11.7900 -11.7886 -11.7881 -11.7861 -11.7823 -11.7809
   -11.7774 -11.7762 -11.7740 -11.7707 -11.7652 -11.7645 -11.7634 -11.7627
   -11.7600 -11.7532 -11.7531 -11.7521 -11.7491 -11.7486 -11.7471 -11.7447
   -11.7415 -11.7402 -11.7386 -11.7366 -11.7345 -11.7327 -11.7316 -11.7304
   -11.7285 -11.7264 -11.7241 -11.7231 -11.7218 -11.7198 -11.7189 -11.7169
   -11.7156 -11.7130 -11.7116 -11.7113 -11.7088 -11.7070 -11.7050 -11.7037
   -11.6978 -11.6958 -11.6948 -11.6937 -11.6925 -11.6884 -11.6878 -11.6861
   -11.6853 -11.6782 -11.6747 -11.6732 -11.6685 -11.6664 -11.6633 -11.6624
    -8.3455  -8.1973  -7.8171  -7.6646  -7.3872  -7.2699  -7.0908  -6.9685
    -6.7501  -6.7094  -6.6979  -6.5369  -6.4838  -6.1809  -6.0903  -1.8619
    -1.3497  -1.2561  -0.9210  -0.7640  -0.6192  -0.4355  -0.4142  -0.0383
     0.1233   0.1739   0.2814   0.3562   0.4347   0.4816   0.6160   0.6901
     0.7777   1.0785   1.1335   1.4016   1.7135   2.2448   2.5585   5.0873
     5.1923   5.2342   5.2691   5.3518   5.4154   5.4946   5.5083   5.6497
     5.7513   5.7998   6.0230   6.1259   6.2232   6.2531   6.3833   6.4355
     6.6504   6.7593   6.8273   6.8935   6.9971   7.1134   7.2586   7.3301
     7.4221   7.4550   7.4994   7.5376   7.6400   7.7122   7.7644   7.8785
     7.9206   8.0525   8.1198   8.2183   8.3082   8.4123   8.4363   8.5716
     8.7171   8.7298   8.8357   8.8740   9.0237   9.0571   9.1301   9.2470
     9.3116   9.4690   9.5881   9.6244   9.6508   9.6988   9.8044   9.8631
     9.8886   9.9304  10.0035  10.0236  10.0653  10.1004  10.1148  10.1707
    10.3840  10.5044  10.6476  10.7124  11.4383  12.4239  12.7564  12.8488
    12.9909  13.2169  13.2362  13.3574  13.5668  13.6720  13.8745  14.0204
    14.0911  14.2031  14.2413  14.3252  14.4651  14.5312  14.6041  14.6310
    14.6703  14.6899  14.7674  14.8699  14.9430  15.0397  15.0710  15.2360
    15.3456  15.4001  15.5329  15.6655  15.7614  15.8288  15.8731  15.9641
    16.0025  16.0318  16.1107  16.2309  16.2770  16.4767  16.6241  16.7399
    16.7929  16.8681  16.9964

          k = 0.1667 0.3333 0.1065 ( 29165 PWs)   bands (ev):

   -35.4038 -35.4037 -35.4037 -35.4036 -35.4024 -35.4024 -35.4023 -35.4023
   -35.3911 -35.3910 -35.3910 -35.3910 -35.3909 -35.3909 -35.3908 -35.3908
   -35.3861 -35.3860 -35.3859 -35.3858 -35.3578 -35.3577 -35.3577 -35.3576
   -35.3560 -35.3560 -35.3559 -35.3559 -35.3509 -35.3508 -35.3508 -35.3507
   -35.3492 -35.3491 -35.3491 -35.3490 -35.3469 -35.3467 -35.3467 -35.3466
   -11.9971 -11.9927 -11.9788 -11.9725 -11.9686 -11.9610 -11.9577 -11.9417
   -11.9382 -11.9257 -11.9055 -11.8715 -11.8518 -11.8131 -11.8064 -11.7984
   -11.7974 -11.7956 -11.7901 -11.7887 -11.7883 -11.7860 -11.7822 -11.7804
   -11.7777 -11.7767 -11.7742 -11.7721 -11.7661 -11.7651 -11.7635 -11.7626
   -11.7593 -11.7548 -11.7533 -11.7526 -11.7504 -11.7489 -11.7471 -11.7431
   -11.7418 -11.7405 -11.7380 -11.7359 -11.7338 -11.7320 -11.7305 -11.7296
   -11.7280 -11.7260 -11.7239 -11.7228 -11.7213 -11.7196 -11.7186 -11.7169
   -11.7154 -11.7132 -11.7116 -11.7109 -11.7092 -11.7068 -11.7048 -11.7038
   -11.6979 -11.6959 -11.6949 -11.6939 -11.6929 -11.6885 -11.6881 -11.6865
   -11.6855 -11.6783 -11.6750 -11.6734 -11.6687 -11.6666 -11.6634 -11.6625
    -8.3454  -8.1975  -7.8170  -7.6648  -7.3871  -7.2700  -7.0907  -6.9685
    -6.7500  -6.7093  -6.6981  -6.5369  -6.4838  -6.1809  -6.0903  -1.8359
    -1.3972  -1.2369  -0.9483  -0.7545  -0.6291  -0.4349  -0.4146  -0.0288
     0.1359   0.2156   0.2621   0.3549   0.4480   0.4921   0.5825   0.7249
     0.7974   1.0252   1.1220   1.4172   1.6937   2.2657   2.5453   5.0830
     5.2012   5.2320   5.2556   5.3135   5.3781   5.5054   5.5499   5.6549
     5.7872   5.8115   6.0280   6.1364   6.2242   6.2623   6.3716   6.4472
     6.6511   6.7778   6.7952   6.8764   6.9890   7.0810   7.2463   7.3157
     7.3864   7.4724   7.4990   7.5886   7.7073   7.7549   7.7805   7.8695
     7.9206   8.0491   8.1270   8.2052   8.2878   8.4183   8.4310   8.5686
     8.6924   8.7370   8.8070   8.8710   8.9405   9.0298   9.0644   9.1426
     9.3982   9.5290   9.5877   9.6304   9.6957   9.7288   9.8087   9.8654
     9.8988   9.9337  10.0020  10.0139  10.0634  10.0974  10.1483  10.1925
    10.3847  10.5054  10.6571  10.7165  11.4473  12.4698  12.7795  12.8744
    12.9553  13.1946  13.2559  13.3839  13.5687  13.6521  13.8475  13.9922
    14.0610  14.1739  14.1971  14.2622  14.3527  14.3759  14.4499  14.6112
    14.6889  14.7391  14.7930  14.8839  15.0010  15.0978  15.1900  15.3374
    15.3680  15.4897  15.5747  15.6432  15.7390  15.8586  15.8991  15.9583
    16.0222  16.0586  16.1252  16.2248  16.2912  16.4741  16.5922  16.7099
    16.7779  16.8580  16.9590

          k = 0.1667 0.3333 0.2129 ( 29179 PWs)   bands (ev):

   -35.4038 -35.4037 -35.4037 -35.4036 -35.4025 -35.4024 -35.4023 -35.4023
   -35.3911 -35.3911 -35.3910 -35.3910 -35.3909 -35.3909 -35.3909 -35.3908
   -35.3860 -35.3859 -35.3859 -35.3858 -35.3578 -35.3578 -35.3577 -35.3577
   -35.3560 -35.3560 -35.3559 -35.3559 -35.3509 -35.3508 -35.3508 -35.3507
   -35.3492 -35.3491 -35.3491 -35.3490 -35.3468 -35.3467 -35.3467 -35.3467
   -11.9970 -11.9918 -11.9784 -11.9717 -11.9677 -11.9613 -11.9592 -11.9429
   -11.9396 -11.9241 -11.9071 -11.8702 -11.8537 -11.8110 -11.8043 -11.7986
   -11.7971 -11.7949 -11.7905 -11.7899 -11.7879 -11.7857 -11.7821 -11.7802
   -11.7785 -11.7773 -11.7750 -11.7734 -11.7682 -11.7656 -11.7637 -11.7626
   -11.7599 -11.7560 -11.7540 -11.7533 -11.7517 -11.7500 -11.7471 -11.7440
   -11.7411 -11.7391 -11.7365 -11.7348 -11.7338 -11.7300 -11.7287 -11.7278
   -11.7266 -11.7251 -11.7237 -11.7223 -11.7201 -11.7191 -11.7178 -11.7169
   -11.7147 -11.7135 -11.7118 -11.7103 -11.7100 -11.7066 -11.7051 -11.7029
   -11.6983 -11.6961 -11.6952 -11.6943 -11.6937 -11.6890 -11.6885 -11.6875
   -11.6860 -11.6786 -11.6755 -11.6737 -11.6689 -11.6669 -11.6636 -11.6627
    -8.3450  -8.1979  -7.8167  -7.6651  -7.3869  -7.2702  -7.0906  -6.9686
    -6.7499  -6.7091  -6.6984  -6.5369  -6.4839  -6.1809  -6.0903  -1.7612
    -1.5108  -1.1845  -1.0168  -0.7296  -0.6546  -0.4345  -0.4145  -0.0029
     0.1234   0.2127   0.3264   0.3976   0.4648   0.5082   0.5767   0.7249
     0.8254   0.9290   1.0870   1.4667   1.6370   2.3135   2.5124   5.0740
     5.1855   5.2063   5.2631   5.3151   5.3389   5.4829   5.5391   5.7262
     5.7913   5.9135   6.0039   6.1404   6.2211   6.3281   6.3628   6.4812
     6.6477   6.7164   6.7767   6.8496   6.9421   7.0500   7.2233   7.2744
     7.3982   7.4851   7.5692   7.6760   7.7318   7.7812   7.8396   7.8796
     7.9401   8.0606   8.1109   8.1919   8.2712   8.4072   8.4534   8.5478
     8.6253   8.7114   8.7450   8.7930   8.8853   8.9631   8.9896   9.1138
     9.3661   9.5427   9.6286   9.7292   9.7667   9.7913   9.8189   9.8519
     9.8862   9.9567   9.9887  10.0119  10.0523  10.0700  10.2406  10.2664
    10.3764  10.4890  10.6731  10.7248  11.4633  12.5733  12.7987  12.8736
    13.0166  13.1843  13.2766  13.4407  13.5530  13.6274  13.7472  13.8743
    13.9120  14.0115  14.0725  14.1537  14.2352  14.3328  14.4122  14.6064
    14.6618  14.7211  14.7904  14.9224  15.1315  15.2032  15.3154  15.3724
    15.4439  15.5073  15.6165  15.7308  15.8393  15.8518  15.9472  15.9801
    16.0533  16.1498  16.1995  16.2269  16.3284  16.4642  16.5309  16.6325
    16.6815  16.8155  16.8620

          k = 0.1667 0.3333-0.3194 ( 29206 PWs)   bands (ev):

   -35.4039 -35.4038 -35.4037 -35.4036 -35.4025 -35.4024 -35.4024 -35.4023
   -35.3911 -35.3911 -35.3910 -35.3910 -35.3910 -35.3910 -35.3909 -35.3909
   -35.3861 -35.3860 -35.3859 -35.3859 -35.3579 -35.3578 -35.3577 -35.3577
   -35.3560 -35.3560 -35.3560 -35.3560 -35.3509 -35.3509 -35.3508 -35.3508
   -35.3492 -35.3492 -35.3491 -35.3491 -35.3468 -35.3468 -35.3467 -35.3467
   -11.9970 -11.9913 -11.9783 -11.9713 -11.9671 -11.9615 -11.9601 -11.9435
   -11.9402 -11.9232 -11.9080 -11.8695 -11.8548 -11.8097 -11.8033 -11.7992
   -11.7966 -11.7944 -11.7911 -11.7905 -11.7877 -11.7855 -11.7826 -11.7807
   -11.7780 -11.7772 -11.7758 -11.7736 -11.7692 -11.7659 -11.7635 -11.7627
   -11.7611 -11.7560 -11.7543 -11.7535 -11.7523 -11.7507 -11.7471 -11.7444
   -11.7414 -11.7381 -11.7357 -11.7344 -11.7338 -11.7292 -11.7284 -11.7266
   -11.7249 -11.7247 -11.7240 -11.7220 -11.7197 -11.7188 -11.7174 -11.7168
   -11.7144 -11.7134 -11.7123 -11.7105 -11.7100 -11.7065 -11.7055 -11.7022
   -11.6985 -11.6960 -11.6954 -11.6948 -11.6941 -11.6894 -11.6887 -11.6879
   -11.6862 -11.6787 -11.6758 -11.6739 -11.6691 -11.6671 -11.6636 -11.6628
    -8.3448  -8.1982  -7.8166  -7.6652  -7.3868  -7.2703  -7.0906  -6.9687
    -6.7498  -6.7089  -6.6986  -6.5369  -6.4839  -6.1809  -6.0903  -1.6666
    -1.6235  -1.1241  -1.0848  -0.7059  -0.6787  -0.4348  -0.4140   0.0186
     0.1002   0.2108   0.3135   0.4693   0.4879   0.5705   0.5841   0.6961
     0.7321   0.9557   1.0530   1.5234   1.5774   2.3440   2.4891   5.0692
     5.1636   5.1981   5.2736   5.3084   5.3707   5.4374   5.5243   5.7860
     5.7908   5.9117   6.0617   6.1363   6.1735   6.3381   6.4015   6.5473
     6.6456   6.6541   6.7311   6.8575   6.8907   7.0565   7.2047   7.2602
     7.4246   7.4877   7.6466   7.6926   7.7387   7.7792   7.8167   7.9015
     7.9845   8.0530   8.0853   8.2205   8.2800   8.4297   8.4478   8.5095
     8.5729   8.6391   8.7394   8.7657   8.8837   8.9292   8.9772   9.1085
     9.3515   9.5307   9.6358   9.7538   9.7936   9.8242   9.8387   9.8524
     9.9266   9.9406   9.9799  10.0161  10.0390  10.0513  10.2950  10.3046
    10.3952  10.4476  10.6798  10.7289  11.4700  12.6380  12.8068  12.8275
    13.1317  13.2319  13.3010  13.3917  13.5247  13.6171  13.7340  13.7626
    13.7955  13.9149  14.0112  14.1113  14.2082  14.3191  14.5403  14.5868
    14.6221  14.6641  14.8034  14.9209  15.1544  15.3117  15.3243  15.4313
    15.4421  15.5415  15.6016  15.7140  15.8184  15.8796  15.9743  16.0521
    16.1398  16.2001  16.2328  16.2753  16.3714  16.4637  16.5464  16.5711
    16.5952  16.6279  16.8524

          k = 0.1667-0.5000 0.0000 ( 29174 PWs)   bands (ev):

   -35.4039 -35.4037 -35.4037 -35.4037 -35.4025 -35.4024 -35.4023 -35.4023
   -35.3911 -35.3911 -35.3910 -35.3910 -35.3909 -35.3909 -35.3909 -35.3908
   -35.3861 -35.3860 -35.3859 -35.3858 -35.3579 -35.3578 -35.3577 -35.3577
   -35.3561 -35.3560 -35.3559 -35.3559 -35.3509 -35.3508 -35.3508 -35.3507
   -35.3492 -35.3491 -35.3491 -35.3490 -35.3469 -35.3468 -35.3467 -35.3465
   -11.9891 -11.9888 -11.9826 -11.9819 -11.9589 -11.9505 -11.9492 -11.9484
   -11.9458 -11.9324 -11.9109 -11.8411 -11.8273 -11.8250 -11.8129 -11.8094
   -11.7962 -11.7938 -11.7910 -11.7905 -11.7887 -11.7874 -11.7809 -11.7803
   -11.7774 -11.7764 -11.7751 -11.7657 -11.7637 -11.7621 -11.7618 -11.7616
   -11.7584 -11.7546 -11.7544 -11.7528 -11.7525 -11.7484 -11.7483 -11.7470
   -11.7436 -11.7427 -11.7368 -11.7363 -11.7357 -11.7330 -11.7292 -11.7290
   -11.7273 -11.7248 -11.7240 -11.7233 -11.7231 -11.7212 -11.7204 -11.7200
   -11.7172 -11.7165 -11.7144 -11.7112 -11.7110 -11.7084 -11.7035 -11.7020
   -11.7019 -11.6991 -11.6957 -11.6952 -11.6916 -11.6904 -11.6886 -11.6846
   -11.6837 -11.6830 -11.6782 -11.6746 -11.6697 -11.6659 -11.6645 -11.6630
    -8.1193  -8.1130  -8.0885  -7.8189  -7.2547  -7.2515  -7.2340  -7.0188
    -6.7161  -6.7149  -6.6979  -6.4298  -6.2532  -6.2490  -6.2319  -1.6095
    -1.5976  -1.1906  -1.1221  -0.6184  -0.6098  -0.5349  -0.5048   0.0599
     0.0999   0.2251   0.2380   0.3890   0.4261   0.5713   0.5893   0.8090
     0.8209   0.9536   1.0143   1.7430   2.0446   2.0682   2.1749   5.1132
     5.1211   5.1368   5.1724   5.2761   5.3458   5.4433   5.4613   5.6251
     5.6692   6.0514   6.0522   6.0885   6.1835   6.3065   6.3261   6.4911
     6.6240   6.8795   6.8970   7.0610   7.0746   7.1578   7.2443   7.3969
     7.4023   7.4412   7.5484   7.6233   7.6435   7.7244   7.7345   7.7438
     7.8389   8.1063   8.1363   8.3441   8.3988   8.4492   8.5567   8.5826
     8.6439   8.6541   8.7346   8.9997   9.0775   9.1161   9.2386   9.2821
     9.3408   9.3817   9.5894   9.6034   9.6389   9.6767   9.6881   9.7661
     9.7981   9.8586   9.8958   9.9193   9.9352   9.9581  10.0961  10.1732
    10.2969  10.3825  10.6119  10.6815  11.5289  12.6686  12.8187  13.0907
    13.1204  13.4748  13.4874  13.5629  13.6272  13.7441  13.7464  13.9207
    13.9322  14.0645  14.0719  14.2346  14.3250  14.3401  14.3994  14.4941
    14.5263  14.8143  14.8154  14.9400  15.0001  15.0686  15.0954  15.2244
    15.2932  15.4532  15.4674  15.6012  15.6308  15.6848  15.9046  15.9440
    16.1625  16.2174  16.2811  16.3529  16.3562  16.5081  16.5505  16.5604
    16.7360  16.7998  16.9611

          k = 0.1667-0.5000 0.1065 ( 29142 PWs)   bands (ev):

   -35.4038 -35.4037 -35.4036 -35.4036 -35.4024 -35.4023 -35.4023 -35.4022
   -35.3911 -35.3910 -35.3910 -35.3910 -35.3909 -35.3909 -35.3908 -35.3908
   -35.3860 -35.3859 -35.3859 -35.3857 -35.3578 -35.3577 -35.3577 -35.3576
   -35.3560 -35.3559 -35.3559 -35.3558 -35.3509 -35.3508 -35.3508 -35.3507
   -35.3492 -35.3491 -35.3490 -35.3490 -35.3468 -35.3467 -35.3467 -35.3465
   -11.9891 -11.9887 -11.9822 -11.9816 -11.9591 -11.9508 -11.9495 -11.9477
   -11.9454 -11.9332 -11.9116 -11.8408 -11.8271 -11.8260 -11.8123 -11.8080
   -11.7961 -11.7935 -11.7912 -11.7902 -11.7885 -11.7880 -11.7811 -11.7808
   -11.7773 -11.7760 -11.7747 -11.7675 -11.7650 -11.7628 -11.7624 -11.7617
   -11.7583 -11.7550 -11.7544 -11.7523 -11.7519 -11.7477 -11.7476 -11.7469
   -11.7438 -11.7424 -11.7379 -11.7377 -11.7346 -11.7315 -11.7291 -11.7285
   -11.7271 -11.7248 -11.7233 -11.7232 -11.7224 -11.7209 -11.7193 -11.7192
   -11.7171 -11.7162 -11.7145 -11.7116 -11.7110 -11.7082 -11.7032 -11.7024
   -11.7017 -11.6994 -11.6959 -11.6952 -11.6917 -11.6906 -11.6890 -11.6847
   -11.6839 -11.6834 -11.6782 -11.6748 -11.6699 -11.6660 -11.6646 -11.6631
    -8.1182  -8.1130  -8.0896  -7.8190  -7.2539  -7.2514  -7.2348  -7.0188
    -6.7161  -6.7146  -6.6982  -6.4298  -6.2532  -6.2490  -6.2319  -1.5843
    -1.5764  -1.2241  -1.1672  -0.6106  -0.6063  -0.5385  -0.5122   0.0673
     0.1100   0.2449   0.2707   0.3749   0.3927   0.6092   0.6316   0.7833
     0.8116   0.9393   0.9985   1.7415   2.0462   2.0669   2.1669   5.0977
     5.1037   5.1518   5.1635   5.2655   5.2810   5.4910   5.5068   5.6549
     5.6854   6.0456   6.0510   6.0787   6.1733   6.3012   6.3260   6.5137
     6.6362   6.8655   6.9040   7.0676   7.0774   7.1653   7.2536   7.3629
     7.3756   7.4302   7.4696   7.5768   7.6569   7.7387   7.7851   7.8276
     7.8947   8.1015   8.1509   8.3319   8.3984   8.3999   8.5419   8.5947
     8.6422   8.6622   8.7134   8.9636   9.0569   9.0730   9.2088   9.2456
     9.3293   9.3686   9.5658   9.5930   9.6393   9.7092   9.7406   9.7920
     9.8300   9.8617   9.9040   9.9362   9.9708  10.0062  10.0745  10.1215
    10.3601  10.4334  10.6053  10.6801  11.5184  12.6620  12.8340  13.0769
    13.1318  13.4948  13.5129  13.5559  13.6398  13.7335  13.7396  13.7666
    13.8919  14.0618  14.0982  14.1470  14.2613  14.3472  14.4130  14.4861
    14.5085  14.7140  14.8049  14.9188  14.9713  15.0904  15.1913  15.3065
    15.3752  15.4819  15.5277  15.5997  15.6230  15.7301  15.9021  15.9668
    16.1746  16.2195  16.3003  16.3669  16.3765  16.5038  16.5438  16.5517
    16.7096  16.7640  16.9124

          k = 0.1667-0.5000 0.2129 ( 29174 PWs)   bands (ev):

   -35.4038 -35.4037 -35.4037 -35.4036 -35.4024 -35.4024 -35.4023 -35.4023
   -35.3911 -35.3911 -35.3910 -35.3910 -35.3910 -35.3909 -35.3909 -35.3908
   -35.3860 -35.3859 -35.3859 -35.3858 -35.3579 -35.3578 -35.3577 -35.3577
   -35.3560 -35.3560 -35.3559 -35.3559 -35.3509 -35.3509 -35.3508 -35.3508
   -35.3492 -35.3491 -35.3491 -35.3490 -35.3468 -35.3467 -35.3467 -35.3466
   -11.9889 -11.9886 -11.9814 -11.9809 -11.9595 -11.9516 -11.9502 -11.9463
   -11.9445 -11.9351 -11.9132 -11.8401 -11.8281 -11.8267 -11.8111 -11.8054
   -11.7958 -11.7937 -11.7912 -11.7897 -11.7891 -11.7884 -11.7826 -11.7809
   -11.7774 -11.7753 -11.7742 -11.7703 -11.7670 -11.7647 -11.7626 -11.7617
   -11.7587 -11.7562 -11.7544 -11.7513 -11.7509 -11.7479 -11.7468 -11.7458
   -11.7441 -11.7420 -11.7390 -11.7388 -11.7336 -11.7309 -11.7288 -11.7269
   -11.7263 -11.7247 -11.7229 -11.7220 -11.7208 -11.7196 -11.7179 -11.7175
   -11.7167 -11.7155 -11.7152 -11.7131 -11.7106 -11.7081 -11.7034 -11.7026
   -11.7010 -11.6998 -11.6964 -11.6953 -11.6920 -11.6910 -11.6901 -11.6851
   -11.6845 -11.6843 -11.6784 -11.6752 -11.6704 -11.6663 -11.6647 -11.6633
    -8.1159  -8.1128  -8.0920  -7.8192  -7.2521  -7.2514  -7.2366  -7.0189
    -6.7161  -6.7141  -6.6988  -6.4298  -6.2532  -6.2489  -6.2320  -1.5175
    -1.5121  -1.3062  -1.2763  -0.5998  -0.5895  -0.5448  -0.5325   0.0874
     0.1377   0.2267   0.2749   0.4135   0.4460   0.6302   0.6798   0.7511
     0.7970   0.9049   0.9558   1.7386   2.0503   2.0644   2.1501   5.0623
     5.0679   5.1350   5.2048   5.2404   5.2704   5.4515   5.5262   5.7781
     5.7798   6.0174   6.0497   6.0545   6.1352   6.2897   6.3244   6.5803
     6.6634   6.8029   6.9132   7.0843   7.0858   7.1692   7.2594   7.3220
     7.3289   7.4097   7.4099   7.5490   7.6044   7.7724   7.8536   7.9972
     8.0010   8.1041   8.1601   8.2649   8.3271   8.4001   8.5058   8.6093
     8.6444   8.6747   8.6806   8.7946   9.0362   9.0471   9.1542   9.1710
     9.3270   9.3915   9.5040   9.5371   9.6471   9.7962   9.8226   9.8682
     9.8899   9.9109   9.9282   9.9372  10.0145  10.0194  10.0549  10.0799
    10.4554  10.5249  10.5820  10.6719  11.4976  12.6565  12.8679  13.0522
    13.1836  13.4772  13.5149  13.5938  13.6118  13.6832  13.7125  13.7567
    13.7911  13.9574  13.9937  14.0874  14.1100  14.3139  14.4299  14.4777
    14.5043  14.7000  14.7357  14.8758  15.0568  15.1493  15.2348  15.3477
    15.3668  15.5711  15.6084  15.6858  15.7087  15.8320  15.9008  16.0034
    16.2015  16.2173  16.3044  16.4555  16.4658  16.4998  16.5318  16.5352
    16.6382  16.6684  16.7849

          k = 0.1667-0.5000-0.3194 ( 29164 PWs)   bands (ev):

   -35.4038 -35.4037 -35.4036 -35.4036 -35.4024 -35.4024 -35.4023 -35.4023
   -35.3911 -35.3910 -35.3910 -35.3910 -35.3909 -35.3909 -35.3909 -35.3908
   -35.3860 -35.3859 -35.3859 -35.3858 -35.3578 -35.3577 -35.3577 -35.3576
   -35.3560 -35.3560 -35.3559 -35.3559 -35.3509 -35.3509 -35.3508 -35.3507
   -35.3492 -35.3491 -35.3491 -35.3490 -35.3468 -35.3467 -35.3467 -35.3467
   -11.9888 -11.9885 -11.9810 -11.9806 -11.9597 -11.9519 -11.9506 -11.9453
   -11.9439 -11.9363 -11.9140 -11.8396 -11.8292 -11.8265 -11.8105 -11.8039
   -11.7955 -11.7943 -11.7909 -11.7896 -11.7895 -11.7887 -11.7832 -11.7809
   -11.7776 -11.7752 -11.7740 -11.7714 -11.7677 -11.7656 -11.7626 -11.7616
   -11.7590 -11.7567 -11.7545 -11.7507 -11.7505 -11.7481 -11.7464 -11.7454
   -11.7442 -11.7419 -11.7395 -11.7390 -11.7333 -11.7309 -11.7286 -11.7268
   -11.7248 -11.7245 -11.7227 -11.7216 -11.7192 -11.7190 -11.7177 -11.7163
   -11.7161 -11.7159 -11.7151 -11.7144 -11.7105 -11.7081 -11.7041 -11.7023
   -11.7008 -11.6999 -11.6967 -11.6952 -11.6923 -11.6912 -11.6906 -11.6853
   -11.6848 -11.6847 -11.6785 -11.6753 -11.6706 -11.6664 -11.6647 -11.6634
    -8.1146  -8.1127  -8.0934  -7.8193  -7.2513  -7.2510  -7.2377  -7.0189
    -6.7161  -6.7138  -6.6991  -6.4298  -6.2532  -6.2489  -6.2320  -1.4575
    -1.4051  -1.4004  -1.3774  -0.5968  -0.5622  -0.5593  -0.5476   0.1026
     0.1643   0.2058   0.2319   0.4974   0.5248   0.5970   0.6192   0.7954
     0.7988   0.8816   0.9201   1.7371   2.0531   2.0632   2.1410   5.0466
     5.0499   5.1280   5.1910   5.2822   5.2871   5.3957   5.5150   5.8644
     5.8764   5.9579   6.0468   6.0501   6.0954   6.2835   6.3226   6.6624
     6.6797   6.7155   6.9116   7.0907   7.1009   7.1599   7.2446   7.3119
     7.3144   7.4118   7.4160   7.5409   7.5613   7.7921   7.8695   8.0688
     8.1278   8.1395   8.1597   8.1738   8.2648   8.3963   8.4904   8.6279
     8.6386   8.6756   8.6772   8.6863   9.0238   9.0362   9.1317   9.1323
     9.3317   9.4433   9.4796   9.4814   9.6568   9.8176   9.8417   9.8910
     9.9129   9.9399   9.9801   9.9902  10.0001  10.0262  10.0380  10.0461
    10.5245  10.5421  10.5735  10.6603  11.4875  12.6584  12.8867  13.0413
    13.3047  13.3140  13.4427  13.6909  13.6910  13.7109  13.7365  13.7483
    13.7526  13.8668  13.8696  13.9198  14.1459  14.2894  14.4327  14.4775
    14.5110  14.7065  14.7312  14.8482  15.1132  15.2048  15.2249  15.3045
    15.3608  15.5887  15.6229  15.7531  15.7961  15.9024  15.9054  16.0022
    16.2240  16.2257  16.2974  16.5051  16.5261  16.5270  16.5711  16.5814
    16.6088  16.6168  16.6389

          k = 0.3333 0.3333 0.0000 ( 29195 PWs)   bands (ev):

   -35.4038 -35.4038 -35.4037 -35.4036 -35.4025 -35.4024 -35.4023 -35.4022
   -35.3911 -35.3911 -35.3911 -35.3910 -35.3910 -35.3909 -35.3909 -35.3909
   -35.3861 -35.3860 -35.3859 -35.3858 -35.3578 -35.3578 -35.3577 -35.3576
   -35.3561 -35.3560 -35.3559 -35.3559 -35.3509 -35.3509 -35.3509 -35.3508
   -35.3492 -35.3492 -35.3491 -35.3491 -35.3470 -35.3468 -35.3468 -35.3466
   -11.9931 -11.9923 -11.9820 -11.9819 -11.9593 -11.9566 -11.9469 -11.9460
   -11.9283 -11.8944 -11.8911 -11.8816 -11.8511 -11.8155 -11.8107 -11.8027
   -11.8018 -11.7943 -11.7928 -11.7911 -11.7857 -11.7845 -11.7802 -11.7798
   -11.7795 -11.7753 -11.7749 -11.7722 -11.7612 -11.7612 -11.7600 -11.7593
   -11.7591 -11.7569 -11.7545 -11.7492 -11.7485 -11.7476 -11.7458 -11.7454
   -11.7441 -11.7413 -11.7400 -11.7389 -11.7352 -11.7336 -11.7331 -11.7325
   -11.7291 -11.7272 -11.7263 -11.7242 -11.7235 -11.7206 -11.7205 -11.7179
   -11.7177 -11.7144 -11.7127 -11.7093 -11.7093 -11.7076 -11.7061 -11.7031
   -11.7030 -11.6985 -11.6960 -11.6955 -11.6939 -11.6927 -11.6890 -11.6880
   -11.6867 -11.6808 -11.6762 -11.6730 -11.6723 -11.6722 -11.6655 -11.6649
    -8.2062  -8.0812  -7.7078  -7.7062  -7.6689  -7.4829  -7.3200  -7.0636
    -6.5791  -6.5327  -6.4903  -6.4877  -6.4711  -6.2230  -6.1616  -1.7114
    -1.2358  -1.1407  -1.1315  -0.8590  -0.8070  -0.7019  -0.5543   0.0833
     0.1721   0.2801   0.3147   0.3622   0.3754   0.5025   0.7275   0.9040
     0.9147   1.1446   1.3048   1.4521   1.6985   2.1242   2.2758   5.0035
     5.0343   5.0450   5.0540   5.2069   5.3544   5.4343   5.4696   5.8998
     5.9026   6.0180   6.0879   6.1894   6.3739   6.4221   6.5728   6.6459
     6.7154   6.7416   6.8375   6.8629   6.9441   7.1019   7.1897   7.2525
     7.2692   7.2717   7.3037   7.3415   7.4225   7.4910   7.6482   7.7479
     7.9745   7.9991   8.1282   8.5188   8.5614   8.5639   8.6467   8.7708
     8.7711   8.8696   8.9466   9.0127   9.0551   9.0677   9.1775   9.3845
     9.4028   9.4520   9.4666   9.4817   9.4918   9.5134   9.5450   9.5827
     9.6314   9.8228  10.0063  10.0411  10.1388  10.1499  10.1968  10.4587
    10.4727  10.6004  10.6905  10.6953  11.2618  12.5061  12.5443  12.7727
    13.0013  13.1038  13.3364  13.5165  13.6041  13.8594  13.8905  14.0179
    14.0268  14.0965  14.1928  14.2902  14.3735  14.4481  14.5637  14.5704
    14.6488  14.6673  14.8376  14.8517  14.9145  14.9487  15.0389  15.1642
    15.4035  15.4978  15.5619  15.7158  15.8407  15.8546  16.0447  16.0516
    16.1751  16.1751  16.2426  16.2674  16.3639  16.3642  16.5244  16.5303
    16.5819  16.5860  16.9839

          k = 0.3333 0.3333 0.1065 ( 29175 PWs)   bands (ev):

   -35.4038 -35.4037 -35.4037 -35.4036 -35.4025 -35.4024 -35.4024 -35.4023
   -35.3911 -35.3911 -35.3910 -35.3910 -35.3910 -35.3909 -35.3909 -35.3908
   -35.3860 -35.3859 -35.3859 -35.3858 -35.3578 -35.3578 -35.3577 -35.3577
   -35.3561 -35.3560 -35.3560 -35.3559 -35.3509 -35.3509 -35.3508 -35.3508
   -35.3492 -35.3491 -35.3491 -35.3490 -35.3468 -35.3467 -35.3467 -35.3466
   -11.9931 -11.9919 -11.9818 -11.9817 -11.9595 -11.9570 -11.9466 -11.9460
   -11.9290 -11.8938 -11.8905 -11.8826 -11.8520 -11.8151 -11.8102 -11.8019
   -11.8010 -11.7948 -11.7933 -11.7906 -11.7869 -11.7836 -11.7801 -11.7800
   -11.7791 -11.7765 -11.7750 -11.7733 -11.7623 -11.7611 -11.7603 -11.7593
   -11.7587 -11.7564 -11.7544 -11.7500 -11.7498 -11.7484 -11.7470 -11.7448
   -11.7443 -11.7406 -11.7383 -11.7381 -11.7349 -11.7339 -11.7325 -11.7323
   -11.7283 -11.7267 -11.7253 -11.7240 -11.7228 -11.7202 -11.7199 -11.7182
   -11.7171 -11.7142 -11.7130 -11.7097 -11.7091 -11.7076 -11.7061 -11.7031
   -11.7027 -11.6986 -11.6963 -11.6954 -11.6941 -11.6929 -11.6894 -11.6885
   -11.6869 -11.6810 -11.6765 -11.6732 -11.6725 -11.6722 -11.6656 -11.6651
    -8.2060  -8.0814  -7.7071  -7.7061  -7.6696  -7.4830  -7.3200  -7.0637
    -6.5790  -6.5327  -6.4903  -6.4875  -6.4713  -6.2230  -6.1616  -1.6868
    -1.2792  -1.1230  -1.1142  -0.8808  -0.8339  -0.6922  -0.5647   0.0886
     0.2213   0.2668   0.3233   0.3619   0.3808   0.5013   0.7484   0.8643
     0.9125   1.1495   1.3270   1.4460   1.6769   2.1299   2.2688   5.0171
     5.0263   5.0542   5.0758   5.1913   5.3340   5.4153   5.4513   5.9171
     5.9607   6.0551   6.0916   6.2043   6.3571   6.3824   6.5556   6.6195
     6.7160   6.7530   6.8340   6.8647   6.9371   7.0399   7.0569   7.1019
     7.2423   7.3007   7.3629   7.4401   7.5183   7.5731   7.6941   7.8371
     7.9453   8.0069   8.1711   8.5004   8.5248   8.5615   8.6459   8.7705
     8.7776   8.8297   8.9319   8.9424   9.0539   9.0618   9.1296   9.3469
     9.3917   9.4349   9.4585   9.4967   9.5345   9.5464   9.5529   9.6219
     9.6654   9.8314   9.9690  10.0188  10.0713  10.1610  10.2717  10.4711
    10.4857  10.5950  10.6802  10.6861  11.2936  12.5610  12.6330  12.8009
    12.9229  13.1816  13.3169  13.5171  13.6221  13.7826  13.8546  13.8898
    14.0137  14.1249  14.1981  14.2933  14.3503  14.3862  14.4466  14.5416
    14.5855  14.6100  14.7592  14.9171  14.9611  15.0031  15.1170  15.1519
    15.4080  15.5439  15.6165  15.7779  15.8259  15.9085  16.0270  16.1296
    16.1570  16.2300  16.2390  16.2814  16.3255  16.3866  16.5099  16.5146
    16.5549  16.5786  16.9261

          k = 0.3333 0.3333 0.2129 ( 29182 PWs)   bands (ev):

   -35.4038 -35.4038 -35.4037 -35.4036 -35.4024 -35.4024 -35.4023 -35.4023
   -35.3911 -35.3911 -35.3910 -35.3910 -35.3909 -35.3909 -35.3909 -35.3908
   -35.3861 -35.3860 -35.3859 -35.3858 -35.3578 -35.3578 -35.3577 -35.3577
   -35.3560 -35.3560 -35.3559 -35.3559 -35.3509 -35.3508 -35.3508 -35.3508
   -35.3492 -35.3491 -35.3491 -35.3490 -35.3469 -35.3468 -35.3467 -35.3467
   -11.9930 -11.9912 -11.9815 -11.9814 -11.9600 -11.9577 -11.9470 -11.9449
   -11.9307 -11.8919 -11.8895 -11.8854 -11.8538 -11.8142 -11.8092 -11.8001
   -11.7992 -11.7961 -11.7931 -11.7899 -11.7898 -11.7830 -11.7806 -11.7803
   -11.7785 -11.7779 -11.7753 -11.7748 -11.7640 -11.7617 -11.7598 -11.7590
   -11.7585 -11.7560 -11.7542 -11.7517 -11.7511 -11.7504 -11.7473 -11.7450
   -11.7435 -11.7413 -11.7364 -11.7357 -11.7351 -11.7326 -11.7321 -11.7314
   -11.7273 -11.7252 -11.7239 -11.7233 -11.7213 -11.7194 -11.7189 -11.7185
   -11.7165 -11.7137 -11.7135 -11.7100 -11.7098 -11.7074 -11.7059 -11.7028
   -11.7021 -11.6988 -11.6967 -11.6953 -11.6947 -11.6931 -11.6904 -11.6897
   -11.6875 -11.6814 -11.6770 -11.6735 -11.6728 -11.6725 -11.6657 -11.6654
    -8.2056  -8.0819  -7.7060  -7.7058  -7.6710  -7.4830  -7.3201  -7.0638
    -6.5789  -6.5327  -6.4904  -6.4873  -6.4715  -6.2230  -6.1616  -1.6166
    -1.3830  -1.0781  -1.0653  -0.9327  -0.9026  -0.6678  -0.5907   0.1014
     0.2328   0.3054   0.3602   0.3697   0.4044   0.5013   0.7507   0.8109
     0.8937   1.1611   1.3830   1.4320   1.6220   2.1436   2.2526   5.0045
     5.0599   5.0911   5.1143   5.1568   5.2899   5.3725   5.4059   5.9710
     6.0726   6.1136   6.1596   6.2262   6.2838   6.3678   6.4795   6.5526
     6.6959   6.7659   6.8103   6.8389   6.8745   6.9364   6.9402   7.0639
     7.2117   7.3149   7.4534   7.5390   7.5482   7.6788   7.7957   7.9471
     8.0317   8.0950   8.2267   8.4286   8.4474   8.5387   8.6476   8.7048
     8.7377   8.7702   8.8427   8.9262   9.0055   9.0828   9.0986   9.3120
     9.3417   9.4081   9.4445   9.5091   9.5225   9.5932   9.6304   9.6679
     9.8178   9.8403   9.9100   9.9341  10.0136  10.1212  10.3940  10.5044
    10.5181  10.5759  10.6570  10.6598  11.3523  12.6304  12.7640  12.9222
    12.9905  13.2475  13.3465  13.4408  13.5176  13.7008  13.7660  13.7794
    13.8341  14.0888  14.1207  14.1944  14.2667  14.3525  14.4280  14.5403
    14.5982  14.6159  14.6970  14.8155  14.9728  15.0613  15.1443  15.2527
    15.4574  15.5306  15.7027  15.8541  15.9143  16.0048  16.0543  16.1375
    16.2267  16.2347  16.2903  16.3330  16.3400  16.4443  16.4464  16.4571
    16.5405  16.5758  16.7578

          k = 0.3333 0.3333-0.3194 ( 29178 PWs)   bands (ev):

   -35.4038 -35.4037 -35.4037 -35.4036 -35.4024 -35.4024 -35.4024 -35.4023
   -35.3911 -35.3910 -35.3910 -35.3910 -35.3910 -35.3909 -35.3909 -35.3908
   -35.3860 -35.3860 -35.3859 -35.3858 -35.3578 -35.3578 -35.3577 -35.3577
   -35.3560 -35.3560 -35.3559 -35.3559 -35.3509 -35.3508 -35.3508 -35.3508
   -35.3492 -35.3492 -35.3491 -35.3490 -35.3468 -35.3468 -35.3467 -35.3466
   -11.9930 -11.9908 -11.9812 -11.9811 -11.9603 -11.9580 -11.9473 -11.9441
   -11.9316 -11.8898 -11.8887 -11.8881 -11.8547 -11.8136 -11.8089 -11.7992
   -11.7979 -11.7960 -11.7933 -11.7916 -11.7897 -11.7829 -11.7818 -11.7804
   -11.7786 -11.7775 -11.7759 -11.7750 -11.7649 -11.7620 -11.7595 -11.7589
   -11.7584 -11.7563 -11.7536 -11.7528 -11.7518 -11.7511 -11.7474 -11.7450
   -11.7430 -11.7420 -11.7361 -11.7350 -11.7348 -11.7316 -11.7313 -11.7311
   -11.7271 -11.7242 -11.7236 -11.7228 -11.7202 -11.7191 -11.7189 -11.7183
   -11.7163 -11.7136 -11.7132 -11.7107 -11.7099 -11.7073 -11.7058 -11.7025
   -11.7018 -11.6990 -11.6969 -11.6954 -11.6948 -11.6932 -11.6908 -11.6905
   -11.6877 -11.6815 -11.6773 -11.6737 -11.6728 -11.6728 -11.6659 -11.6656
    -8.2054  -8.0821  -7.7060  -7.7050  -7.6717  -7.4831  -7.3201  -7.0638
    -6.5789  -6.5328  -6.4904  -6.4872  -6.4717  -6.2230  -6.1616  -1.5296
    -1.4856  -1.0396  -0.9954  -0.9823  -0.9742  -0.6462  -0.6133   0.1097
     0.2182   0.3118   0.3737   0.3787   0.4746   0.5131   0.6661   0.8542
     0.8589   1.1681   1.4238   1.4249   1.5809   2.1524   2.2426   4.9963
     5.1007   5.1170   5.1245   5.1334   5.2645   5.3507   5.3739   6.0221
     6.0911   6.1498   6.1772   6.2997   6.3096   6.3433   6.4006   6.5413
     6.5772   6.7161   6.8295   6.8539   6.8580   6.8906   6.9288   7.0558
     7.2115   7.3150   7.4795   7.5560   7.6074   7.7164   7.7567   8.0539
     8.1317   8.2033   8.3005   8.3196   8.4094   8.4603   8.6057   8.6558
     8.6719   8.7701   8.8793   8.9013   8.9631   9.0784   9.1853   9.2268
     9.3023   9.4320   9.4530   9.4745   9.5526   9.5599   9.7158   9.7380
     9.7821   9.8150   9.9223   9.9657  10.0201  10.0260  10.4528  10.5319
    10.5458  10.5533  10.6371  10.6407  11.3797  12.6014  12.8811  13.0145
    13.1922  13.2288  13.3251  13.4198  13.4946  13.5780  13.5785  13.6770
    13.8244  14.0779  14.0881  14.1400  14.2669  14.2974  14.4997  14.5182
    14.6362  14.6630  14.6687  14.7212  14.9866  15.0291  15.1837  15.3087
    15.3914  15.5795  15.7714  15.9036  15.9134  16.0133  16.0883  16.1437
    16.1846  16.2925  16.3478  16.3595  16.3838  16.4096  16.5033  16.5118
    16.5424  16.5560  16.6710

          k = 0.3333-0.5000 0.0000 ( 29156 PWs)   bands (ev):

   -35.4038 -35.4037 -35.4037 -35.4036 -35.4024 -35.4023 -35.4023 -35.4022
   -35.3911 -35.3910 -35.3910 -35.3910 -35.3909 -35.3909 -35.3909 -35.3908
   -35.3860 -35.3860 -35.3859 -35.3858 -35.3578 -35.3578 -35.3577 -35.3576
   -35.3560 -35.3559 -35.3559 -35.3558 -35.3509 -35.3508 -35.3508 -35.3507
   -35.3492 -35.3491 -35.3491 -35.3490 -35.3469 -35.3468 -35.3467 -35.3466
   -11.9886 -11.9881 -11.9875 -11.9867 -11.9591 -11.9519 -11.9514 -11.9273
   -11.9182 -11.9132 -11.8807 -11.8547 -11.8503 -11.8384 -11.8123 -11.8086
   -11.8048 -11.7987 -11.7932 -11.7894 -11.7846 -11.7841 -11.7774 -11.7770
   -11.7728 -11.7719 -11.7712 -11.7681 -11.7664 -11.7637 -11.7612 -11.7585
   -11.7571 -11.7542 -11.7535 -11.7509 -11.7500 -11.7492 -11.7492 -11.7436
   -11.7421 -11.7418 -11.7400 -11.7388 -11.7379 -11.7372 -11.7343 -11.7321
   -11.7277 -11.7255 -11.7245 -11.7238 -11.7237 -11.7215 -11.7211 -11.7194
   -11.7191 -11.7164 -11.7136 -11.7122 -11.7117 -11.7089 -11.7050 -11.7042
   -11.7022 -11.6987 -11.6983 -11.6962 -11.6955 -11.6940 -11.6895 -11.6864
   -11.6859 -11.6831 -11.6800 -11.6752 -11.6741 -11.6719 -11.6668 -11.6654
    -7.9917  -7.9858  -7.9623  -7.7762  -7.5379  -7.5333  -7.5127  -7.1132
    -6.5156  -6.5129  -6.4982  -6.3807  -6.2938  -6.2899  -6.2740  -1.4722
    -1.4588  -1.0900  -1.0200  -0.9531  -0.9391  -0.7220  -0.6817   0.2047
     0.2251   0.2368   0.2511   0.3261   0.3853   0.6633   0.6788   0.8538
     1.0519   1.1656   1.3667   1.7375   1.8427   1.8828   2.0046   4.9291
     4.9657   4.9866   4.9889   5.1914   5.2683   5.4324   5.4365   5.9068
     5.9175   6.2841   6.3568   6.3991   6.4076   6.4731   6.5156   6.5711
     6.6450   6.6941   6.7750   6.9345   6.9496   7.0385   7.0505   7.0828
     7.2583   7.3822   7.4006   7.4153   7.4267   7.4432   7.4686   7.4754
     7.9016   8.0082   8.1348   8.6885   8.7427   8.7523   8.8026   8.8453
     8.8615   8.8815   8.8940   8.9478   8.9625   9.0385   9.1609   9.2128
     9.2528   9.3072   9.3297   9.3780   9.4798   9.5597   9.5608   9.5733
    10.0048  10.0152  10.0904  10.1228  10.1878  10.2096  10.2387  10.2520
    10.3811  10.5748  10.6089  10.6906  11.2148  12.5060  12.5598  12.7566
    12.9338  13.0384  13.1082  13.6419  13.7242  13.7763  13.9546  14.0604
    14.0674  14.1925  14.2422  14.2663  14.4162  14.4266  14.4287  14.5355
    14.5988  14.6419  14.7325  14.7825  14.8766  14.9208  15.2247  15.2370
    15.2994  15.6046  15.6727  15.7122  15.7938  16.0516  16.0918  16.1235
    16.1905  16.2126  16.2293  16.2541  16.2719  16.3159  16.3311  16.3382
    16.6806  16.7768  16.9788

          k = 0.3333-0.5000 0.1065 ( 29140 PWs)   bands (ev):

   -35.4038 -35.4037 -35.4037 -35.4036 -35.4024 -35.4023 -35.4023 -35.4022
   -35.3911 -35.3910 -35.3910 -35.3910 -35.3909 -35.3909 -35.3908 -35.3908
   -35.3860 -35.3859 -35.3858 -35.3857 -35.3578 -35.3577 -35.3577 -35.3576
   -35.3560 -35.3559 -35.3559 -35.3558 -35.3509 -35.3508 -35.3508 -35.3507
   -35.3492 -35.3491 -35.3491 -35.3490 -35.3468 -35.3467 -35.3466 -35.3465
   -11.9884 -11.9880 -11.9872 -11.9865 -11.9593 -11.9522 -11.9517 -11.9268
   -11.9176 -11.9139 -11.8816 -11.8540 -11.8498 -11.8397 -11.8145 -11.8065
   -11.8037 -11.7979 -11.7926 -11.7891 -11.7855 -11.7845 -11.7781 -11.7780
   -11.7726 -11.7721 -11.7710 -11.7684 -11.7662 -11.7641 -11.7617 -11.7586
   -11.7573 -11.7542 -11.7536 -11.7509 -11.7506 -11.7489 -11.7487 -11.7443
   -11.7422 -11.7420 -11.7405 -11.7377 -11.7373 -11.7361 -11.7345 -11.7322
   -11.7281 -11.7246 -11.7234 -11.7233 -11.7227 -11.7206 -11.7205 -11.7191
   -11.7185 -11.7163 -11.7140 -11.7122 -11.7118 -11.7093 -11.7047 -11.7041
   -11.7024 -11.6988 -11.6983 -11.6964 -11.6954 -11.6944 -11.6900 -11.6866
   -11.6860 -11.6835 -11.6801 -11.6754 -11.6743 -11.6720 -11.6668 -11.6657
    -7.9907  -7.9857  -7.9633  -7.7763  -7.5371  -7.5333  -7.5136  -7.1132
    -6.5155  -6.5128  -6.4983  -6.3807  -6.2938  -6.2899  -6.2740  -1.4486
    -1.4394  -1.1198  -1.0612  -0.9372  -0.9258  -0.7383  -0.7029   0.2261
     0.2379   0.2404   0.2737   0.3314   0.3878   0.6447   0.6639   0.8590
     1.0728   1.1688   1.3502   1.7338   1.8462   1.8799   1.9947   4.9455
     4.9787   4.9957   4.9988   5.1742   5.2549   5.4117   5.4127   5.9446
     5.9524   6.2877   6.3776   6.4012   6.4087   6.4659   6.4714   6.5635
     6.6180   6.7171   6.7780   6.9371   6.9541   7.0202   7.0314   7.0417
     7.1701   7.2116   7.3037   7.3141   7.4669   7.5531   7.6121   7.7377
     7.9458   8.0337   8.1754   8.6339   8.7339   8.7384   8.7663   8.8413
     8.8536   8.8830   8.8909   8.9536   8.9756   8.9802   9.1854   9.2391
     9.2513   9.2840   9.3386   9.3856   9.4716   9.5546   9.5963   9.6146
     9.9421   9.9800  10.0522  10.0622  10.1316  10.1398  10.2928  10.3118
    10.4375  10.5986  10.6101  10.7013  11.2398  12.5762  12.5891  12.8276
    12.8653  13.0964  13.1555  13.6255  13.7117  13.8218  13.8469  14.0000
    14.0399  14.1397  14.2406  14.2574  14.3196  14.3651  14.3903  14.4375
    14.5220  14.6587  14.7675  14.8099  14.9293  14.9773  15.2212  15.2282
    15.3290  15.6676  15.6803  15.7592  15.7892  16.0584  16.0712  16.1379
    16.2185  16.2379  16.2420  16.2578  16.2838  16.3325  16.3330  16.3585
    16.6516  16.7388  16.9292

          k = 0.3333-0.5000 0.2129 ( 29158 PWs)   bands (ev):

   -35.4038 -35.4037 -35.4037 -35.4036 -35.4024 -35.4023 -35.4023 -35.4022
   -35.3911 -35.3911 -35.3910 -35.3910 -35.3909 -35.3909 -35.3909 -35.3908
   -35.3860 -35.3859 -35.3859 -35.3858 -35.3578 -35.3578 -35.3577 -35.3577
   -35.3560 -35.3559 -35.3559 -35.3558 -35.3509 -35.3508 -35.3508 -35.3507
   -35.3492 -35.3491 -35.3491 -35.3490 -35.3468 -35.3467 -35.3467 -35.3466
   -11.9882 -11.9878 -11.9867 -11.9862 -11.9599 -11.9527 -11.9523 -11.9257
   -11.9164 -11.9153 -11.8835 -11.8524 -11.8490 -11.8427 -11.8174 -11.8033
   -11.8015 -11.7964 -11.7912 -11.7894 -11.7879 -11.7843 -11.7805 -11.7795
   -11.7745 -11.7709 -11.7702 -11.7690 -11.7659 -11.7646 -11.7623 -11.7595
   -11.7570 -11.7546 -11.7536 -11.7515 -11.7510 -11.7482 -11.7480 -11.7455
   -11.7422 -11.7421 -11.7408 -11.7376 -11.7374 -11.7340 -11.7335 -11.7320
   -11.7285 -11.7237 -11.7223 -11.7214 -11.7210 -11.7194 -11.7188 -11.7183
   -11.7175 -11.7158 -11.7148 -11.7123 -11.7122 -11.7101 -11.7041 -11.7039
   -11.7026 -11.6992 -11.6984 -11.6967 -11.6953 -11.6950 -11.6911 -11.6870
   -11.6865 -11.6845 -11.6805 -11.6758 -11.6747 -11.6723 -11.6670 -11.6661
    -7.9884  -7.9855  -7.9657  -7.7765  -7.5350  -7.5333  -7.5157  -7.1133
    -6.5155  -6.5125  -6.4986  -6.3807  -6.2938  -6.2898  -6.2741  -1.3858
    -1.3809  -1.1917  -1.1615  -0.8950  -0.8925  -0.7762  -0.7579   0.2293
     0.2388   0.2908   0.3124   0.3756   0.4076   0.5909   0.6259   0.8695
     1.1249   1.1751   1.3068   1.7259   1.8554   1.8741   1.9728   4.9817
     4.9893   5.0251   5.0461   5.1302   5.2259   5.3519   5.3676   6.0443
     6.0494   6.2911   6.3379   6.3821   6.4022   6.4608   6.4704   6.5527
     6.5827   6.7557   6.7899   6.8234   6.8721   6.9653   7.0095   7.0210
     7.0940   7.1471   7.2577   7.2704   7.4961   7.6301   7.7471   8.0335
     8.0900   8.1447   8.2576   8.4923   8.6153   8.6442   8.7466   8.7986
     8.8292   8.8729   8.8900   8.8928   9.0052   9.0231   9.1499   9.2001
     9.3198   9.3790   9.3866   9.4185   9.4437   9.5251   9.6831   9.7122
     9.7587   9.7944   9.9789   9.9822  10.1390  10.1632  10.3008  10.3224
    10.5184  10.6102  10.6283  10.7228  11.2943  12.5494  12.7757  12.9038
    13.0080  13.2301  13.2697  13.4754  13.5464  13.7455  13.7742  13.8897
    13.9756  14.0969  14.1522  14.1946  14.1948  14.2478  14.2952  14.3821
    14.5601  14.6915  14.7494  14.8475  15.0141  15.0395  15.1643  15.2093
    15.3667  15.6778  15.7311  15.8413  15.8862  16.0276  16.0680  16.1652
    16.2023  16.2604  16.2840  16.3227  16.3250  16.3392  16.4314  16.4510
    16.5725  16.6317  16.7992

          k = 0.3333-0.5000-0.3194 ( 29148 PWs)   bands (ev):

   -35.4037 -35.4037 -35.4036 -35.4035 -35.4024 -35.4023 -35.4023 -35.4022
   -35.3911 -35.3910 -35.3910 -35.3910 -35.3909 -35.3909 -35.3908 -35.3908
   -35.3860 -35.3859 -35.3859 -35.3858 -35.3577 -35.3577 -35.3577 -35.3576
   -35.3560 -35.3559 -35.3559 -35.3558 -35.3509 -35.3508 -35.3508 -35.3507
   -35.3492 -35.3491 -35.3491 -35.3490 -35.3468 -35.3467 -35.3467 -35.3466
   -11.9880 -11.9877 -11.9864 -11.9860 -11.9601 -11.9530 -11.9526 -11.9250
   -11.9161 -11.9157 -11.8844 -11.8511 -11.8486 -11.8446 -11.8186 -11.8013
   -11.8002 -11.7956 -11.7913 -11.7904 -11.7879 -11.7841 -11.7818 -11.7805
   -11.7756 -11.7704 -11.7699 -11.7692 -11.7658 -11.7647 -11.7625 -11.7601
   -11.7567 -11.7549 -11.7534 -11.7520 -11.7511 -11.7479 -11.7478 -11.7459
   -11.7423 -11.7422 -11.7407 -11.7377 -11.7375 -11.7336 -11.7326 -11.7315
   -11.7287 -11.7233 -11.7218 -11.7206 -11.7201 -11.7189 -11.7180 -11.7177
   -11.7170 -11.7154 -11.7148 -11.7132 -11.7123 -11.7104 -11.7040 -11.7037
   -11.7026 -11.6995 -11.6985 -11.6969 -11.6958 -11.6947 -11.6917 -11.6871
   -11.6867 -11.6852 -11.6806 -11.6760 -11.6750 -11.6724 -11.6670 -11.6664
    -7.9870  -7.9854  -7.9671  -7.7766  -7.5338  -7.5333  -7.5169  -7.1134
    -6.5155  -6.5123  -6.4988  -6.3807  -6.2939  -6.2898  -6.2741  -1.3337
    -1.2816  -1.2760  -1.2524  -0.8709  -0.8314  -0.8242  -0.8038   0.2308
     0.2392   0.2995   0.3243   0.4329   0.4414   0.5356   0.5985   0.8749
     1.1648   1.1783   1.2712   1.7217   1.8617   1.8713   1.9601   4.9935
     5.0013   5.0685   5.0818   5.0827   5.2085   5.3130   5.3411   6.1277
     6.1574   6.2270   6.2676   6.3640   6.3999   6.4429   6.5218   6.5869
     6.6069   6.6454   6.7823   6.8148   6.8248   6.9091   7.0177   7.0304
     7.0650   7.1369   7.2513   7.2705   7.4982   7.6539   7.7848   8.2035
     8.2578   8.3092   8.3145   8.3771   8.4098   8.4987   8.7362   8.7808
     8.8133   8.8681   8.8919   8.8960   9.0264   9.0818   9.1189   9.1274
     9.3742   9.4021   9.4648   9.4754   9.5078   9.5623   9.5718   9.5889
     9.8006   9.8202   9.8675   9.8839  10.1893  10.2298  10.2711  10.2841
    10.5551  10.6072  10.6382  10.7328  11.3244  12.4890  13.0099  13.0355
    13.1071  13.2028  13.2788  13.4194  13.5059  13.5929  13.6225  13.8921
    13.9781  13.9941  14.1271  14.1606  14.1661  14.1891  14.3255  14.3437
    14.6380  14.7006  14.7021  14.8662  15.0532  15.0578  15.1259  15.1992
    15.3644  15.6732  15.7533  15.8890  15.9531  15.9966  16.0727  16.1716
    16.1884  16.2800  16.2825  16.3322  16.4177  16.4221  16.4486  16.5032
    16.5903  16.6021  16.6610

          k =-0.5000-0.5000 0.0000 ( 29128 PWs)   bands (ev):

   -35.4038 -35.4037 -35.4037 -35.4036 -35.4022 -35.4022 -35.4022 -35.4021
   -35.3910 -35.3910 -35.3910 -35.3909 -35.3909 -35.3909 -35.3909 -35.3908
   -35.3860 -35.3860 -35.3859 -35.3858 -35.3578 -35.3577 -35.3577 -35.3577
   -35.3558 -35.3558 -35.3558 -35.3557 -35.3508 -35.3508 -35.3508 -35.3508
   -35.3491 -35.3491 -35.3491 -35.3490 -35.3468 -35.3467 -35.3467 -35.3467
   -11.9887 -11.9881 -11.9881 -11.9875 -11.9593 -11.9521 -11.9521 -11.9193
   -11.8842 -11.8842 -11.8829 -11.8820 -11.8475 -11.8438 -11.8438 -11.8052
   -11.8017 -11.8017 -11.7957 -11.7820 -11.7777 -11.7776 -11.7776 -11.7745
   -11.7745 -11.7717 -11.7688 -11.7679 -11.7652 -11.7650 -11.7650 -11.7602
   -11.7546 -11.7545 -11.7504 -11.7502 -11.7502 -11.7493 -11.7490 -11.7483
   -11.7441 -11.7406 -11.7406 -11.7372 -11.7365 -11.7365 -11.7355 -11.7352
   -11.7280 -11.7279 -11.7263 -11.7255 -11.7255 -11.7211 -11.7182 -11.7182
   -11.7160 -11.7160 -11.7150 -11.7137 -11.7098 -11.7098 -11.7094 -11.7091
   -11.7032 -11.7032 -11.6988 -11.6967 -11.6907 -11.6903 -11.6899 -11.6899
   -11.6890 -11.6807 -11.6807 -11.6803 -11.6749 -11.6749 -11.6682 -11.6660
    -7.7972  -7.7892  -7.7891  -7.7861  -7.7764  -7.7488  -7.7487  -7.1605
    -6.3803  -6.3733  -6.3733  -6.3730  -6.3594  -6.3594  -6.3572  -1.2535
    -1.2457  -1.2457  -1.2237  -0.9786  -0.8654  -0.8652  -0.8652   0.1919
     0.2478   0.2478   0.2921   0.4236   0.5083   0.5083   0.5525   0.8703
     1.4780   1.5156   1.5156   1.5600   1.6718   1.7749   1.7750   4.8421
     4.9016   4.9117   4.9117   5.1991   5.2970   5.3762   5.3762   6.2679
     6.3559   6.3859   6.3859   6.4012   6.4552   6.4553   6.5141   6.5170
     6.6935   6.7903   6.7903   6.8354   6.8453   6.8453   6.9107   6.9860
     7.1625   7.2143   7.2143   7.3735   7.3963   7.4383   7.4383   7.4398
     7.9543   7.9543   8.1611   8.8995   8.8995   8.9005   8.9245   8.9280
     8.9280   8.9295   8.9412   8.9566   8.9977   9.0146   9.0146   9.0291
     9.2219   9.2796   9.2796   9.2911   9.2937   9.4015   9.4015   9.4182
    10.1475  10.1475  10.2310  10.2598  10.4065  10.4065  10.4104  10.4254
    10.4663  10.6290  10.6290  10.7085  10.9575  12.2496  12.2496  12.2892
    12.8376  13.2359  13.2797  13.2797  13.7851  13.9040  13.9040  13.9418
    14.1207  14.1701  14.2972  14.2973  14.4370  14.4659  14.4659  14.5899
    14.6088  14.7120  14.7121  14.7129  15.0810  15.0810  15.2649  15.4532
    15.5604  15.5604  15.6055  15.6155  15.8626  15.8626  15.8682  16.1369
    16.1680  16.1884  16.1884  16.1925  16.2062  16.5893  16.5893  16.6811
    16.6904  16.6998  16.6998

          k =-0.5000-0.5000 0.1065 ( 29144 PWs)   bands (ev):

   -35.4038 -35.4038 -35.4037 -35.4036 -35.4023 -35.4023 -35.4022 -35.4022
   -35.3911 -35.3911 -35.3910 -35.3910 -35.3909 -35.3909 -35.3909 -35.3908
   -35.3859 -35.3859 -35.3858 -35.3857 -35.3578 -35.3578 -35.3577 -35.3577
   -35.3559 -35.3559 -35.3558 -35.3558 -35.3509 -35.3509 -35.3508 -35.3508
   -35.3491 -35.3491 -35.3491 -35.3490 -35.3467 -35.3466 -35.3466 -35.3465
   -11.9885 -11.9880 -11.9880 -11.9874 -11.9595 -11.9523 -11.9523 -11.9192
   -11.8837 -11.8837 -11.8824 -11.8824 -11.8487 -11.8449 -11.8448 -11.8041
   -11.8008 -11.8008 -11.7948 -11.7836 -11.7778 -11.7778 -11.7777 -11.7754
   -11.7754 -11.7719 -11.7694 -11.7680 -11.7646 -11.7645 -11.7645 -11.7602
   -11.7547 -11.7547 -11.7505 -11.7503 -11.7503 -11.7500 -11.7496 -11.7477
   -11.7432 -11.7409 -11.7409 -11.7385 -11.7362 -11.7362 -11.7355 -11.7347
   -11.7295 -11.7257 -11.7250 -11.7245 -11.7245 -11.7202 -11.7180 -11.7179
   -11.7158 -11.7158 -11.7147 -11.7140 -11.7096 -11.7096 -11.7094 -11.7093
   -11.7036 -11.7036 -11.6987 -11.6969 -11.6909 -11.6903 -11.6902 -11.6902
   -11.6891 -11.6810 -11.6809 -11.6807 -11.6751 -11.6751 -11.6683 -11.6663
    -7.7958  -7.7885  -7.7885  -7.7861  -7.7778  -7.7495  -7.7494  -7.1605
    -6.3803  -6.3732  -6.3732  -6.3729  -6.3595  -6.3595  -6.3573  -1.2327
    -1.2251  -1.2251  -1.2137  -0.9911  -0.8994  -0.8980  -0.8980   0.2170
     0.2692   0.2692   0.2971   0.4151   0.5024   0.5024   0.5496   0.8698
     1.4882   1.5238   1.5238   1.5612   1.6577   1.7628   1.7628   4.8640
     4.9184   4.9284   4.9284   5.1735   5.2754   5.3559   5.3559   6.2896
     6.3868   6.4013   6.4013   6.4148   6.4784   6.4784   6.4804   6.5781
     6.6564   6.7247   6.7247   6.8622   6.8893   6.8893   6.8931   6.9798
     7.0452   7.0699   7.0699   7.1153   7.4373   7.5591   7.5591   7.7474
     8.0124   8.0124   8.1891   8.8379   8.8410   8.8410   8.9181   8.9240
     8.9271   8.9271   8.9343   8.9537   9.0224   9.0378   9.0378   9.0566
     9.2687   9.2812   9.3303   9.3303   9.3466   9.3751   9.3751   9.3918
    10.0818  10.0818  10.1183  10.1736  10.4067  10.4067  10.4197  10.4677
    10.4820  10.6171  10.6172  10.6925  11.0113  12.3660  12.3660  12.4091
    12.6968  13.3004  13.3004  13.3213  13.8235  13.8254  13.8292  13.8292
    14.0799  14.2229  14.2229  14.2654  14.3855  14.4362  14.4363  14.5962
    14.6115  14.6629  14.6629  14.6793  15.1613  15.1613  15.2268  15.4959
    15.5071  15.5580  15.5580  15.6037  15.8954  15.8954  15.9766  16.0773
    16.1636  16.2288  16.2288  16.2475  16.2786  16.5512  16.5512  16.6535
    16.6557  16.6713  16.6714

          k =-0.5000-0.5000 0.2129 ( 29112 PWs)   bands (ev):

   -35.4037 -35.4037 -35.4036 -35.4035 -35.4023 -35.4022 -35.4022 -35.4021
   -35.3910 -35.3910 -35.3910 -35.3909 -35.3909 -35.3908 -35.3908 -35.3908
   -35.3859 -35.3859 -35.3858 -35.3857 -35.3578 -35.3577 -35.3577 -35.3576
   -35.3559 -35.3558 -35.3558 -35.3557 -35.3509 -35.3508 -35.3508 -35.3507
   -35.3491 -35.3491 -35.3490 -35.3490 -35.3467 -35.3466 -35.3466 -35.3465
   -11.9880 -11.9876 -11.9876 -11.9873 -11.9601 -11.9528 -11.9528 -11.9192
   -11.8830 -11.8828 -11.8828 -11.8812 -11.8510 -11.8469 -11.8469 -11.8014
   -11.7989 -11.7989 -11.7929 -11.7874 -11.7791 -11.7791 -11.7774 -11.7764
   -11.7764 -11.7734 -11.7708 -11.7665 -11.7638 -11.7635 -11.7634 -11.7604
   -11.7550 -11.7549 -11.7515 -11.7507 -11.7503 -11.7503 -11.7500 -11.7467
   -11.7416 -11.7415 -11.7415 -11.7405 -11.7354 -11.7354 -11.7354 -11.7338
   -11.7304 -11.7241 -11.7226 -11.7226 -11.7226 -11.7183 -11.7173 -11.7173
   -11.7157 -11.7157 -11.7151 -11.7132 -11.7102 -11.7091 -11.7090 -11.7090
   -11.7045 -11.7044 -11.6986 -11.6972 -11.6922 -11.6910 -11.6910 -11.6895
   -11.6893 -11.6818 -11.6814 -11.6814 -11.6754 -11.6754 -11.6684 -11.6668
    -7.7922  -7.7871  -7.7871  -7.7860  -7.7815  -7.7509  -7.7509  -7.1606
    -6.3803  -6.3730  -6.3730  -6.3727  -6.3596  -6.3596  -6.3574  -1.1896
    -1.1731  -1.1665  -1.1664  -1.0202  -0.9837  -0.9797  -0.9796   0.2747
     0.3073   0.3146   0.3147   0.3889   0.4868   0.4868   0.5434   0.8689
     1.5171   1.5436   1.5436   1.5636   1.6212   1.7351   1.7351   4.9243
     4.9597   4.9674   4.9674   5.1056   5.2248   5.3096   5.3096   6.3281
     6.4473   6.4473   6.4525   6.4805   6.5054   6.5381   6.5381   6.5862
     6.6356   6.6357   6.6452   6.8299   6.8454   6.8719   6.8719   6.8779
     6.9069   6.9343   6.9343   6.9712   7.4887   7.6640   7.6640   8.0811
     8.1911   8.1911   8.2585   8.6596   8.6796   8.6796   8.8797   8.9232
     8.9260   8.9260   8.9318   8.9512   9.0736   9.1019   9.1020   9.1281
     9.2201   9.2966   9.2966   9.3205   9.4322   9.4788   9.4788   9.5011
     9.9048   9.9082   9.9082   9.9668  10.4166  10.4166  10.4428  10.4979
    10.5254  10.5937  10.5937  10.6475  11.1309  12.4604  12.6611  12.6611
    12.7147  13.3020  13.3020  13.4797  13.5137  13.6148  13.6148  13.9329
    13.9591  14.1223  14.1223  14.2535  14.3737  14.3737  14.4667  14.6102
    14.6159  14.6297  14.6297  14.6414  15.1719  15.2384  15.2384  15.3364
    15.5444  15.5541  15.5542  15.5799  15.9821  15.9821  15.9843  16.1753
    16.2506  16.3337  16.3337  16.3421  16.3506  16.4640  16.4641  16.5544
    16.5833  16.5907  16.5915

          k =-0.5000-0.5000-0.3194 ( 29216 PWs)   bands (ev):

   -35.4038 -35.4038 -35.4037 -35.4036 -35.4024 -35.4024 -35.4024 -35.4023
   -35.3912 -35.3912 -35.3911 -35.3911 -35.3910 -35.3910 -35.3910 -35.3909
   -35.3861 -35.3860 -35.3860 -35.3859 -35.3578 -35.3578 -35.3578 -35.3577
   -35.3560 -35.3560 -35.3560 -35.3559 -35.3510 -35.3509 -35.3509 -35.3509
   -35.3493 -35.3492 -35.3492 -35.3491 -35.3469 -35.3468 -35.3468 -35.3467
   -11.9878 -11.9875 -11.9874 -11.9872 -11.9604 -11.9530 -11.9530 -11.9192
   -11.8834 -11.8823 -11.8823 -11.8807 -11.8522 -11.8481 -11.8481 -11.7995
   -11.7978 -11.7978 -11.7918 -11.7898 -11.7804 -11.7803 -11.7774 -11.7766
   -11.7766 -11.7750 -11.7709 -11.7659 -11.7635 -11.7630 -11.7630 -11.7606
   -11.7551 -11.7551 -11.7521 -11.7507 -11.7504 -11.7504 -11.7502 -11.7463
   -11.7418 -11.7418 -11.7416 -11.7408 -11.7354 -11.7350 -11.7350 -11.7333
   -11.7309 -11.7237 -11.7218 -11.7218 -11.7215 -11.7174 -11.7170 -11.7170
   -11.7157 -11.7157 -11.7155 -11.7121 -11.7113 -11.7090 -11.7084 -11.7084
   -11.7051 -11.7051 -11.6987 -11.6975 -11.6929 -11.6914 -11.6914 -11.6894
   -11.6889 -11.6824 -11.6817 -11.6817 -11.6756 -11.6756 -11.6686 -11.6671
    -7.7883  -7.7864  -7.7863  -7.7860  -7.7855  -7.7517  -7.7517  -7.1606
    -6.3803  -6.3730  -6.3730  -6.3727  -6.3597  -6.3597  -6.3575  -1.1739
    -1.0876  -1.0876  -1.0865  -1.0821  -1.0694  -1.0694  -1.0384   0.3126
     0.3228   0.3403   0.3403   0.3559   0.4755   0.4756   0.5401   0.8684
     1.5461   1.5563   1.5563   1.5649   1.5884   1.7184   1.7184   4.9874
     4.9914   4.9914   4.9929   5.0334   5.1924   5.2820   5.2820   6.3402
     6.5068   6.5107   6.5107   6.5175   6.5261   6.5261   6.6104   6.6119
     6.6309   6.6325   6.6325   6.6412   6.7634   6.7634   6.7677   6.8189
     6.9366   6.9442   6.9442   6.9504   7.5006   7.6931   7.6932   8.3008
     8.3918   8.3918   8.3932   8.3979   8.4928   8.4928   8.8543   8.9229
     8.9256   8.9256   8.9313   8.9505   9.1088   9.1770   9.1770   9.1848
     9.2165   9.2165   9.2216   9.2266   9.6002   9.6543   9.6543   9.7157
     9.7181   9.7182   9.7218   9.7233  10.4250  10.4250  10.4580  10.5009
    10.5811  10.5812  10.5844  10.5874  11.2006  12.3449  12.9801  12.9801
    13.0952  13.0973  13.0974  13.1277  13.5336  13.5337  13.5939  13.8550
    14.0818  14.0818  14.0836  14.0920  14.3446  14.3446  14.5962  14.6020
    14.6219  14.6246  14.6246  14.6264  15.1720  15.2184  15.2563  15.2563
    15.5517  15.5517  15.5583  15.5658  15.9580  16.0431  16.0431  16.2773
    16.3725  16.3792  16.3960  16.3971  16.4043  16.4408  16.4596  16.4637
    16.4727  16.4761  16.4898

     the Fermi energy is    11.6823 ev

!    total energy              =  -18126.65228698 Ry
     total all-electron energy =   -729913.055264 Ry
     estimated scf accuracy    <          1.8E-11 Ry
     smearing contrib. (-TS)   =       0.00265962 Ry
     internal energy E=F+TS    =  -18126.65494660 Ry

     The total energy is F=E-TS. E is the sum of the following terms:
     one-electron contribution =   -2225.79295540 Ry
     hartree contribution      =    1420.19565500 Ry
     xc contribution           =    -851.76789386 Ry
     ewald contribution        =   -3300.12921949 Ry
     one-center paw contrib.   =  -13169.16053285 Ry

     convergence has been achieved in  12 iterations

     Forces acting on atoms (cartesian axes, Ry/au):

     atom    1 type  1   force =     0.00000000   -0.00063828   -0.00178186
     atom    2 type  1   force =     0.00000000    0.00042737    0.00047661
     atom    3 type  1   force =    -0.00042737    0.00000000   -0.00047661
     atom    4 type  1   force =     0.00063828    0.00000000    0.00178186
     atom    5 type  1   force =     0.00000000    0.00063828   -0.00178186
     atom    6 type  1   force =     0.00000000   -0.00042737    0.00047661
     atom    7 type  1   force =     0.00000000   -0.00356613   -0.00147257
     atom    8 type  1   force =     0.00000000    0.00015073   -0.00099167
     atom    9 type  1   force =    -0.00015073    0.00000000    0.00099167
     atom   10 type  1   force =     0.00356613    0.00000000    0.00147257
     atom   11 type  1   force =     0.00042737    0.00000000   -0.00047661
     atom   12 type  1   force =    -0.00063828    0.00000000    0.00178186
     atom   13 type  1   force =     0.00000000    0.00356613   -0.00147257
     atom   14 type  1   force =     0.00000000   -0.00015073   -0.00099167
     atom   15 type  1   force =     0.00015073    0.00000000    0.00099167
     atom   16 type  1   force =    -0.00356613    0.00000000    0.00147257
     atom   17 type  3   force =     0.00000000   -0.00216668    0.00337226
     atom   18 type  3   force =     0.00216668    0.00000000   -0.00337226
     atom   19 type  3   force =     0.00000000    0.00216668    0.00337226
     atom   20 type  3   force =     0.00000000   -0.00069212   -0.00049472
     atom   21 type  3   force =     0.00069212    0.00000000    0.00049472
     atom   22 type  3   force =    -0.00216668    0.00000000   -0.00337226
     atom   23 type  3   force =     0.00000000    0.00069212   -0.00049472
     atom   24 type  3   force =    -0.00069212    0.00000000    0.00049472
     atom   25 type  2   force =     0.00000000    0.00000000    0.00000000
     atom   26 type  2   force =     0.00000000    0.00000000   -0.00000604
     atom   27 type  2   force =     0.00000000    0.00000000   -0.00287510
     atom   28 type  2   force =     0.00000000    0.00000000    0.00000000
     atom   29 type  2   force =     0.00062815    0.00062815   -0.00000000
     atom   30 type  2   force =    -0.00024150    0.00024150    0.00000000
     atom   31 type  2   force =    -0.00062815    0.00062815   -0.00000000
     atom   32 type  2   force =     0.00024150    0.00024150    0.00000000
     atom   33 type  2   force =    -0.00024150   -0.00024150    0.00000000
     atom   34 type  2   force =    -0.00062815   -0.00062815   -0.00000000
     atom   35 type  2   force =     0.00000000    0.00000000    0.00287510
     atom   36 type  2   force =     0.00000000    0.00000000    0.00000604
     atom   37 type  2   force =     0.00000000    0.00000000    0.00000000
     atom   38 type  2   force =     0.00024150   -0.00024150    0.00000000
     atom   39 type  2   force =     0.00062815   -0.00062815   -0.00000000

     Total force =     0.012917     Total SCF correction =     0.000022


     Computing stress (Cartesian axis) and pressure

          total   stress  (Ry/bohr**3)                   (kbar)     P=       -3.28
  -0.00002124   0.00000000   0.00000000           -3.13        0.00        0.00
   0.00000000  -0.00002124   0.00000000            0.00       -3.13        0.00
   0.00000000   0.00000000  -0.00002449            0.00        0.00       -3.60

     Energy error            =      7.3E-04 Ry
     Gradient error          =      3.6E-03 Ry/Bohr

     number of scf cycles    =   4
     number of bfgs steps    =   3

     energy             old  =  -18126.6515555507 Ry
     energy             new  =  -18126.6522869766 Ry

     CASE: energy            _new < energy            _old

     new trust radius        =       0.0264141785 bohr
     new conv_thr            =            7.8E-11 Ry


ATOMIC_POSITIONS (crystal)
Bi               0.0000000000       -0.0003441006        0.3547219754
Bi               0.0000000000       -0.0007110606        0.6452713835
Bi               0.2507111389        0.2500000783        0.8547285636
Bi               0.2503441789        0.2500000783        0.1452780620
Bi               0.0000000000        0.5003441279        0.3547219754
Bi               0.0000000000        0.5007110879        0.6452713835
Bi               0.5000000273       -0.0044963698        0.3545154689
Bi               0.5000000273       -0.0004390854        0.6447625049
Bi               0.2504391637        0.7499999763        0.8552374422
Bi               0.2544964481        0.7499999763        0.1454845685
Bi               0.7492889157        0.2500000783        0.8547285636
Bi               0.7496558757        0.2500000783        0.1452780620
Bi               0.5000000273        0.5044963971        0.3545154689
Bi               0.5000000273        0.5004391127        0.6447625049
Bi               0.7495608909        0.7499999763        0.8552374422
Bi               0.7455036065        0.7499999763        0.1454845685
Se               0.0000000000       -0.0015942455        0.0017949591
Se               0.2515943238        0.2500000783        0.4982050783
Se               0.0000000000        0.5015942728        0.0017949591
Se               0.5000000273       -0.0003934467       -0.0001462645
Se               0.2503935250        0.7499999763        0.5001463019
Se               0.7484057308        0.2500000783        0.4982050783
Se               0.5000000273        0.5003934740       -0.0001462645
Se               0.7496065296        0.7499999763        0.5001463019
O                0.0000000000        0.2500000783        0.2499999774
O                0.0000000000        0.7499999763        0.7499412144
O                0.0000000000        0.7499999763        0.2483220468
O                0.0000000000        0.2500000783        0.7500000148
O                0.7510806130        0.0010806367        0.2499999774
O                0.2495983234        0.0004017549        0.7500000148
O                0.2489194416        0.0010806367        0.2499999774
O                0.7504017312        0.0004017549        0.7500000148
O                0.2495983234        0.4995982724        0.7500000148
O                0.2489194416        0.4989193906        0.2499999774
O                0.5000000273        0.2500000783        0.2516779080
O                0.5000000273        0.2500000783        0.7500588152
O                0.5000000273        0.7499999763        0.7500000148
O                0.7504017312        0.4995982724        0.7500000148
O                0.7510806130        0.4989193906        0.2499999774



     Writing config-only to output data dir ./out/voxy.save/ :
     XML data file
     NEW-OLD atomic charge density approx. for the potential

     total cpu time spent up to now is     2291.5 secs

     Self-consistent Calculation

     iteration #  1     ecut=    50.00 Ry     beta= 0.40
     Davidson diagonalization with overlap
     ethr =  1.00E-06,  avg # of iterations =  6.3

     total cpu time spent up to now is     2352.9 secs

     total energy              =  -18126.65360954 Ry
     estimated scf accuracy    <       0.00051245 Ry

     iteration #  2     ecut=    50.00 Ry     beta= 0.40
     Davidson diagonalization with overlap
     ethr =  1.12E-07,  avg # of iterations =  3.2

     total cpu time spent up to now is     2382.9 secs

     total energy              =  -18126.65337077 Ry
     estimated scf accuracy    <       0.00071636 Ry

     iteration #  3     ecut=    50.00 Ry     beta= 0.40
     Davidson diagonalization with overlap
     ethr =  1.12E-07,  avg # of iterations =  2.0

     total cpu time spent up to now is     2407.0 secs

     total energy              =  -18126.65318842 Ry
     estimated scf accuracy    <       0.00021607 Ry

     iteration #  4     ecut=    50.00 Ry     beta= 0.40
     Davidson diagonalization with overlap
     ethr =  4.72E-08,  avg # of iterations =  2.0

     total cpu time spent up to now is     2430.8 secs

     total energy              =  -18126.65299733 Ry
     estimated scf accuracy    <       0.00001900 Ry

     iteration #  5     ecut=    50.00 Ry     beta= 0.40
     Davidson diagonalization with overlap
     ethr =  4.15E-09,  avg # of iterations =  4.0

     total cpu time spent up to now is     2461.0 secs

     total energy              =  -18126.65290064 Ry
     estimated scf accuracy    <       0.00000732 Ry

     iteration #  6     ecut=    50.00 Ry     beta= 0.40
     Davidson diagonalization with overlap
     ethr =  1.60E-09,  avg # of iterations =  4.0

     total cpu time spent up to now is     2492.6 secs

     total energy              =  -18126.65286246 Ry
     estimated scf accuracy    <       0.00000291 Ry

     iteration #  7     ecut=    50.00 Ry     beta= 0.40
     Davidson diagonalization with overlap
     ethr =  6.36E-10,  avg # of iterations =  3.0

     total cpu time spent up to now is     2522.6 secs

     total energy              =  -18126.65286027 Ry
     estimated scf accuracy    <       0.00000042 Ry

     iteration #  8     ecut=    50.00 Ry     beta= 0.40
     Davidson diagonalization with overlap
     ethr =  9.19E-11,  avg # of iterations =  3.8

     total cpu time spent up to now is     2553.5 secs

     total energy              =  -18126.65286010 Ry
     estimated scf accuracy    <       0.00000007 Ry

     iteration #  9     ecut=    50.00 Ry     beta= 0.40
     Davidson diagonalization with overlap
     ethr =  1.46E-11,  avg # of iterations =  4.0

     total cpu time spent up to now is     2587.2 secs

     total energy              =  -18126.65286010 Ry
     estimated scf accuracy    <       0.00000001 Ry

     iteration # 10     ecut=    50.00 Ry     beta= 0.40
     Davidson diagonalization with overlap
     ethr =  2.28E-12,  avg # of iterations =  2.3

     total cpu time spent up to now is     2615.8 secs

     total energy              =  -18126.65286010 Ry
     estimated scf accuracy    <          2.7E-09 Ry

     iteration # 11     ecut=    50.00 Ry     beta= 0.40
     Davidson diagonalization with overlap
     ethr =  5.93E-13,  avg # of iterations =  3.5

     total cpu time spent up to now is     2645.6 secs

     total energy              =  -18126.65286010 Ry
     estimated scf accuracy    <          5.9E-10 Ry

     iteration # 12     ecut=    50.00 Ry     beta= 0.40
     Davidson diagonalization with overlap
     ethr =  1.29E-13,  avg # of iterations =  3.8

     total cpu time spent up to now is     2674.2 secs

     total energy              =  -18126.65286010 Ry
     estimated scf accuracy    <          8.6E-11 Ry

     iteration # 13     ecut=    50.00 Ry     beta= 0.40
     Davidson diagonalization with overlap
     ethr =  1.00E-13,  avg # of iterations =  2.0

     total cpu time spent up to now is     2697.9 secs

     total energy              =  -18126.65286010 Ry
     estimated scf accuracy    <          1.6E-10 Ry

     iteration # 14     ecut=    50.00 Ry     beta= 0.40
     Davidson diagonalization with overlap
     ethr =  1.00E-13,  avg # of iterations =  1.1

     total cpu time spent up to now is     2719.1 secs

     End of self-consistent calculation

          k = 0.0000 0.0000 0.0000 ( 29231 PWs)   bands (ev):

   -35.3897 -35.3897 -35.3897 -35.3896 -35.3884 -35.3884 -35.3883 -35.3882
   -35.3776 -35.3776 -35.3775 -35.3774 -35.3768 -35.3767 -35.3767 -35.3766
   -35.3721 -35.3721 -35.3720 -35.3719 -35.3702 -35.3702 -35.3702 -35.3701
   -35.3686 -35.3685 -35.3685 -35.3684 -35.3632 -35.3632 -35.3631 -35.3630
   -35.3618 -35.3618 -35.3617 -35.3617 -35.3594 -35.3594 -35.3594 -35.3593
   -12.0131 -12.0089 -12.0060 -11.9721 -11.9641 -11.9447 -11.9438 -11.9438
   -11.9423 -11.9375 -11.9079 -11.9079 -11.8831 -11.8192 -11.8071 -11.8070
   -11.8050 -11.8035 -11.8027 -11.8027 -11.7984 -11.7869 -11.7869 -11.7868
   -11.7862 -11.7836 -11.7823 -11.7823 -11.7626 -11.7616 -11.7616 -11.7543
   -11.7543 -11.7517 -11.7507 -11.7507 -11.7500 -11.7476 -11.7467 -11.7404
   -11.7383 -11.7378 -11.7372 -11.7372 -11.7344 -11.7328 -11.7328 -11.7311
   -11.7304 -11.7304 -11.7283 -11.7211 -11.7197 -11.7197 -11.7178 -11.7157
   -11.7156 -11.7142 -11.7142 -11.7131 -11.7091 -11.7029 -11.6981 -11.6923
   -11.6883 -11.6883 -11.6865 -11.6839 -11.6838 -11.6836 -11.6814 -11.6812
   -11.6812 -11.6737 -11.6669 -11.6637 -11.6637 -11.6577 -11.6561 -11.6561
    -8.5959  -8.3885  -7.1588  -7.1588  -7.1459  -7.1447  -7.1437  -7.1437
    -7.0424  -6.8457  -6.7998  -6.7796  -6.7763  -6.0679  -5.9411  -2.1236
    -1.5562  -0.6328  -0.6275  -0.6275  -0.6221  -0.2530  -0.2529  -0.0453
    -0.0453   0.0406   0.0539   0.2357   0.2357   0.4146   0.4235   0.4235
     0.8414   1.1217   1.1331   1.1331   1.4566   2.3689   3.1774   5.3499
     5.3895   5.3895   5.4598   5.5961   5.5961   5.6971   5.9265   5.9543
     5.9577   5.9577   6.0489   6.1117   6.1481   6.1481   6.3438   6.3439
     6.3643   6.7654   6.7997   6.8177   6.8178   6.8249   6.8474   6.9392
     6.9392   6.9585   7.2608   7.2608   7.3859   7.4551   7.5016   7.7041
     7.7042   8.1219   8.3286   8.4087   8.4087   8.4358   8.4750   8.4754
     8.4755   8.8079   8.9417   8.9557   8.9557   9.0809   9.2084   9.2084
     9.5479   9.7669   9.7675   9.7675   9.7698   9.8458   9.8458  10.0025
    10.0026  10.1115  10.2535  10.2535  10.5291  10.5291  10.5478  10.6126
    10.7759  10.8517  10.8522  10.8618  10.8619  11.5814  11.8033  12.0316
    12.7940  12.8936  13.1603  13.1603  13.6264  13.6264  13.8883  14.0124
    14.0124  14.1143  14.3584  14.3584  14.4874  14.5001  14.5735  14.6071
    14.7576  14.7577  14.9895  15.0984  15.1007  15.3270  15.3270  15.4405
    15.5834  15.6276  15.7545  15.7546  15.7940  15.7940  15.7964  15.8176
    15.8975  15.9603  15.9603  15.9796  16.2221  16.2221  16.3324  16.6799
    16.9942  17.1248  17.1248

          k = 0.0000 0.0000 0.1065 ( 29155 PWs)   bands (ev):

   -35.3897 -35.3896 -35.3896 -35.3895 -35.3883 -35.3883 -35.3883 -35.3882
   -35.3775 -35.3774 -35.3774 -35.3773 -35.3767 -35.3766 -35.3766 -35.3765
   -35.3721 -35.3720 -35.3719 -35.3718 -35.3702 -35.3701 -35.3701 -35.3700
   -35.3685 -35.3684 -35.3684 -35.3683 -35.3630 -35.3630 -35.3630 -35.3629
   -35.3617 -35.3617 -35.3616 -35.3616 -35.3595 -35.3594 -35.3593 -35.3591
   -12.0130 -12.0082 -12.0056 -11.9728 -11.9641 -11.9452 -11.9437 -11.9437
   -11.9419 -11.9377 -11.9080 -11.9080 -11.8832 -11.8182 -11.8066 -11.8066
   -11.8049 -11.8033 -11.8023 -11.8023 -11.7982 -11.7868 -11.7868 -11.7868
   -11.7862 -11.7857 -11.7822 -11.7822 -11.7633 -11.7629 -11.7629 -11.7554
   -11.7554 -11.7521 -11.7515 -11.7515 -11.7493 -11.7479 -11.7469 -11.7418
   -11.7377 -11.7370 -11.7369 -11.7369 -11.7336 -11.7321 -11.7321 -11.7301
   -11.7287 -11.7287 -11.7264 -11.7208 -11.7200 -11.7200 -11.7176 -11.7156
   -11.7155 -11.7136 -11.7136 -11.7125 -11.7090 -11.7037 -11.6980 -11.6928
   -11.6885 -11.6885 -11.6868 -11.6841 -11.6841 -11.6839 -11.6815 -11.6812
   -11.6812 -11.6738 -11.6672 -11.6638 -11.6638 -11.6577 -11.6561 -11.6561
    -8.5958  -8.3886  -7.1579  -7.1579  -7.1458  -7.1447  -7.1446  -7.1446
    -7.0425  -6.8457  -6.7995  -6.7799  -6.7763  -6.0679  -5.9411  -2.0954
    -1.6104  -0.6329  -0.6264  -0.6264  -0.6214  -0.2454  -0.2453  -0.0606
    -0.0606   0.0229   0.1561   0.2431   0.2432   0.4143   0.4213   0.4213
     0.8397   1.1136   1.1351   1.1352   1.3431   2.4621   3.1484   5.3772
     5.3920   5.3920   5.4820   5.5906   5.5906   5.6610   5.8670   5.8935
     5.9436   5.9436   6.0803   6.1497   6.1497   6.1724   6.3725   6.3725
     6.3783   6.7659   6.8007   6.8177   6.8177   6.8238   6.8467   6.8903
     6.8903   6.9071   7.2857   7.2857   7.4008   7.5352   7.5582   7.7245
     7.7245   8.1220   8.3261   8.4162   8.4162   8.4574   8.4820   8.4820
     8.5088   8.7378   8.8223   8.9556   8.9556   9.0099   9.2084   9.2084
     9.5456   9.7545   9.7560   9.7561   9.7827   9.8685   9.8685   9.9774
     9.9775  10.1322  10.2215  10.2215  10.5282  10.5282  10.5403  10.6117
    10.8052  10.8515  10.8531  10.8621  10.8621  11.6885  11.9571  11.9915
    12.7463  12.9627  13.1807  13.1807  13.6150  13.6150  13.7429  14.0863
    14.0864  14.1169  14.1278  14.3714  14.3715  14.4833  14.4979  14.7257
    14.7519  14.7519  14.9234  15.1835  15.2968  15.2968  15.3243  15.4970
    15.4970  15.5252  15.5426  15.6716  15.7714  15.7714  15.8037  15.8236
    15.9525  15.9890  16.1743  16.1743  16.2936  16.2936  16.3544  16.6515
    16.9441  17.1050  17.1050

          k = 0.0000 0.0000 0.2129 ( 29220 PWs)   bands (ev):

   -35.3898 -35.3897 -35.3897 -35.3896 -35.3885 -35.3884 -35.3884 -35.3883
   -35.3776 -35.3775 -35.3774 -35.3773 -35.3768 -35.3767 -35.3766 -35.3766
   -35.3721 -35.3719 -35.3719 -35.3718 -35.3703 -35.3703 -35.3702 -35.3702
   -35.3686 -35.3686 -35.3685 -35.3684 -35.3631 -35.3631 -35.3630 -35.3630
   -35.3618 -35.3617 -35.3617 -35.3616 -35.3594 -35.3593 -35.3592 -35.3592
   -12.0130 -12.0069 -12.0051 -11.9746 -11.9641 -11.9461 -11.9436 -11.9436
   -11.9413 -11.9383 -11.9083 -11.9083 -11.8834 -11.8158 -11.8056 -11.8056
   -11.8047 -11.8036 -11.8015 -11.8015 -11.7976 -11.7900 -11.7867 -11.7865
   -11.7865 -11.7861 -11.7821 -11.7821 -11.7653 -11.7653 -11.7644 -11.7578
   -11.7578 -11.7540 -11.7529 -11.7529 -11.7484 -11.7482 -11.7473 -11.7435
   -11.7377 -11.7366 -11.7365 -11.7338 -11.7321 -11.7304 -11.7304 -11.7290
   -11.7262 -11.7262 -11.7228 -11.7203 -11.7203 -11.7202 -11.7174 -11.7155
   -11.7154 -11.7125 -11.7125 -11.7113 -11.7091 -11.7056 -11.6981 -11.6942
   -11.6889 -11.6888 -11.6874 -11.6847 -11.6847 -11.6847 -11.6818 -11.6814
   -11.6814 -11.6739 -11.6681 -11.6640 -11.6640 -11.6578 -11.6562 -11.6562
    -8.5955  -8.3890  -7.1557  -7.1557  -7.1468  -7.1468  -7.1455  -7.1446
    -7.0428  -6.8456  -6.7990  -6.7805  -6.7764  -6.0679  -5.9411  -2.0142
    -1.7390  -0.6333  -0.6243  -0.6242  -0.6201  -0.2262  -0.2262  -0.0937
    -0.0937   0.0230   0.2563   0.2563   0.3423   0.4170   0.4171   0.4426
     0.8339   1.0095   1.1391   1.1392   1.1846   2.6400   3.0697   5.3974
     5.3974   5.4568   5.5386   5.5794   5.5794   5.6101   5.7302   5.8071
     5.9207   5.9207   6.0371   6.1395   6.1396   6.3204   6.4654   6.4654
     6.4753   6.7670   6.7695   6.7695   6.7721   6.8031   6.8182   6.8182
     6.8213   6.8454   7.2909   7.3323   7.3323   7.7640   7.7640   7.7772
     7.8217   8.1221   8.3118   8.4282   8.4282   8.4756   8.4987   8.4987
     8.5284   8.5305   8.6146   8.8807   8.9553   8.9553   9.2084   9.2084
     9.5434   9.7332   9.7332   9.7360   9.8394   9.9214   9.9215   9.9368
     9.9368  10.0915  10.1391  10.1391  10.5269  10.5269  10.5556  10.6077
    10.8517  10.8543  10.8626  10.8627  10.8961  11.7975  12.0466  12.3554
    12.6274  13.0800  13.2280  13.2280  13.4711  13.5031  13.5838  13.5838
    14.2277  14.2920  14.2920  14.3985  14.3985  14.4745  14.4914  14.7348
    14.7348  14.7824  14.9093  15.0358  15.0358  15.0419  15.3510  15.3620
    15.3620  15.5033  15.6996  15.7874  15.7874  15.8126  15.8334  15.9614
    16.1052  16.1608  16.2092  16.2093  16.4177  16.5678  16.5678  16.5736
    16.7593  17.0346  17.0491

          k = 0.0000 0.0000-0.3194 ( 29204 PWs)   bands (ev):

   -35.3897 -35.3897 -35.3897 -35.3896 -35.3884 -35.3884 -35.3883 -35.3882
   -35.3775 -35.3774 -35.3773 -35.3773 -35.3767 -35.3766 -35.3766 -35.3765
   -35.3721 -35.3720 -35.3719 -35.3719 -35.3702 -35.3702 -35.3702 -35.3701
   -35.3685 -35.3685 -35.3684 -35.3684 -35.3631 -35.3630 -35.3629 -35.3629
   -35.3617 -35.3617 -35.3616 -35.3616 -35.3595 -35.3593 -35.3593 -35.3592
   -12.0130 -12.0063 -12.0049 -11.9755 -11.9641 -11.9466 -11.9436 -11.9436
   -11.9410 -11.9386 -11.9085 -11.9085 -11.8835 -11.8142 -11.8052 -11.8051
   -11.8045 -11.8042 -11.8012 -11.8012 -11.7973 -11.7920 -11.7867 -11.7864
   -11.7864 -11.7860 -11.7820 -11.7820 -11.7664 -11.7664 -11.7649 -11.7589
   -11.7589 -11.7552 -11.7535 -11.7535 -11.7486 -11.7474 -11.7474 -11.7445
   -11.7377 -11.7364 -11.7364 -11.7313 -11.7313 -11.7295 -11.7295 -11.7291
   -11.7251 -11.7251 -11.7213 -11.7204 -11.7204 -11.7198 -11.7173 -11.7154
   -11.7153 -11.7119 -11.7119 -11.7103 -11.7090 -11.7071 -11.6981 -11.6948
   -11.6891 -11.6890 -11.6877 -11.6851 -11.6850 -11.6849 -11.6819 -11.6815
   -11.6814 -11.6739 -11.6684 -11.6641 -11.6641 -11.6578 -11.6563 -11.6563
    -8.5954  -8.3891  -7.1539  -7.1539  -7.1486  -7.1486  -7.1454  -7.1446
    -7.0429  -6.8456  -6.7987  -6.7808  -6.7765  -6.0679  -5.9411  -1.9087
    -1.8662  -0.6335  -0.6232  -0.6231  -0.6193  -0.2128  -0.2127  -0.1136
    -0.1136   0.0246   0.2621   0.2621   0.3816   0.4150   0.4151   0.6170
     0.7698   0.8590   1.1411   1.1412   1.1642   2.7476   3.0029   5.4003
     5.4003   5.5691   5.5737   5.5737   5.5770   5.5843   5.6055   5.7547
     5.9110   5.9110   6.0010   6.1315   6.1315   6.4270   6.5693   6.5693
     6.5753   6.6373   6.6555   6.6555   6.7676   6.8046   6.8180   6.8180
     6.8198   6.8447   7.2203   7.3541   7.3541   7.7836   7.7836   8.0209
     8.1222   8.1631   8.1729   8.1927   8.3852   8.4327   8.4327   8.5088
     8.5088   8.5270   8.6955   8.7801   8.9551   8.9551   9.2084   9.2084
     9.5441   9.7216   9.7216   9.7244   9.8979   9.8980   9.9225  10.0023
    10.0091  10.0092  10.0544  10.0545  10.5265  10.5265  10.5734  10.6028
    10.8519  10.8548  10.8629  10.8629  10.9650  11.7360  12.3174  12.4242
    12.8702  12.9194  13.1602  13.2566  13.2566  13.3213  13.5626  13.5626
    14.3588  14.4022  14.4022  14.4703  14.4882  14.5555  14.5555  14.6280
    14.6280  14.7342  14.8297  14.8297  14.8641  14.9341  15.3487  15.3488
    15.4549  15.4746  15.7050  15.7946  15.7947  15.8198  15.8392  15.9598
    16.2184  16.2185  16.3635  16.4663  16.5245  16.5360  16.6112  16.6417
    16.7290  16.7290  16.9531

          k = 0.0000 0.1667 0.0000 ( 29199 PWs)   bands (ev):

   -35.3897 -35.3897 -35.3896 -35.3895 -35.3884 -35.3884 -35.3883 -35.3882
   -35.3775 -35.3775 -35.3775 -35.3773 -35.3767 -35.3767 -35.3767 -35.3766
   -35.3721 -35.3720 -35.3720 -35.3719 -35.3702 -35.3702 -35.3701 -35.3701
   -35.3686 -35.3685 -35.3685 -35.3684 -35.3631 -35.3631 -35.3631 -35.3629
   -35.3618 -35.3617 -35.3617 -35.3617 -35.3594 -35.3594 -35.3593 -35.3592
   -12.0105 -12.0044 -12.0016 -11.9676 -11.9665 -11.9618 -11.9478 -11.9462
   -11.9407 -11.9152 -11.9118 -11.9080 -11.8699 -11.8188 -11.8094 -11.8057
   -11.8028 -11.8023 -11.8013 -11.7993 -11.7959 -11.7909 -11.7859 -11.7847
   -11.7840 -11.7829 -11.7811 -11.7787 -11.7630 -11.7608 -11.7602 -11.7574
   -11.7536 -11.7529 -11.7511 -11.7510 -11.7483 -11.7474 -11.7457 -11.7445
   -11.7434 -11.7416 -11.7392 -11.7355 -11.7352 -11.7343 -11.7317 -11.7311
   -11.7306 -11.7278 -11.7270 -11.7218 -11.7212 -11.7195 -11.7193 -11.7188
   -11.7181 -11.7142 -11.7138 -11.7117 -11.7097 -11.7025 -11.7010 -11.6933
   -11.6926 -11.6893 -11.6877 -11.6868 -11.6846 -11.6837 -11.6832 -11.6819
   -11.6818 -11.6738 -11.6680 -11.6661 -11.6635 -11.6591 -11.6584 -11.6571
    -8.5446  -8.3464  -7.5111  -7.3898  -7.1366  -7.1225  -7.1214  -6.9220
    -6.8257  -6.8064  -6.8053  -6.7947  -6.7468  -6.0905  -5.9730  -2.0699
    -1.5138  -0.8964  -0.7156  -0.6002  -0.5996  -0.2617  -0.2539  -0.0517
    -0.0321   0.0640   0.1027   0.2825   0.3278   0.4026   0.4140   0.6570
     0.8072   0.9603   1.0830   1.3485   1.4629   2.3479   3.0377   5.2814
     5.3662   5.4028   5.4352   5.4677   5.6142   5.6694   5.7958   5.8138
     5.8349   5.8389   5.9616   5.9716   6.1661   6.2503   6.2599   6.4191
     6.4324   6.5548   6.6831   6.8802   6.9147   7.0505   7.0524   7.1200
     7.2055   7.2215   7.3415   7.4243   7.5373   7.6180   7.6429   7.7307
     7.8233   7.9323   8.2026   8.2847   8.3597   8.4048   8.4360   8.4473
     8.6002   8.8367   8.8952   8.9076   8.9773   9.0954   9.1112   9.1156
     9.5146   9.5863   9.7273   9.7571   9.8247   9.8547   9.8565   9.8647
     9.8983  10.1627  10.2533  10.2618  10.3444  10.3939  10.4075  10.5541
    10.5934  10.6125  10.7296  10.8347  10.9717  11.9425  12.1282  12.2881
    12.7731  12.9999  13.0096  13.3161  13.6074  13.7169  13.7664  13.9870
    14.0618  14.2926  14.3430  14.4234  14.4430  14.5039  14.6325  14.6773
    14.9045  14.9464  15.0569  15.0594  15.0965  15.1383  15.1875  15.3250
    15.3983  15.4631  15.4980  15.5387  15.6694  15.7528  15.8045  15.8609
    15.9905  16.0632  16.0706  16.0792  16.2218  16.3831  16.4309  16.8478
    16.9774  17.0106  17.1015

          k = 0.0000 0.1667 0.1065 ( 29197 PWs)   bands (ev):

   -35.3897 -35.3897 -35.3896 -35.3895 -35.3884 -35.3883 -35.3883 -35.3882
   -35.3775 -35.3775 -35.3775 -35.3774 -35.3767 -35.3767 -35.3766 -35.3766
   -35.3722 -35.3720 -35.3720 -35.3718 -35.3702 -35.3702 -35.3701 -35.3701
   -35.3686 -35.3685 -35.3685 -35.3684 -35.3631 -35.3631 -35.3630 -35.3630
   -35.3618 -35.3617 -35.3617 -35.3616 -35.3595 -35.3594 -35.3593 -35.3592
   -12.0105 -12.0038 -12.0013 -11.9684 -11.9664 -11.9619 -11.9476 -11.9463
   -11.9411 -11.9157 -11.9120 -11.9073 -11.8703 -11.8179 -11.8088 -11.8053
   -11.8026 -11.8022 -11.8010 -11.7993 -11.7958 -11.7908 -11.7858 -11.7848
   -11.7845 -11.7839 -11.7810 -11.7788 -11.7638 -11.7621 -11.7616 -11.7577
   -11.7545 -11.7532 -11.7519 -11.7518 -11.7493 -11.7475 -11.7462 -11.7448
   -11.7430 -11.7404 -11.7374 -11.7352 -11.7338 -11.7337 -11.7317 -11.7302
   -11.7295 -11.7267 -11.7257 -11.7215 -11.7211 -11.7199 -11.7192 -11.7187
   -11.7179 -11.7136 -11.7135 -11.7112 -11.7097 -11.7032 -11.7010 -11.6934
   -11.6932 -11.6896 -11.6879 -11.6871 -11.6847 -11.6840 -11.6834 -11.6820
   -11.6819 -11.6739 -11.6684 -11.6661 -11.6636 -11.6591 -11.6584 -11.6571
    -8.5445  -8.3465  -7.5110  -7.3900  -7.1357  -7.1224  -7.1222  -6.9220
    -6.8254  -6.8067  -6.8054  -6.7946  -6.7469  -6.0905  -5.9730  -2.0421
    -1.5666  -0.8847  -0.7281  -0.5995  -0.5992  -0.2565  -0.2494  -0.0657
    -0.0415   0.0760   0.1767   0.2863   0.3315   0.4073   0.4132   0.6080
     0.8336   0.9979   1.0844   1.2564   1.4313   2.4208   3.0120   5.2955
     5.3763   5.4026   5.4376   5.4643   5.5961   5.6646   5.7215   5.7617
     5.7886   5.8899   5.9759   6.0446   6.1168   6.3037   6.3252   6.4327
     6.4687   6.5803   6.6819   6.8251   6.8489   6.9851   7.1006   7.1317
     7.2062   7.2204   7.3208   7.3983   7.4807   7.6946   7.6952   7.7822
     7.8760   7.9317   8.2122   8.3134   8.3636   8.4176   8.4415   8.4496
     8.5888   8.7584   8.8068   8.8924   8.9333   8.9962   9.1281   9.1307
     9.4917   9.6665   9.7234   9.7602   9.8152   9.8685   9.8774   9.8909
     9.9186  10.1162  10.2415  10.2500  10.3447  10.4042  10.4169  10.5467
    10.5856  10.6092  10.7367  10.8279  11.0089  12.0103  12.2301  12.2550
    12.7774  13.0139  13.0362  13.3286  13.6091  13.7288  13.7483  13.8917
    14.0943  14.1905  14.2279  14.3318  14.4359  14.4643  14.6161  14.6609
    14.7895  14.9437  15.0213  15.0448  15.1268  15.2036  15.3704  15.4079
    15.4444  15.5135  15.5253  15.5447  15.6417  15.7237  15.8025  15.8767
    16.0157  16.0518  16.0724  16.2143  16.2339  16.3948  16.4296  16.8226
    16.9560  16.9671  17.0883

          k = 0.0000 0.1667 0.2129 ( 29192 PWs)   bands (ev):

   -35.3897 -35.3897 -35.3896 -35.3895 -35.3884 -35.3883 -35.3883 -35.3882
   -35.3775 -35.3775 -35.3774 -35.3774 -35.3767 -35.3766 -35.3766 -35.3766
   -35.3721 -35.3720 -35.3719 -35.3718 -35.3702 -35.3702 -35.3702 -35.3701
   -35.3685 -35.3685 -35.3685 -35.3684 -35.3631 -35.3631 -35.3630 -35.3630
   -35.3618 -35.3617 -35.3617 -35.3617 -35.3594 -35.3593 -35.3593 -35.3592
   -12.0105 -12.0026 -12.0008 -11.9702 -11.9661 -11.9620 -11.9474 -11.9465
   -11.9419 -11.9165 -11.9124 -11.9063 -11.8710 -11.8157 -11.8074 -11.8045
   -11.8026 -11.8020 -11.8003 -11.7992 -11.7955 -11.7905 -11.7889 -11.7853
   -11.7841 -11.7837 -11.7809 -11.7789 -11.7658 -11.7643 -11.7633 -11.7592
   -11.7564 -11.7549 -11.7535 -11.7533 -11.7500 -11.7479 -11.7461 -11.7453
   -11.7422 -11.7389 -11.7347 -11.7336 -11.7324 -11.7323 -11.7297 -11.7287
   -11.7286 -11.7245 -11.7232 -11.7212 -11.7210 -11.7203 -11.7190 -11.7184
   -11.7176 -11.7130 -11.7125 -11.7104 -11.7099 -11.7049 -11.7011 -11.6943
   -11.6934 -11.6901 -11.6882 -11.6877 -11.6849 -11.6846 -11.6839 -11.6823
   -11.6821 -11.6739 -11.6691 -11.6663 -11.6638 -11.6593 -11.6585 -11.6572
    -8.5442  -8.3469  -7.5107  -7.3903  -7.1336  -7.1244  -7.1224  -6.9220
    -6.8248  -6.8073  -6.8054  -6.7943  -6.7471  -6.0905  -5.9730  -1.9622
    -1.6920  -0.8536  -0.7604  -0.5993  -0.5974  -0.2440  -0.2392  -0.0919
    -0.0609   0.0864   0.2930   0.3231   0.3804   0.4119   0.4289   0.5447
     0.8430   0.9944   1.0871   1.1415   1.3579   2.5660   2.9431   5.3308
     5.3973   5.4021   5.4430   5.4562   5.5635   5.6455   5.6604   5.6817
     5.7635   5.8183   5.9768   6.1834   6.2005   6.3620   6.4053   6.4333
     6.5439   6.6403   6.6535   6.6979   6.7786   6.8723   7.1167   7.1482
     7.2082   7.2168   7.3125   7.3940   7.4140   7.7553   7.7569   7.9279
     7.9422   8.0272   8.2145   8.3708   8.4032   8.4272   8.4546   8.4788
     8.5175   8.5520   8.6109   8.7843   8.9157   8.9243   9.1359   9.1397
     9.4833   9.7120   9.7322   9.7731   9.8256   9.9040   9.9043   9.9483
     9.9749  10.0212  10.1713  10.2066  10.3593  10.4301  10.4390  10.5240
    10.5674  10.6009  10.7558  10.8094  11.0994  12.0909  12.2714  12.5169
    12.7248  13.0837  13.1000  13.3492  13.5638  13.5689  13.6885  13.8001
    13.8221  14.1392  14.2178  14.3430  14.3628  14.4868  14.5308  14.6147
    14.7354  14.9365  14.9916  15.0627  15.1997  15.2285  15.2551  15.4134
    15.4847  15.5467  15.6013  15.6146  15.7337  15.7771  15.9382  15.9570
    15.9972  16.0646  16.1482  16.2768  16.4232  16.4344  16.4889  16.6986
    16.8853  16.8947  16.9812

          k = 0.0000 0.1667-0.3194 ( 29188 PWs)   bands (ev):

   -35.3897 -35.3897 -35.3897 -35.3895 -35.3884 -35.3883 -35.3883 -35.3882
   -35.3775 -35.3774 -35.3774 -35.3774 -35.3767 -35.3766 -35.3766 -35.3765
   -35.3721 -35.3719 -35.3719 -35.3718 -35.3702 -35.3702 -35.3702 -35.3701
   -35.3685 -35.3685 -35.3685 -35.3684 -35.3631 -35.3630 -35.3630 -35.3630
   -35.3617 -35.3617 -35.3617 -35.3616 -35.3594 -35.3593 -35.3592 -35.3592
   -12.0105 -12.0019 -12.0005 -11.9710 -11.9659 -11.9621 -11.9472 -11.9467
   -11.9422 -11.9168 -11.9126 -11.9057 -11.8714 -11.8142 -11.8067 -11.8040
   -11.8029 -11.8018 -11.7999 -11.7992 -11.7953 -11.7907 -11.7904 -11.7852
   -11.7838 -11.7836 -11.7808 -11.7790 -11.7668 -11.7654 -11.7638 -11.7599
   -11.7574 -11.7563 -11.7540 -11.7539 -11.7501 -11.7481 -11.7462 -11.7456
   -11.7419 -11.7382 -11.7346 -11.7322 -11.7316 -11.7305 -11.7292 -11.7284
   -11.7278 -11.7235 -11.7221 -11.7214 -11.7208 -11.7201 -11.7190 -11.7182
   -11.7174 -11.7127 -11.7120 -11.7099 -11.7099 -11.7060 -11.7012 -11.6949
   -11.6934 -11.6903 -11.6884 -11.6881 -11.6850 -11.6849 -11.6841 -11.6824
   -11.6822 -11.6740 -11.6694 -11.6664 -11.6639 -11.6593 -11.6586 -11.6573
    -8.5440  -8.3471  -7.5106  -7.3904  -7.1320  -7.1260  -7.1223  -6.9221
    -6.8244  -6.8077  -6.8054  -6.7942  -6.7473  -6.0905  -5.9730  -1.8592
    -1.8161  -0.8223  -0.7923  -0.5993  -0.5964  -0.2362  -0.2334  -0.1056
    -0.0711   0.0905   0.2959   0.3329   0.4114   0.4195   0.4959   0.6105
     0.7582   0.8856   1.0885   1.2280   1.2731   2.6551   2.8862   5.3551
     5.3967   5.4132   5.4460   5.4527   5.5487   5.6081   5.6407   5.6672
     5.7567   5.7863   5.9563   6.2765   6.2797   6.3829   6.4334   6.4400
     6.5631   6.5789   6.6730   6.6876   6.7095   6.8384   7.0911   7.1647
     7.2109   7.2128   7.3153   7.3905   7.4054   7.7799   7.7821   7.9301
     8.0688   8.1821   8.1982   8.3453   8.3742   8.3742   8.4270   8.4592
     8.4996   8.5190   8.6039   8.6455   8.9071   8.9230   9.1381   9.1417
     9.4837   9.7057   9.7350   9.7600   9.8962   9.9082   9.9141   9.9336
    10.0369  10.0440  10.0944  10.1368  10.3707  10.4423  10.4674  10.4978
    10.5565  10.5957  10.7770  10.7885  11.1552  12.0498  12.4297  12.6117
    12.8601  12.9682  13.2360  13.2907  13.3239  13.4758  13.6511  13.7409
    14.0135  14.0731  14.1191  14.1847  14.4900  14.5412  14.5851  14.6139
    14.6763  14.7279  15.0368  15.1511  15.1590  15.2710  15.3269  15.3710
    15.4400  15.5306  15.5782  15.6724  15.7625  15.7974  15.8431  15.9657
    16.0051  16.2761  16.3206  16.4366  16.4467  16.4549  16.5485  16.6391
    16.6699  16.8188  16.8829

          k = 0.0000 0.3333 0.0000 ( 29167 PWs)   bands (ev):

   -35.3898 -35.3896 -35.3896 -35.3895 -35.3884 -35.3883 -35.3882 -35.3881
   -35.3775 -35.3775 -35.3774 -35.3774 -35.3767 -35.3767 -35.3766 -35.3765
   -35.3721 -35.3720 -35.3719 -35.3718 -35.3703 -35.3702 -35.3701 -35.3700
   -35.3685 -35.3685 -35.3684 -35.3683 -35.3631 -35.3630 -35.3630 -35.3630
   -35.3618 -35.3617 -35.3616 -35.3616 -35.3594 -35.3594 -35.3592 -35.3591
   -12.0038 -11.9923 -11.9900 -11.9822 -11.9591 -11.9589 -11.9557 -11.9553
   -11.9409 -11.9229 -11.9190 -11.8699 -11.8450 -11.8181 -11.8130 -11.8034
   -11.8023 -11.7967 -11.7963 -11.7944 -11.7927 -11.7918 -11.7851 -11.7844
   -11.7802 -11.7765 -11.7763 -11.7713 -11.7705 -11.7678 -11.7635 -11.7596
   -11.7596 -11.7549 -11.7542 -11.7526 -11.7519 -11.7502 -11.7483 -11.7467
   -11.7458 -11.7414 -11.7387 -11.7354 -11.7336 -11.7318 -11.7316 -11.7286
   -11.7286 -11.7276 -11.7271 -11.7256 -11.7242 -11.7234 -11.7225 -11.7191
   -11.7177 -11.7141 -11.7130 -11.7113 -11.7090 -11.7068 -11.7047 -11.7025
   -11.6950 -11.6946 -11.6921 -11.6915 -11.6870 -11.6844 -11.6841 -11.6833
   -11.6814 -11.6738 -11.6731 -11.6702 -11.6639 -11.6628 -11.6600 -11.6585
    -8.3953  -8.2316  -7.8576  -7.6648  -7.0748  -7.0592  -7.0592  -6.8989
    -6.8947  -6.8774  -6.8748  -6.5443  -6.4872  -6.1529  -6.0715  -1.9098
    -1.3919  -1.2953  -0.9482  -0.5253  -0.5239  -0.3171  -0.3084  -0.0518
     0.0490   0.1144   0.1894   0.2968   0.3919   0.4794   0.4890   0.6628
     0.7864   0.9446   1.1657   1.3906   1.7363   2.2882   2.6506   5.1873
     5.2319   5.3084   5.4152   5.4368   5.4482   5.5718   5.6052   5.6305
     5.6818   5.7900   5.8236   5.9117   6.0872   6.1201   6.3814   6.5038
     6.5396   6.7669   6.8308   6.8643   6.9638   7.1289   7.4003   7.4677
     7.5570   7.5928   7.6091   7.6968   7.7114   7.7660   7.7933   7.8979
     7.9180   8.0743   8.1035   8.1694   8.2065   8.2250   8.3247   8.3716
     8.5797   8.6669   8.6708   8.8942   8.9730   9.0657   9.0991   9.1585
     9.5074   9.5807   9.6051   9.7164   9.7277   9.8030   9.8362   9.8533
     9.8975   9.9947  10.0261  10.0379  10.0537  10.0955  10.1926  10.2300
    10.3873  10.4591  10.4957  10.7025  11.3908  12.5481  12.7233  12.7375
    12.8812  12.9365  13.2964  13.4939  13.6722  13.7357  13.8153  13.9019
    14.0547  14.2282  14.3859  14.5546  14.5685  14.5944  14.6041  14.6857
    14.7131  14.7804  14.8194  14.8451  14.8664  14.9424  15.0899  15.1265
    15.1643  15.3996  15.4189  15.5508  15.5561  15.7128  15.8838  16.0182
    16.1270  16.1643  16.2037  16.2861  16.3255  16.4825  16.5750  16.5841
    16.8696  16.9656  16.9781

          k = 0.0000 0.3333 0.1065 ( 29197 PWs)   bands (ev):

   -35.3898 -35.3897 -35.3896 -35.3896 -35.3884 -35.3883 -35.3883 -35.3882
   -35.3775 -35.3775 -35.3775 -35.3774 -35.3768 -35.3767 -35.3766 -35.3766
   -35.3721 -35.3721 -35.3720 -35.3719 -35.3703 -35.3702 -35.3701 -35.3701
   -35.3685 -35.3685 -35.3685 -35.3684 -35.3631 -35.3631 -35.3631 -35.3630
   -35.3618 -35.3618 -35.3617 -35.3616 -35.3595 -35.3594 -35.3593 -35.3592
   -12.0038 -11.9918 -11.9897 -11.9822 -11.9588 -11.9588 -11.9565 -11.9554
   -11.9412 -11.9233 -11.9194 -11.8694 -11.8458 -11.8174 -11.8121 -11.8031
   -11.8027 -11.7965 -11.7963 -11.7943 -11.7930 -11.7916 -11.7850 -11.7842
   -11.7814 -11.7765 -11.7762 -11.7716 -11.7710 -11.7686 -11.7650 -11.7611
   -11.7583 -11.7559 -11.7551 -11.7531 -11.7520 -11.7505 -11.7478 -11.7472
   -11.7439 -11.7410 -11.7386 -11.7352 -11.7329 -11.7315 -11.7311 -11.7289
   -11.7279 -11.7268 -11.7265 -11.7252 -11.7239 -11.7234 -11.7219 -11.7189
   -11.7178 -11.7139 -11.7128 -11.7114 -11.7093 -11.7069 -11.7041 -11.7027
   -11.6951 -11.6949 -11.6923 -11.6920 -11.6872 -11.6847 -11.6844 -11.6834
   -11.6816 -11.6739 -11.6733 -11.6704 -11.6641 -11.6629 -11.6600 -11.6586
    -8.3951  -8.2318  -7.8575  -7.6650  -7.0741  -7.0599  -7.0592  -6.8988
    -6.8943  -6.8779  -6.8749  -6.5442  -6.4873  -6.1529  -6.0715  -1.8834
    -1.4400  -1.2753  -0.9770  -0.5255  -0.5233  -0.3163  -0.3080  -0.0577
     0.0475   0.1395   0.2374   0.2963   0.3983   0.4853   0.4901   0.6620
     0.7838   0.9447   1.0991   1.4126   1.7199   2.3146   2.6355   5.1723
     5.2202   5.3065   5.3797   5.4077   5.4352   5.5747   5.6278   5.6702
     5.7050   5.7728   5.8428   5.9570   6.0875   6.0902   6.4068   6.5562
     6.5652   6.7883   6.7888   6.8661   6.9617   7.1120   7.3833   7.4852
     7.5392   7.5934   7.6066   7.6584   7.6746   7.7500   7.7873   7.9097
     7.9129   8.1005   8.1509   8.1934   8.2108   8.2270   8.3508   8.3657
     8.5654   8.6393   8.6479   8.8480   8.9628   9.0108   9.0642   9.0861
     9.4511   9.6186   9.6597   9.7516   9.7702   9.8096   9.8786   9.8889
     9.9110  10.0075  10.0098  10.0611  10.0689  10.0899  10.1941  10.2741
    10.3608  10.4549  10.5091  10.6883  11.3921  12.5537  12.7196  12.7316
    12.9343  12.9400  13.2916  13.5012  13.6767  13.7076  13.7931  13.9180
    13.9881  14.2469  14.2824  14.3157  14.3397  14.5217  14.5954  14.6809
    14.6814  14.7872  14.8319  14.9279  14.9971  15.0889  15.1272  15.1638
    15.3526  15.4682  15.4747  15.5439  15.5855  15.7236  15.8884  15.9997
    16.1564  16.1594  16.1965  16.2785  16.3299  16.4298  16.5603  16.5714
    16.8196  16.9469  16.9857

          k = 0.0000 0.3333 0.2129 ( 29173 PWs)   bands (ev):

   -35.3898 -35.3896 -35.3896 -35.3895 -35.3883 -35.3883 -35.3883 -35.3882
   -35.3775 -35.3775 -35.3774 -35.3773 -35.3767 -35.3767 -35.3766 -35.3765
   -35.3721 -35.3720 -35.3719 -35.3718 -35.3703 -35.3702 -35.3701 -35.3701
   -35.3685 -35.3685 -35.3684 -35.3684 -35.3631 -35.3631 -35.3630 -35.3629
   -35.3618 -35.3617 -35.3617 -35.3616 -35.3594 -35.3593 -35.3593 -35.3592
   -12.0037 -11.9906 -11.9892 -11.9820 -11.9584 -11.9583 -11.9580 -11.9557
   -11.9419 -11.9242 -11.9200 -11.8685 -11.8473 -11.8156 -11.8100 -11.8034
   -11.8024 -11.7961 -11.7960 -11.7939 -11.7938 -11.7912 -11.7847 -11.7839
   -11.7837 -11.7763 -11.7758 -11.7723 -11.7720 -11.7695 -11.7658 -11.7632
   -11.7618 -11.7559 -11.7549 -11.7534 -11.7521 -11.7505 -11.7484 -11.7476
   -11.7422 -11.7391 -11.7384 -11.7349 -11.7318 -11.7311 -11.7299 -11.7280
   -11.7271 -11.7256 -11.7252 -11.7243 -11.7233 -11.7232 -11.7208 -11.7187
   -11.7177 -11.7138 -11.7123 -11.7113 -11.7101 -11.7069 -11.7033 -11.7025
   -11.6954 -11.6954 -11.6930 -11.6926 -11.6876 -11.6851 -11.6850 -11.6836
   -11.6818 -11.6740 -11.6737 -11.6707 -11.6644 -11.6631 -11.6601 -11.6587
    -8.3948  -8.2321  -7.8573  -7.6652  -7.0724  -7.0617  -7.0591  -6.8986
    -6.8934  -6.8788  -6.8752  -6.5442  -6.4873  -6.1529  -6.0715  -1.8080
    -1.5548  -1.2212  -1.0484  -0.5260  -0.5222  -0.3142  -0.3070  -0.0668
     0.0444   0.1534   0.2952   0.3795   0.4312   0.4923   0.4985   0.6594
     0.7684   0.9437   0.9450   1.4700   1.6698   2.3748   2.5969   5.1439
     5.1963   5.2768   5.3122   5.4135   5.4656   5.5789   5.6168   5.6716
     5.7403   5.7509   5.9276   6.0131   6.0879   6.0943   6.4353   6.6404
     6.6592   6.7006   6.7759   6.8764   6.9803   7.1013   7.3382   7.4861
     7.5189   7.5490   7.5947   7.6071   7.6545   7.7349   7.7751   7.9037
     7.9276   8.1430   8.1986   8.2012   8.2454   8.2645   8.3529   8.3974
     8.5449   8.5847   8.6107   8.7084   8.9087   8.9423   9.0255   9.0420
     9.3914   9.5878   9.6947   9.8394   9.8454   9.8749   9.9109   9.9444
     9.9448  10.0123  10.0290  10.0455  10.1202  10.1433  10.2232  10.2916
    10.3248  10.4399  10.5456  10.6502  11.3976  12.5656  12.7085  12.7300
    12.9789  13.0838  13.2895  13.5135  13.5904  13.6553  13.7334  13.8572
    13.9288  13.9922  14.0200  14.2636  14.2677  14.4911  14.5491  14.6868
    14.6975  14.7959  14.8263  14.9845  15.0134  15.1601  15.1855  15.3257
    15.4602  15.5395  15.5817  15.7037  15.7172  15.9066  15.9168  15.9480
    16.0614  16.1353  16.2517  16.2736  16.3239  16.3634  16.5175  16.5517
    16.6999  16.8385  17.0065

          k = 0.0000 0.3333-0.3194 ( 29180 PWs)   bands (ev):

   -35.3897 -35.3897 -35.3896 -35.3896 -35.3884 -35.3884 -35.3883 -35.3882
   -35.3776 -35.3774 -35.3774 -35.3773 -35.3767 -35.3766 -35.3766 -35.3766
   -35.3721 -35.3720 -35.3719 -35.3719 -35.3702 -35.3702 -35.3701 -35.3701
   -35.3685 -35.3685 -35.3685 -35.3684 -35.3632 -35.3630 -35.3630 -35.3629
   -35.3617 -35.3617 -35.3617 -35.3616 -35.3594 -35.3593 -35.3593 -35.3592
   -12.0037 -11.9900 -11.9889 -11.9820 -11.9588 -11.9583 -11.9580 -11.9558
   -11.9423 -11.9246 -11.9203 -11.8679 -11.8482 -11.8146 -11.8089 -11.8038
   -11.8021 -11.7960 -11.7957 -11.7944 -11.7937 -11.7909 -11.7854 -11.7843
   -11.7835 -11.7762 -11.7755 -11.7727 -11.7726 -11.7695 -11.7656 -11.7642
   -11.7641 -11.7563 -11.7550 -11.7529 -11.7526 -11.7503 -11.7487 -11.7477
   -11.7420 -11.7384 -11.7379 -11.7347 -11.7312 -11.7308 -11.7295 -11.7271
   -11.7270 -11.7250 -11.7247 -11.7238 -11.7229 -11.7228 -11.7203 -11.7187
   -11.7175 -11.7139 -11.7120 -11.7113 -11.7108 -11.7069 -11.7033 -11.7018
   -11.6956 -11.6956 -11.6937 -11.6928 -11.6878 -11.6854 -11.6853 -11.6837
   -11.6820 -11.6741 -11.6739 -11.6708 -11.6646 -11.6632 -11.6601 -11.6588
    -8.3946  -8.2323  -7.8572  -7.6654  -7.0712  -7.0629  -7.0591  -6.8985
    -6.8928  -6.8793  -6.8753  -6.5442  -6.4873  -6.1529  -6.0715  -1.7131
    -1.6680  -1.1584  -1.1195  -0.5262  -0.5217  -0.3131  -0.3066  -0.0708
     0.0429   0.1566   0.2947   0.4021   0.4933   0.5028   0.5834   0.6435
     0.7055   0.8541   0.9452   1.5188   1.6234   2.4136   2.5683   5.1302
     5.1845   5.2573   5.2872   5.4271   5.5093   5.5740   5.5810   5.6712
     5.7257   5.7577   5.9878   6.0043   6.0881   6.1484   6.4422   6.6310
     6.7016   6.7095   6.7574   6.8758   6.9957   7.1182   7.3083   7.4513
     7.4904   7.5389   7.5954   7.6085   7.6512   7.7273   7.7683   7.8990
     7.9335   8.1599   8.1960   8.2033   8.2647   8.2955   8.3452   8.4391
     8.5640   8.5691   8.5757   8.5999   8.8605   8.9355   9.0122   9.0407
     9.3673   9.5704   9.6998   9.8455   9.8928   9.9042   9.9475   9.9654
     9.9707   9.9722  10.0362  10.0674  10.1944  10.1987  10.2112  10.2113
    10.3549  10.4233  10.5879  10.6071  11.4018  12.5712  12.7119  12.7205
    13.0388  13.2214  13.3108  13.4486  13.4508  13.6220  13.7680  13.8103
    13.8360  13.8729  13.9496  14.2161  14.2947  14.4703  14.6292  14.7439
    14.7441  14.7728  14.7854  14.8522  14.9904  15.2188  15.2196  15.3960
    15.4969  15.6235  15.6617  15.7348  15.7933  15.9015  15.9544  15.9576
    16.1162  16.1404  16.1862  16.2442  16.3677  16.4096  16.4650  16.5437
    16.6206  16.7137  16.9986

          k = 0.0000-0.5000 0.0000 ( 29172 PWs)   bands (ev):

   -35.3899 -35.3897 -35.3896 -35.3896 -35.3884 -35.3883 -35.3883 -35.3882
   -35.3775 -35.3775 -35.3774 -35.3773 -35.3767 -35.3767 -35.3766 -35.3765
   -35.3721 -35.3720 -35.3719 -35.3717 -35.3704 -35.3703 -35.3702 -35.3701
   -35.3685 -35.3685 -35.3684 -35.3684 -35.3631 -35.3631 -35.3630 -35.3629
   -35.3618 -35.3618 -35.3616 -35.3615 -35.3594 -35.3594 -35.3593 -35.3590
   -11.9948 -11.9942 -11.9776 -11.9757 -11.9734 -11.9702 -11.9554 -11.9416
   -11.9397 -11.9367 -11.9214 -11.8356 -11.8257 -11.8229 -11.8174 -11.8150
   -11.8022 -11.7962 -11.7937 -11.7910 -11.7903 -11.7855 -11.7847 -11.7841
   -11.7830 -11.7816 -11.7814 -11.7654 -11.7652 -11.7647 -11.7634 -11.7622
   -11.7620 -11.7616 -11.7600 -11.7591 -11.7572 -11.7521 -11.7501 -11.7450
   -11.7420 -11.7386 -11.7376 -11.7345 -11.7334 -11.7326 -11.7321 -11.7286
   -11.7284 -11.7271 -11.7255 -11.7242 -11.7222 -11.7215 -11.7209 -11.7201
   -11.7181 -11.7172 -11.7143 -11.7142 -11.7123 -11.7119 -11.7054 -11.7027
   -11.7012 -11.6998 -11.6923 -11.6876 -11.6869 -11.6857 -11.6849 -11.6827
   -11.6820 -11.6809 -11.6739 -11.6715 -11.6653 -11.6623 -11.6609 -11.6591
    -8.1659  -8.1569  -8.1278  -7.8218  -6.9980  -6.9768  -6.9750  -6.9737
    -6.9654  -6.9645  -6.8934  -6.4366  -6.2463  -6.2388  -6.2071  -1.6528
    -1.6422  -1.2417  -1.1433  -0.4305  -0.4262  -0.4091  -0.4045  -0.0518
     0.1478   0.1753   0.2229   0.2522   0.3029   0.5095   0.6261   0.7140
     0.8080   0.8907   0.9402   1.7325   2.1051   2.1261   2.2424   5.1960
     5.1975   5.2452   5.2505   5.2862   5.4182   5.5942   5.6019   5.6485
     5.6591   5.7693   5.8025   5.8548   5.9076   6.1193   6.3654   6.6537
     6.6912   6.7156   6.8063   7.1925   7.2189   7.2581   7.3784   7.4380
     7.4474   7.6001   7.6710   7.7984   7.8211   7.9230   7.9321   7.9792
     7.9906   8.0200   8.1468   8.1964   8.2240   8.2338   8.3311   8.3367
     8.3966   8.4577   8.6680   9.0450   9.1969   9.2921   9.3102   9.3126
     9.3575   9.3748   9.3764   9.4125   9.5778   9.5844   9.6578   9.6969
     9.7547   9.8431   9.9751  10.0012  10.1185  10.1494  10.2129  10.2235
    10.2628  10.3363  10.5009  10.5648  11.5846  12.6673  12.6784  13.0563
    13.4555  13.4742  13.6253  13.6451  13.6586  13.6937  13.7110  13.7172
    13.8212  14.1203  14.2169  14.3223  14.3400  14.3591  14.3902  14.4682
    14.5605  14.8883  14.9320  15.0043  15.0435  15.0520  15.0908  15.1310
    15.1396  15.1898  15.4218  15.4266  15.4522  15.8427  15.9491  16.0365
    16.0922  16.1824  16.3365  16.3392  16.3891  16.6598  16.6699  16.6713
    16.6997  16.7573  16.7980

          k = 0.0000-0.5000 0.1065 ( 29170 PWs)   bands (ev):

   -35.3898 -35.3897 -35.3896 -35.3896 -35.3884 -35.3883 -35.3883 -35.3882
   -35.3775 -35.3774 -35.3774 -35.3773 -35.3767 -35.3767 -35.3766 -35.3765
   -35.3721 -35.3721 -35.3720 -35.3719 -35.3703 -35.3702 -35.3702 -35.3701
   -35.3685 -35.3685 -35.3684 -35.3684 -35.3631 -35.3630 -35.3630 -35.3629
   -35.3618 -35.3617 -35.3616 -35.3616 -35.3594 -35.3594 -35.3593 -35.3592
   -11.9947 -11.9941 -11.9772 -11.9754 -11.9730 -11.9700 -11.9556 -11.9423
   -11.9400 -11.9373 -11.9219 -11.8353 -11.8256 -11.8243 -11.8168 -11.8134
   -11.8019 -11.7960 -11.7935 -11.7917 -11.7904 -11.7858 -11.7846 -11.7845
   -11.7831 -11.7810 -11.7804 -11.7666 -11.7657 -11.7653 -11.7647 -11.7644
   -11.7638 -11.7619 -11.7606 -11.7573 -11.7546 -11.7503 -11.7498 -11.7457
   -11.7425 -11.7389 -11.7378 -11.7343 -11.7332 -11.7324 -11.7314 -11.7282
   -11.7281 -11.7268 -11.7251 -11.7241 -11.7216 -11.7215 -11.7203 -11.7199
   -11.7174 -11.7173 -11.7149 -11.7141 -11.7119 -11.7119 -11.7049 -11.7032
   -11.7009 -11.7001 -11.6925 -11.6878 -11.6870 -11.6860 -11.6851 -11.6829
   -11.6822 -11.6810 -11.6739 -11.6716 -11.6656 -11.6624 -11.6609 -11.6592
    -8.1651  -8.1569  -8.1287  -7.8218  -6.9976  -6.9760  -6.9754  -6.9737
    -6.9653  -6.9653  -6.8935  -6.4366  -6.2463  -6.2388  -6.2072  -1.6314
    -1.6166  -1.2753  -1.1898  -0.4314  -0.4261  -0.4090  -0.4045  -0.0535
     0.1481   0.1852   0.2231   0.2972   0.3405   0.5145   0.6259   0.7087
     0.8078   0.8652   0.9118   1.7333   2.1063   2.1251   2.2350   5.1601
     5.1715   5.2072   5.2258   5.3051   5.4261   5.6344   5.6454   5.6534
     5.6859   5.7742   5.8031   5.8503   5.9352   6.1112   6.3646   6.6656
     6.7024   6.7285   6.8122   7.2151   7.2258   7.2595   7.3808   7.4361
     7.4475   7.5924   7.6384   7.7462   7.7719   7.9257   7.9328   7.9494
     7.9885   8.0273   8.1427   8.1985   8.2259   8.2422   8.3364   8.3644
     8.4087   8.4724   8.6435   8.9543   9.1484   9.2594   9.2629   9.2733
     9.3000   9.3522   9.3573   9.3811   9.6406   9.6746   9.7519   9.7930
     9.8119   9.8840   9.9924  10.0134  10.1403  10.1543  10.2274  10.2312
    10.2812  10.3363  10.4810  10.5427  11.5570  12.6695  12.6785  13.0562
    13.4625  13.4699  13.5876  13.5965  13.6289  13.6769  13.6813  13.7073
    13.8019  14.0870  14.1061  14.1749  14.1940  14.4763  14.5913  14.5985
    14.6095  14.8120  14.8189  14.8919  14.9558  15.0634  15.1123  15.2764
    15.2933  15.3554  15.3903  15.4122  15.5193  15.8612  15.9612  16.0397
    16.1154  16.1629  16.3371  16.3485  16.3859  16.6324  16.6548  16.6578
    16.6926  16.7233  16.7702

          k = 0.0000-0.5000 0.2129 ( 29198 PWs)   bands (ev):

   -35.3898 -35.3897 -35.3897 -35.3896 -35.3884 -35.3883 -35.3883 -35.3882
   -35.3776 -35.3775 -35.3774 -35.3774 -35.3768 -35.3767 -35.3766 -35.3766
   -35.3721 -35.3720 -35.3720 -35.3719 -35.3703 -35.3703 -35.3702 -35.3702
   -35.3685 -35.3685 -35.3684 -35.3684 -35.3632 -35.3631 -35.3630 -35.3630
   -35.3618 -35.3617 -35.3617 -35.3616 -35.3595 -35.3594 -35.3593 -35.3593
   -11.9947 -11.9941 -11.9762 -11.9748 -11.9722 -11.9698 -11.9559 -11.9436
   -11.9404 -11.9385 -11.9227 -11.8345 -11.8266 -11.8256 -11.8156 -11.8107
   -11.8013 -11.7955 -11.7932 -11.7931 -11.7909 -11.7862 -11.7855 -11.7839
   -11.7825 -11.7805 -11.7789 -11.7698 -11.7695 -11.7673 -11.7651 -11.7648
   -11.7645 -11.7627 -11.7609 -11.7556 -11.7520 -11.7505 -11.7470 -11.7469
   -11.7433 -11.7393 -11.7383 -11.7342 -11.7325 -11.7321 -11.7304 -11.7276
   -11.7273 -11.7262 -11.7248 -11.7227 -11.7216 -11.7197 -11.7194 -11.7191
   -11.7177 -11.7164 -11.7156 -11.7139 -11.7118 -11.7115 -11.7044 -11.7036
   -11.7008 -11.7004 -11.6930 -11.6885 -11.6876 -11.6865 -11.6855 -11.6834
   -11.6826 -11.6812 -11.6741 -11.6718 -11.6661 -11.6626 -11.6610 -11.6593
    -8.1634  -8.1567  -8.1305  -7.8221  -6.9967  -6.9763  -6.9738  -6.9737
    -6.9674  -6.9650  -6.8938  -6.4366  -6.2463  -6.2388  -6.2072  -1.5719
    -1.5430  -1.3581  -1.3018  -0.4330  -0.4260  -0.4088  -0.4043  -0.0560
     0.1485   0.1919   0.2236   0.4146   0.4229   0.5395   0.6254   0.6782
     0.8072   0.8078   0.8392   1.7348   2.1091   2.1230   2.2197   5.1021
     5.1252   5.1499   5.1817   5.3685   5.4537   5.5689   5.7139   5.7295
     5.7379   5.7868   5.8042   5.8407   6.0021   6.1046   6.3631   6.6934
     6.7282   6.7581   6.8262   7.2192   7.2697   7.2811   7.3764   7.4347
     7.4443   7.5686   7.5747   7.6432   7.6755   7.9005   7.9319   7.9343
     7.9834   8.0284   8.1330   8.2001   8.2091   8.2916   8.3439   8.4315
     8.4475   8.4966   8.6019   8.7583   9.0579   9.1579   9.1772   9.1892
     9.2442   9.3824   9.3840   9.3928   9.7001   9.8026   9.8542   9.9113
     9.9315   9.9546  10.0221  10.0341  10.1688  10.2033  10.2360  10.2816
    10.3312  10.3323  10.4280  10.4843  11.5021  12.6495  12.7038  13.0560
    13.4686  13.4771  13.5175  13.5275  13.5686  13.6161  13.6214  13.6510
    13.7782  13.9798  14.0373  14.0715  14.0828  14.4528  14.6992  14.6996
    14.7666  14.8135  14.8286  14.8949  14.9174  14.9723  15.2022  15.2837
    15.3253  15.3267  15.4732  15.6041  15.7026  15.9197  15.9954  16.0451
    16.1140  16.1657  16.3389  16.3840  16.3877  16.5448  16.6043  16.6446
    16.6634  16.6710  16.7000

          k = 0.0000-0.5000-0.3194 ( 29176 PWs)   bands (ev):

   -35.3899 -35.3897 -35.3896 -35.3896 -35.3883 -35.3883 -35.3882 -35.3882
   -35.3776 -35.3775 -35.3774 -35.3773 -35.3768 -35.3766 -35.3766 -35.3766
   -35.3721 -35.3719 -35.3719 -35.3719 -35.3704 -35.3702 -35.3702 -35.3701
   -35.3685 -35.3684 -35.3684 -35.3683 -35.3631 -35.3631 -35.3630 -35.3630
   -35.3618 -35.3617 -35.3616 -35.3616 -35.3594 -35.3593 -35.3593 -35.3592
   -11.9946 -11.9940 -11.9757 -11.9745 -11.9718 -11.9696 -11.9560 -11.9443
   -11.9406 -11.9391 -11.9231 -11.8340 -11.8278 -11.8256 -11.8148 -11.8093
   -11.8010 -11.7953 -11.7940 -11.7929 -11.7914 -11.7863 -11.7858 -11.7836
   -11.7820 -11.7803 -11.7781 -11.7717 -11.7705 -11.7683 -11.7652 -11.7649
   -11.7647 -11.7630 -11.7610 -11.7549 -11.7510 -11.7506 -11.7474 -11.7461
   -11.7437 -11.7394 -11.7385 -11.7342 -11.7322 -11.7320 -11.7301 -11.7274
   -11.7269 -11.7259 -11.7247 -11.7216 -11.7215 -11.7192 -11.7185 -11.7184
   -11.7178 -11.7174 -11.7147 -11.7140 -11.7118 -11.7114 -11.7052 -11.7029
   -11.7013 -11.7001 -11.6932 -11.6889 -11.6880 -11.6867 -11.6857 -11.6836
   -11.6827 -11.6813 -11.6742 -11.6720 -11.6664 -11.6626 -11.6610 -11.6594
    -8.1624  -8.1567  -8.1315  -7.8222  -6.9963  -6.9767  -6.9737  -6.9717
    -6.9696  -6.9649  -6.8939  -6.4366  -6.2463  -6.2388  -6.2072  -1.5114
    -1.4377  -1.4297  -1.4249  -0.4338  -0.4259  -0.4088  -0.4043  -0.0568
     0.1488   0.1934   0.2238   0.4447   0.5483   0.5767   0.5989   0.6252
     0.7812   0.7842   0.8070   1.7356   2.1110   2.1219   2.2117   5.0781
     5.1043   5.1265   5.1620   5.4472   5.4725   5.4857   5.7156   5.7665
     5.7724   5.7948   5.8048   5.8374   6.0379   6.1067   6.3625   6.7100
     6.7432   6.7754   6.8347   7.2127   7.2929   7.3125   7.3595   7.4381
     7.4408   7.5407   7.5499   7.5909   7.6270   7.8821   7.9351   7.9356
     7.9802   8.0248   8.1277   8.2003   8.2005   8.3210   8.3467   8.4660
     8.5067   8.5425   8.5844   8.5890   9.0187   9.1062   9.1457   9.1564
     9.2252   9.3919   9.4000   9.4134   9.7219   9.8545   9.8772   9.9546
     9.9893   9.9955  10.0340  10.0428  10.1789  10.2412  10.2464  10.3212
    10.3380  10.3707  10.3944  10.4185  11.4749  12.6384  12.7184  13.0557
    13.4713  13.4850  13.4876  13.5014  13.5345  13.5859  13.5865  13.6127
    13.7624  13.9464  14.0054  14.0221  14.0542  14.4219  14.6695  14.7938
    14.8149  14.8168  14.8605  14.8654  14.9766  15.1115  15.1357  15.1561
    15.3291  15.3352  15.5206  15.7139  15.7950  15.9632  16.0344  16.0461
    16.0677  16.1908  16.3561  16.3981  16.4212  16.4831  16.5395  16.6333
    16.6450  16.6517  16.6664

          k = 0.1667 0.1667 0.0000 ( 29209 PWs)   bands (ev):

   -35.3898 -35.3897 -35.3896 -35.3896 -35.3884 -35.3884 -35.3883 -35.3882
   -35.3776 -35.3775 -35.3775 -35.3774 -35.3768 -35.3767 -35.3766 -35.3766
   -35.3722 -35.3721 -35.3720 -35.3719 -35.3703 -35.3702 -35.3702 -35.3701
   -35.3686 -35.3685 -35.3684 -35.3684 -35.3631 -35.3631 -35.3631 -35.3630
   -35.3618 -35.3618 -35.3617 -35.3616 -35.3595 -35.3594 -35.3593 -35.3592
   -12.0082 -12.0042 -11.9930 -11.9691 -11.9685 -11.9641 -11.9598 -11.9403
   -11.9249 -11.9166 -11.9151 -11.9001 -11.8649 -11.8181 -11.8074 -11.8071
   -11.8042 -11.7992 -11.7987 -11.7970 -11.7938 -11.7889 -11.7887 -11.7856
   -11.7831 -11.7823 -11.7770 -11.7761 -11.7614 -11.7613 -11.7610 -11.7570
   -11.7566 -11.7561 -11.7556 -11.7520 -11.7503 -11.7473 -11.7464 -11.7459
   -11.7435 -11.7402 -11.7368 -11.7363 -11.7347 -11.7340 -11.7321 -11.7315
   -11.7307 -11.7287 -11.7269 -11.7239 -11.7223 -11.7209 -11.7207 -11.7205
   -11.7188 -11.7141 -11.7122 -11.7105 -11.7104 -11.7049 -11.7025 -11.6939
   -11.6927 -11.6922 -11.6890 -11.6877 -11.6857 -11.6847 -11.6843 -11.6840
   -11.6825 -11.6745 -11.6691 -11.6663 -11.6651 -11.6614 -11.6593 -11.6587
    -8.4942  -8.3046  -7.4813  -7.4789  -7.4284  -7.2727  -6.9352  -6.8835
    -6.7842  -6.7842  -6.7363  -6.7274  -6.7149  -6.1097  -6.0023  -2.0169
    -1.4722  -0.8662  -0.8579  -0.7087  -0.6697  -0.3230  -0.2670  -0.1273
     0.0858   0.0928   0.2157   0.2542   0.3658   0.4550   0.5800   0.7428
     0.7847   0.8102   1.2530   1.2782   1.4966   2.3214   2.9111   5.1621
     5.3069   5.4054   5.4592   5.5110   5.5289   5.5631   5.6333   5.6550
     5.7519   5.8505   5.9745   6.1410   6.1739   6.1746   6.2327   6.4214
     6.7077   6.7148   6.7579   6.7643   6.9272   6.9557   7.0656   7.1567
     7.3229   7.3992   7.4086   7.4362   7.5301   7.7276   7.7769   7.7822
     7.8930   8.1257   8.1388   8.1646   8.2240   8.3303   8.4508   8.5929
     8.6006   8.7480   8.8984   8.9547   8.9615   9.0311   9.1157   9.1746
     9.4358   9.5520   9.6118   9.7077   9.7852   9.8058   9.8492   9.9301
    10.0021  10.0493  10.1065  10.1103  10.2351  10.2836  10.3205  10.3773
    10.5911  10.6042  10.7327  10.7649  11.1523  12.1543  12.3342  12.5451
    12.6609  12.8981  13.3460  13.3886  13.5032  13.5190  13.7803  14.0926
    14.1002  14.2188  14.3049  14.3704  14.4867  14.6164  14.6570  14.7316
    14.8185  14.9321  14.9996  15.0042  15.1261  15.1582  15.2115  15.2702
    15.2949  15.4399  15.5007  15.5454  15.6044  15.6270  15.7838  15.9019
    15.9048  15.9630  16.1113  16.3050  16.3945  16.4731  16.4855  16.6445
    16.8674  17.0806  17.1302

          k = 0.1667 0.1667 0.1065 ( 29209 PWs)   bands (ev):

   -35.3897 -35.3897 -35.3896 -35.3895 -35.3884 -35.3884 -35.3883 -35.3882
   -35.3775 -35.3775 -35.3775 -35.3774 -35.3768 -35.3767 -35.3766 -35.3766
   -35.3721 -35.3721 -35.3720 -35.3719 -35.3702 -35.3702 -35.3701 -35.3701
   -35.3686 -35.3685 -35.3685 -35.3684 -35.3631 -35.3631 -35.3631 -35.3630
   -35.3618 -35.3617 -35.3617 -35.3617 -35.3595 -35.3594 -35.3593 -35.3592
   -12.0082 -12.0038 -11.9926 -11.9690 -11.9684 -11.9649 -11.9599 -11.9409
   -11.9257 -11.9162 -11.9140 -11.9007 -11.8654 -11.8172 -11.8068 -11.8065
   -11.8038 -11.7992 -11.7984 -11.7972 -11.7938 -11.7887 -11.7886 -11.7854
   -11.7847 -11.7824 -11.7771 -11.7762 -11.7637 -11.7625 -11.7610 -11.7576
   -11.7569 -11.7563 -11.7545 -11.7524 -11.7511 -11.7498 -11.7468 -11.7460
   -11.7440 -11.7377 -11.7360 -11.7348 -11.7340 -11.7336 -11.7312 -11.7310
   -11.7295 -11.7281 -11.7264 -11.7237 -11.7221 -11.7208 -11.7207 -11.7203
   -11.7187 -11.7139 -11.7121 -11.7106 -11.7101 -11.7048 -11.7031 -11.6941
   -11.6928 -11.6924 -11.6892 -11.6879 -11.6858 -11.6849 -11.6846 -11.6843
   -11.6826 -11.6746 -11.6694 -11.6664 -11.6652 -11.6614 -11.6594 -11.6587
    -8.4941  -8.3047  -7.4809  -7.4788  -7.4288  -7.2728  -6.9351  -6.8836
    -6.7842  -6.7841  -6.7365  -6.7271  -6.7151  -6.1097  -6.0023  -1.9896
    -1.5235  -0.8556  -0.8466  -0.7188  -0.6828  -0.3198  -0.2708  -0.1193
     0.0698   0.1497   0.2068   0.2947   0.3725   0.4444   0.5563   0.6545
     0.8162   0.9289   1.1865   1.2505   1.4657   2.3787   2.8883   5.1702
     5.3100   5.4051   5.4694   5.4731   5.5294   5.5679   5.5992   5.6273
     5.7126   5.9163   6.0293   6.0861   6.1851   6.2386   6.2766   6.4477
     6.6778   6.6888   6.7514   6.7589   6.8533   6.9272   7.0364   7.2037
     7.3047   7.4249   7.4637   7.4966   7.5348   7.6957   7.7794   7.7960
     7.8832   8.1269   8.1507   8.2201   8.2511   8.3552   8.4343   8.5906
     8.6005   8.6895   8.8239   8.8868   8.9581   8.9696   9.0320   9.1732
     9.4630   9.6146   9.7143   9.7197   9.7940   9.8009   9.8378   9.9483
     9.9874  10.0374  10.1127  10.1292  10.1830  10.2750  10.3066  10.3925
    10.6027  10.6156  10.7241  10.7565  11.1928  12.2372  12.3623  12.5189
    12.7078  12.9162  13.3196  13.4138  13.4345  13.6175  13.7604  14.0414
    14.1295  14.1570  14.2533  14.2704  14.2953  14.4687  14.5653  14.7148
    14.8451  14.8701  14.9496  15.1295  15.2507  15.2581  15.3237  15.3412
    15.3809  15.4545  15.5049  15.5535  15.5968  15.6200  15.7758  15.8890
    15.9325  16.0818  16.1452  16.2928  16.3794  16.4596  16.4873  16.6015
    16.8093  17.0573  17.1486

          k = 0.1667 0.1667 0.2129 ( 29191 PWs)   bands (ev):

   -35.3897 -35.3897 -35.3896 -35.3896 -35.3884 -35.3884 -35.3883 -35.3883
   -35.3775 -35.3774 -35.3774 -35.3773 -35.3767 -35.3766 -35.3766 -35.3765
   -35.3722 -35.3720 -35.3719 -35.3718 -35.3702 -35.3702 -35.3702 -35.3701
   -35.3685 -35.3685 -35.3685 -35.3684 -35.3631 -35.3630 -35.3630 -35.3629
   -35.3617 -35.3617 -35.3616 -35.3616 -35.3595 -35.3593 -35.3593 -35.3592
   -12.0082 -12.0029 -11.9917 -11.9687 -11.9680 -11.9665 -11.9602 -11.9422
   -11.9271 -11.9152 -11.9123 -11.9020 -11.8662 -11.8151 -11.8055 -11.8053
   -11.8034 -11.7991 -11.7984 -11.7975 -11.7937 -11.7887 -11.7884 -11.7878
   -11.7850 -11.7822 -11.7772 -11.7763 -11.7663 -11.7646 -11.7614 -11.7590
   -11.7581 -11.7570 -11.7541 -11.7534 -11.7527 -11.7517 -11.7472 -11.7462
   -11.7446 -11.7348 -11.7337 -11.7333 -11.7329 -11.7313 -11.7301 -11.7291
   -11.7285 -11.7265 -11.7252 -11.7232 -11.7217 -11.7208 -11.7202 -11.7201
   -11.7184 -11.7135 -11.7118 -11.7107 -11.7092 -11.7053 -11.7042 -11.6949
   -11.6929 -11.6926 -11.6897 -11.6883 -11.6860 -11.6855 -11.6851 -11.6846
   -11.6829 -11.6747 -11.6701 -11.6665 -11.6655 -11.6616 -11.6595 -11.6588
    -8.4938  -8.3051  -7.4802  -7.4787  -7.4296  -7.2729  -6.9349  -6.8838
    -6.7842  -6.7839  -6.7367  -6.7266  -6.7157  -6.1097  -6.0024  -1.9111
    -1.6459  -0.8306  -0.8140  -0.7430  -0.7185  -0.3106  -0.2814  -0.0981
     0.0417   0.1391   0.3370   0.3754   0.3907   0.4200   0.5328   0.5717
     0.8722   0.9737   1.1031   1.2162   1.3875   2.4970   2.8278   5.1954
     5.3151   5.3709   5.4131   5.4950   5.5108   5.5753   5.5887   5.6016
     5.6851   5.9393   5.9778   6.1629   6.2591   6.3499   6.3666   6.4821
     6.6036   6.6090   6.7296   6.7423   6.7789   6.8935   6.9680   7.2289
     7.2863   7.4741   7.5105   7.5388   7.6150   7.6925   7.7838   7.8584
     7.8970   8.1214   8.1606   8.2957   8.3321   8.4054   8.4296   8.5167
     8.5817   8.5916   8.6496   8.7361   8.8595   8.9581   9.0153   9.1723
     9.4588   9.6990   9.7394   9.7798   9.8044   9.8351   9.8846   9.9472
     9.9856  10.0322  10.0756  10.1618  10.1755  10.2538  10.2870  10.3706
    10.6237  10.6458  10.7044  10.7317  11.2734  12.3331  12.4578  12.5583
    12.8215  12.9520  13.2882  13.4144  13.4953  13.5664  13.7098  13.8190
    13.9227  14.1278  14.1417  14.2248  14.2373  14.3239  14.3430  14.7098
    14.8780  14.9793  15.0208  15.0330  15.2480  15.2955  15.3565  15.4203
    15.5083  15.5147  15.5574  15.5971  15.6701  15.7278  15.8406  15.9557
    16.0361  16.1596  16.2687  16.3194  16.3442  16.4169  16.5136  16.5222
    16.6339  16.9035  17.0764

          k = 0.1667 0.1667-0.3194 ( 29224 PWs)   bands (ev):

   -35.3898 -35.3897 -35.3897 -35.3896 -35.3884 -35.3884 -35.3884 -35.3883
   -35.3775 -35.3775 -35.3775 -35.3774 -35.3768 -35.3767 -35.3767 -35.3766
   -35.3721 -35.3720 -35.3720 -35.3719 -35.3703 -35.3702 -35.3702 -35.3702
   -35.3686 -35.3685 -35.3685 -35.3684 -35.3631 -35.3631 -35.3631 -35.3630
   -35.3618 -35.3618 -35.3617 -35.3616 -35.3594 -35.3593 -35.3593 -35.3593
   -12.0082 -12.0025 -11.9912 -11.9686 -11.9677 -11.9674 -11.9603 -11.9428
   -11.9277 -11.9146 -11.9115 -11.9027 -11.8667 -11.8137 -11.8049 -11.8046
   -11.8033 -11.7991 -11.7989 -11.7974 -11.7934 -11.7902 -11.7882 -11.7880
   -11.7847 -11.7821 -11.7772 -11.7764 -11.7674 -11.7655 -11.7614 -11.7592
   -11.7589 -11.7587 -11.7550 -11.7538 -11.7522 -11.7521 -11.7474 -11.7464
   -11.7450 -11.7341 -11.7335 -11.7325 -11.7308 -11.7301 -11.7298 -11.7289
   -11.7280 -11.7256 -11.7249 -11.7226 -11.7215 -11.7210 -11.7200 -11.7198
   -11.7183 -11.7133 -11.7120 -11.7108 -11.7084 -11.7064 -11.7043 -11.6954
   -11.6928 -11.6927 -11.6900 -11.6886 -11.6862 -11.6858 -11.6854 -11.6848
   -11.6831 -11.6747 -11.6704 -11.6666 -11.6656 -11.6617 -11.6596 -11.6588
    -8.4936  -8.3053  -7.4798  -7.4786  -7.4300  -7.2730  -6.9348  -6.8839
    -6.7842  -6.7838  -6.7369  -6.7264  -6.7160  -6.1097  -6.0024  -1.8104
    -1.7668  -0.8122  -0.7709  -0.7632  -0.7609  -0.2996  -0.2932  -0.0822
     0.0195   0.1354   0.3605   0.3903   0.3984   0.4955   0.5365   0.5992
     0.7584   0.9472   1.1872   1.1991   1.3136   2.5705   2.7792   5.2218
     5.3119   5.3175   5.4223   5.4776   5.5273   5.5664   5.5833   5.6007
     5.6995   5.9016   5.9475   6.2611   6.3460   6.3682   6.4010   6.4649
     6.5412   6.6012   6.7124   6.7315   6.7508   6.8908   6.9301   7.2095
     7.2937   7.4880   7.5339   7.5390   7.6085   7.7403   7.7908   7.8719
     8.0846   8.0849   8.1270   8.2261   8.3591   8.4529   8.5023   8.5104
     8.5363   8.5521   8.5630   8.5915   8.8433   8.9531   9.0157   9.1721
     9.4592   9.7227   9.7351   9.7360   9.8715   9.8760   9.9147   9.9312
     9.9693   9.9780  10.1363  10.1680  10.1939  10.2677  10.2784  10.3102
    10.6367  10.6707  10.6996  10.7004  11.3151  12.3210  12.4791  12.7355
    12.9440  12.9472  13.2862  13.2905  13.4309  13.5593  13.6805  13.8462
    13.8623  13.9258  14.0898  14.1119  14.2614  14.2857  14.5372  14.5803
    14.8584  14.8972  15.0552  15.1063  15.2334  15.3191  15.4531  15.4595
    15.5071  15.5153  15.6210  15.6326  15.6474  15.7254  15.7963  15.9667
    16.2632  16.2872  16.3068  16.3304  16.3715  16.4645  16.4860  16.5280
    16.5539  16.5685  17.0626

          k = 0.1667 0.3333 0.0000 ( 29163 PWs)   bands (ev):

   -35.3897 -35.3896 -35.3896 -35.3895 -35.3884 -35.3883 -35.3882 -35.3882
   -35.3775 -35.3775 -35.3774 -35.3773 -35.3767 -35.3766 -35.3766 -35.3765
   -35.3721 -35.3721 -35.3719 -35.3718 -35.3702 -35.3702 -35.3701 -35.3701
   -35.3685 -35.3684 -35.3684 -35.3683 -35.3631 -35.3630 -35.3630 -35.3629
   -35.3618 -35.3617 -35.3616 -35.3616 -35.3595 -35.3594 -35.3593 -35.3591
   -12.0022 -11.9977 -11.9839 -11.9777 -11.9732 -11.9568 -11.9551 -11.9367
   -11.9343 -11.9298 -11.9019 -11.8762 -11.8462 -11.8167 -11.8109 -11.8031
   -11.8010 -11.7999 -11.7935 -11.7933 -11.7914 -11.7905 -11.7866 -11.7833
   -11.7813 -11.7807 -11.7779 -11.7718 -11.7692 -11.7690 -11.7666 -11.7595
   -11.7577 -11.7561 -11.7533 -11.7516 -11.7508 -11.7497 -11.7473 -11.7455
   -11.7438 -11.7422 -11.7391 -11.7371 -11.7351 -11.7349 -11.7321 -11.7313
   -11.7293 -11.7287 -11.7265 -11.7263 -11.7249 -11.7232 -11.7224 -11.7202
   -11.7190 -11.7139 -11.7120 -11.7113 -11.7096 -11.7072 -11.7040 -11.7016
   -11.6965 -11.6930 -11.6923 -11.6918 -11.6908 -11.6865 -11.6853 -11.6844
   -11.6826 -11.6759 -11.6729 -11.6706 -11.6662 -11.6644 -11.6610 -11.6605
    -8.3474  -8.1900  -7.8193  -7.6497  -7.3897  -7.2660  -7.0935  -6.9689
    -6.7530  -6.7029  -6.6950  -6.5183  -6.4869  -6.1658  -6.0938  -1.8591
    -1.3524  -1.2543  -0.9191  -0.7624  -0.6191  -0.4336  -0.4099  -0.0386
     0.1201   0.1695   0.2831   0.3563   0.4328   0.4774   0.6210   0.6926
     0.7823   1.0803   1.1309   1.4026   1.7082   2.2465   2.5545   5.0900
     5.1930   5.2373   5.2700   5.3563   5.4160   5.4963   5.5089   5.6532
     5.7532   5.7994   6.0287   6.1369   6.2269   6.2478   6.3831   6.4284
     6.6585   6.7619   6.8274   6.8998   7.0037   7.1164   7.2595   7.3428
     7.4264   7.4498   7.4970   7.5395   7.6463   7.7112   7.7629   7.8783
     7.9250   8.0551   8.1293   8.2197   8.3142   8.4073   8.4408   8.5696
     8.7208   8.7300   8.8395   8.8831   9.0217   9.0622   9.1370   9.2522
     9.3098   9.4774   9.5864   9.6292   9.6528   9.7014   9.8035   9.8624
     9.8858   9.9361  10.0037  10.0291  10.0677  10.0949  10.1163  10.1703
    10.3856  10.5008  10.6441  10.7120  11.4038  12.4176  12.7559  12.8333
    12.9940  13.2146  13.2415  13.3561  13.5627  13.6617  13.8768  14.0252
    14.0954  14.2078  14.2464  14.3221  14.4609  14.5306  14.6031  14.6307
    14.6720  14.6879  14.7718  14.8634  14.9336  15.0403  15.0638  15.2371
    15.3448  15.3973  15.5344  15.6644  15.7592  15.8263  15.8709  15.9586
    15.9996  16.0284  16.1032  16.2299  16.2739  16.4755  16.6122  16.7368
    16.7901  16.8652  16.9916

          k = 0.1667 0.3333 0.1065 ( 29165 PWs)   bands (ev):

   -35.3897 -35.3896 -35.3896 -35.3895 -35.3883 -35.3883 -35.3883 -35.3882
   -35.3775 -35.3775 -35.3774 -35.3774 -35.3767 -35.3767 -35.3766 -35.3765
   -35.3721 -35.3720 -35.3719 -35.3718 -35.3702 -35.3702 -35.3701 -35.3701
   -35.3685 -35.3684 -35.3684 -35.3684 -35.3631 -35.3630 -35.3630 -35.3629
   -35.3618 -35.3617 -35.3616 -35.3616 -35.3595 -35.3593 -35.3593 -35.3592
   -12.0022 -11.9974 -11.9837 -11.9774 -11.9729 -11.9570 -11.9557 -11.9371
   -11.9350 -11.9290 -11.9025 -11.8758 -11.8470 -11.8159 -11.8100 -11.8028
   -11.8012 -11.7997 -11.7935 -11.7932 -11.7918 -11.7904 -11.7865 -11.7832
   -11.7814 -11.7810 -11.7786 -11.7723 -11.7699 -11.7692 -11.7666 -11.7604
   -11.7579 -11.7562 -11.7541 -11.7532 -11.7519 -11.7491 -11.7474 -11.7447
   -11.7433 -11.7416 -11.7390 -11.7371 -11.7348 -11.7338 -11.7314 -11.7307
   -11.7289 -11.7280 -11.7265 -11.7257 -11.7244 -11.7230 -11.7222 -11.7200
   -11.7190 -11.7139 -11.7122 -11.7110 -11.7095 -11.7074 -11.7035 -11.7019
   -11.6965 -11.6932 -11.6925 -11.6920 -11.6911 -11.6866 -11.6855 -11.6848
   -11.6827 -11.6760 -11.6731 -11.6707 -11.6664 -11.6645 -11.6611 -11.6605
    -8.3473  -8.1902  -7.8192  -7.6498  -7.3896  -7.2661  -7.0935  -6.9690
    -6.7530  -6.7026  -6.6953  -6.5183  -6.4870  -6.1658  -6.0938  -1.8333
    -1.3992  -1.2349  -0.9467  -0.7530  -0.6289  -0.4327  -0.4109  -0.0295
     0.1274   0.2167   0.2640   0.3532   0.4444   0.4909   0.5874   0.7274
     0.8013   1.0282   1.1193   1.4180   1.6891   2.2672   2.5411   5.0851
     5.2030   5.2385   5.2554   5.3136   5.3801   5.5066   5.5514   5.6581
     5.7874   5.8125   6.0342   6.1467   6.2250   6.2612   6.3709   6.4405
     6.6582   6.7795   6.7963   6.8827   6.9962   7.0849   7.2469   7.3263
     7.3877   7.4704   7.5001   7.5882   7.7058   7.7578   7.7834   7.8695
     7.9223   8.0518   8.1374   8.2065   8.2924   8.4149   8.4358   8.5668
     8.6907   8.7428   8.8118   8.8765   8.9407   9.0370   9.0741   9.1431
     9.4034   9.5298   9.5901   9.6309   9.6962   9.7335   9.8089   9.8672
     9.8954   9.9394   9.9985  10.0190  10.0658  10.0992  10.1428  10.1921
    10.3861  10.5012  10.6539  10.7165  11.4125  12.4631  12.7734  12.8667
    12.9562  13.1946  13.2590  13.3840  13.5650  13.6439  13.8497  13.9941
    14.0661  14.1713  14.1993  14.2679  14.3513  14.3758  14.4491  14.6089
    14.6880  14.7368  14.7936  14.8816  14.9998  15.0893  15.1889  15.3351
    15.3639  15.4904  15.5749  15.6423  15.7364  15.8543  15.8975  15.9535
    16.0191  16.0585  16.1172  16.2235  16.2874  16.4732  16.5824  16.7058
    16.7755  16.8553  16.9541

          k = 0.1667 0.3333 0.2129 ( 29179 PWs)   bands (ev):

   -35.3898 -35.3897 -35.3896 -35.3896 -35.3884 -35.3883 -35.3882 -35.3882
   -35.3775 -35.3775 -35.3774 -35.3774 -35.3767 -35.3767 -35.3766 -35.3765
   -35.3721 -35.3720 -35.3719 -35.3719 -35.3703 -35.3702 -35.3701 -35.3701
   -35.3685 -35.3685 -35.3684 -35.3684 -35.3631 -35.3631 -35.3630 -35.3630
   -35.3618 -35.3617 -35.3617 -35.3616 -35.3594 -35.3593 -35.3593 -35.3592
   -12.0021 -11.9967 -11.9835 -11.9768 -11.9722 -11.9575 -11.9568 -11.9379
   -11.9361 -11.9278 -11.9036 -11.8750 -11.8485 -11.8143 -11.8081 -11.8021
   -11.8018 -11.7989 -11.7937 -11.7930 -11.7926 -11.7900 -11.7864 -11.7835
   -11.7824 -11.7813 -11.7791 -11.7730 -11.7708 -11.7696 -11.7666 -11.7619
   -11.7603 -11.7564 -11.7544 -11.7539 -11.7534 -11.7503 -11.7475 -11.7442
   -11.7427 -11.7400 -11.7385 -11.7364 -11.7341 -11.7324 -11.7303 -11.7288
   -11.7280 -11.7267 -11.7259 -11.7243 -11.7237 -11.7228 -11.7217 -11.7198
   -11.7190 -11.7140 -11.7125 -11.7106 -11.7096 -11.7076 -11.7028 -11.7021
   -11.6966 -11.6936 -11.6931 -11.6924 -11.6916 -11.6869 -11.6860 -11.6855
   -11.6831 -11.6762 -11.6734 -11.6711 -11.6666 -11.6647 -11.6613 -11.6606
    -8.3469  -8.1906  -7.8190  -7.6501  -7.3895  -7.2663  -7.0934  -6.9691
    -6.7529  -6.7020  -6.6960  -6.5182  -6.4871  -6.1658  -6.0938  -1.7593
    -1.5111  -1.1824  -1.0152  -0.7287  -0.6541  -0.4314  -0.4121  -0.0047
     0.1168   0.2125   0.3242   0.3971   0.4625   0.5087   0.5792   0.7291
     0.8283   0.9330   1.0851   1.4671   1.6335   2.3150   2.5073   5.0745
     5.1949   5.2084   5.2610   5.3170   5.3392   5.4855   5.5391   5.7281
     5.7904   5.9160   6.0123   6.1423   6.2258   6.3290   6.3628   6.4772
     6.6512   6.7176   6.7805   6.8557   6.9488   7.0533   7.2258   7.2799
     7.4031   7.4829   7.5704   7.6732   7.7313   7.7797   7.8432   7.8823
     7.9423   8.0621   8.1195   8.1953   8.2744   8.4077   8.4563   8.5468
     8.6241   8.7129   8.7534   8.7961   8.8919   8.9747   8.9971   9.1124
     9.3732   9.5420   9.6302   9.7223   9.7673   9.7996   9.8219   9.8536
     9.8894   9.9587   9.9855  10.0156  10.0529  10.0718  10.2365  10.2615
    10.3774  10.4842  10.6705  10.7254  11.4282  12.5656  12.7886  12.8728
    13.0170  13.1810  13.2846  13.4397  13.5521  13.6218  13.7523  13.8676
    13.9147  14.0100  14.0748  14.1519  14.2383  14.3360  14.4135  14.6057
    14.6593  14.7217  14.7906  14.9189  15.1241  15.1987  15.3179  15.3701
    15.4411  15.5063  15.6148  15.7283  15.8371  15.8440  15.9407  15.9811
    16.0534  16.1446  16.1963  16.2252  16.3234  16.4640  16.5257  16.6276
    16.6798  16.8122  16.8614

          k = 0.1667 0.3333-0.3194 ( 29206 PWs)   bands (ev):

   -35.3898 -35.3897 -35.3897 -35.3896 -35.3884 -35.3883 -35.3883 -35.3883
   -35.3776 -35.3775 -35.3775 -35.3774 -35.3768 -35.3767 -35.3767 -35.3766
   -35.3721 -35.3720 -35.3720 -35.3719 -35.3703 -35.3703 -35.3702 -35.3701
   -35.3685 -35.3685 -35.3685 -35.3684 -35.3631 -35.3631 -35.3631 -35.3630
   -35.3618 -35.3617 -35.3617 -35.3616 -35.3594 -35.3594 -35.3593 -35.3593
   -12.0021 -11.9963 -11.9834 -11.9765 -11.9718 -11.9581 -11.9572 -11.9384
   -11.9366 -11.9272 -11.9042 -11.8746 -11.8493 -11.8132 -11.8071 -11.8023
   -11.8018 -11.7984 -11.7939 -11.7935 -11.7926 -11.7896 -11.7866 -11.7844
   -11.7824 -11.7813 -11.7791 -11.7732 -11.7713 -11.7698 -11.7665 -11.7625
   -11.7619 -11.7565 -11.7544 -11.7544 -11.7537 -11.7512 -11.7476 -11.7441
   -11.7425 -11.7397 -11.7383 -11.7359 -11.7336 -11.7319 -11.7297 -11.7282
   -11.7273 -11.7260 -11.7252 -11.7236 -11.7234 -11.7227 -11.7214 -11.7198
   -11.7189 -11.7141 -11.7126 -11.7104 -11.7100 -11.7075 -11.7030 -11.7015
   -11.6968 -11.6940 -11.6933 -11.6927 -11.6918 -11.6870 -11.6863 -11.6858
   -11.6832 -11.6763 -11.6736 -11.6713 -11.6667 -11.6648 -11.6614 -11.6607
    -8.3468  -8.1908  -7.8188  -7.6502  -7.3894  -7.2664  -7.0934  -6.9691
    -6.7528  -6.7017  -6.6964  -6.5181  -6.4871  -6.1658  -6.0938  -1.6668
    -1.6211  -1.1224  -1.0828  -0.7061  -0.6770  -0.4312  -0.4123   0.0151
     0.0979   0.2067   0.3120   0.4668   0.4874   0.5673   0.5838   0.7029
     0.7414   0.9569   1.0521   1.5243   1.5736   2.3461   2.4829   5.0690
     5.1725   5.2012   5.2716   5.3117   5.3687   5.4423   5.5234   5.7851
     5.7898   5.9207   6.0659   6.1358   6.1800   6.3368   6.4013   6.5497
     6.6474   6.6572   6.7302   6.8667   6.8959   7.0585   7.2097   7.2642
     7.4296   7.4858   7.6455   7.6923   7.7426   7.7763   7.8133   7.9036
     7.9867   8.0555   8.0989   8.2171   8.2840   8.4315   8.4483   8.5122
     8.5763   8.6379   8.7485   8.7696   8.8925   8.9380   8.9848   9.1068
     9.3589   9.5296   9.6367   9.7475   9.7971   9.8274   9.8371   9.8594
     9.9297   9.9465   9.9794  10.0166  10.0393  10.0514  10.2947  10.2971
    10.3905  10.4451  10.6775  10.7298  11.4351  12.6288  12.8067  12.8166
    13.1281  13.2348  13.3158  13.3906  13.5162  13.6141  13.7399  13.7622
    13.7899  13.9136  14.0121  14.1104  14.2108  14.3221  14.5387  14.5906
    14.6223  14.6634  14.8012  14.9184  15.1439  15.3068  15.3264  15.4318
    15.4440  15.5372  15.5971  15.7137  15.8190  15.8710  15.9637  16.0506
    16.1402  16.1994  16.2233  16.2741  16.3663  16.4669  16.5459  16.5682
    16.5881  16.6267  16.8523

          k = 0.1667-0.5000 0.0000 ( 29174 PWs)   bands (ev):

   -35.3899 -35.3897 -35.3896 -35.3896 -35.3884 -35.3883 -35.3882 -35.3882
   -35.3775 -35.3775 -35.3774 -35.3774 -35.3767 -35.3767 -35.3766 -35.3765
   -35.3721 -35.3721 -35.3719 -35.3718 -35.3703 -35.3702 -35.3702 -35.3701
   -35.3685 -35.3684 -35.3684 -35.3683 -35.3631 -35.3631 -35.3630 -35.3630
   -35.3618 -35.3617 -35.3617 -35.3616 -35.3595 -35.3594 -35.3593 -35.3591
   -11.9942 -11.9937 -11.9872 -11.9866 -11.9558 -11.9531 -11.9529 -11.9453
   -11.9425 -11.9310 -11.9058 -11.8399 -11.8318 -11.8271 -11.8156 -11.8130
   -11.8010 -11.7966 -11.7952 -11.7927 -11.7905 -11.7875 -11.7843 -11.7843
   -11.7819 -11.7806 -11.7795 -11.7697 -11.7684 -11.7665 -11.7661 -11.7598
   -11.7586 -11.7579 -11.7565 -11.7540 -11.7526 -11.7507 -11.7498 -11.7489
   -11.7453 -11.7401 -11.7396 -11.7377 -11.7366 -11.7332 -11.7320 -11.7291
   -11.7283 -11.7281 -11.7256 -11.7237 -11.7234 -11.7221 -11.7220 -11.7208
   -11.7190 -11.7179 -11.7146 -11.7134 -11.7124 -11.7099 -11.7027 -11.7025
   -11.7003 -11.6993 -11.6923 -11.6922 -11.6894 -11.6864 -11.6857 -11.6835
   -11.6824 -11.6818 -11.6756 -11.6718 -11.6675 -11.6637 -11.6618 -11.6614
    -8.1220  -8.1133  -8.0845  -7.8025  -7.2568  -7.2534  -7.2291  -7.0206
    -6.7194  -6.7171  -6.6863  -6.4082  -6.2581  -6.2508  -6.2196  -1.6057
    -1.5960  -1.2062  -1.1079  -0.6195  -0.6072  -0.5406  -0.4929   0.0533
     0.1025   0.2238   0.2359   0.3843   0.4290   0.5746   0.5897   0.8075
     0.8233   0.9552   1.0193   1.7336   2.0404   2.0631   2.1855   5.1205
     5.1208   5.1348   5.1765   5.2800   5.3418   5.4419   5.4670   5.6258
     5.6731   6.0514   6.0525   6.0987   6.1830   6.3077   6.3242   6.4916
     6.6239   6.8864   6.9045   7.0669   7.0747   7.1667   7.2352   7.3994
     7.4158   7.4430   7.5416   7.6209   7.6497   7.7374   7.7381   7.7439
     7.8425   8.1081   8.1265   8.3450   8.3997   8.4525   8.5701   8.6008
     8.6400   8.6532   8.7276   8.9999   9.0822   9.1212   9.2471   9.2867
     9.3336   9.3939   9.5929   9.6008   9.6381   9.6744   9.6922   9.7724
     9.7950   9.8641   9.8893   9.9150   9.9462   9.9702  10.1029  10.1652
    10.2788  10.3925  10.6010  10.6876  11.4876  12.6468  12.8162  13.0838
    13.1325  13.4742  13.4907  13.5650  13.6288  13.7366  13.7491  13.9206
    13.9386  14.0672  14.0730  14.2288  14.3263  14.3486  14.3960  14.4981
    14.5172  14.8098  14.8105  14.9409  14.9941  15.0656  15.0952  15.2276
    15.2879  15.4602  15.4673  15.5976  15.6294  15.6833  15.8891  15.9405
    16.1599  16.2155  16.2741  16.3484  16.3490  16.5090  16.5500  16.5572
    16.7358  16.7944  16.9536

          k = 0.1667-0.5000 0.1065 ( 29142 PWs)   bands (ev):

   -35.3898 -35.3896 -35.3896 -35.3895 -35.3883 -35.3882 -35.3882 -35.3881
   -35.3775 -35.3775 -35.3774 -35.3773 -35.3767 -35.3767 -35.3766 -35.3765
   -35.3721 -35.3720 -35.3719 -35.3718 -35.3703 -35.3702 -35.3701 -35.3701
   -35.3685 -35.3684 -35.3684 -35.3683 -35.3631 -35.3630 -35.3630 -35.3629
   -35.3617 -35.3617 -35.3616 -35.3615 -35.3594 -35.3593 -35.3593 -35.3591
   -11.9942 -11.9937 -11.9869 -11.9864 -11.9560 -11.9527 -11.9526 -11.9456
   -11.9427 -11.9315 -11.9063 -11.8393 -11.8317 -11.8285 -11.8151 -11.8117
   -11.8008 -11.7963 -11.7950 -11.7924 -11.7913 -11.7879 -11.7850 -11.7842
   -11.7817 -11.7797 -11.7792 -11.7710 -11.7690 -11.7667 -11.7666 -11.7605
   -11.7599 -11.7584 -11.7577 -11.7528 -11.7518 -11.7504 -11.7490 -11.7480
   -11.7455 -11.7408 -11.7395 -11.7389 -11.7354 -11.7319 -11.7319 -11.7289
   -11.7289 -11.7269 -11.7254 -11.7236 -11.7226 -11.7223 -11.7213 -11.7203
   -11.7183 -11.7176 -11.7147 -11.7135 -11.7122 -11.7102 -11.7025 -11.7021
   -11.7007 -11.6996 -11.6925 -11.6922 -11.6895 -11.6866 -11.6860 -11.6838
   -11.6826 -11.6820 -11.6757 -11.6719 -11.6677 -11.6638 -11.6618 -11.6615
    -8.1212  -8.1132  -8.0853  -7.8026  -7.2562  -7.2534  -7.2297  -7.0206
    -6.7194  -6.7169  -6.6865  -6.4082  -6.2581  -6.2508  -6.2196  -1.5848
    -1.5709  -1.2385  -1.1532  -0.6161  -0.5994  -0.5443  -0.5003   0.0596
     0.1122   0.2410   0.2694   0.3787   0.3917   0.6073   0.6337   0.7825
     0.8157   0.9402   1.0039   1.7322   2.0418   2.0619   2.1775   5.0956
     5.1084   5.1625   5.1634   5.2658   5.2770   5.4924   5.5094   5.6527
     5.6920   6.0462   6.0514   6.0879   6.1734   6.3022   6.3239   6.5146
     6.6358   6.8728   6.9118   7.0729   7.0770   7.1748   7.2451   7.3680
     7.3791   7.4435   7.4665   7.5737   7.6594   7.7383   7.7864   7.8363
     7.8969   8.1038   8.1443   8.3340   8.4011   8.4020   8.5529   8.6119
     8.6380   8.6611   8.7099   8.9635   9.0635   9.0771   9.2166   9.2508
     9.3270   9.3773   9.5642   9.5908   9.6385   9.7116   9.7445   9.7943
     9.8264   9.8706   9.9010   9.9456   9.9654  10.0142  10.0836  10.1126
    10.3430  10.4426  10.5938  10.6864  11.4780  12.6404  12.8321  13.0702
    13.1430  13.4949  13.5152  13.5560  13.6426  13.7257  13.7405  13.7725
    13.8921  14.0631  14.1023  14.1449  14.2622  14.3526  14.4092  14.4895
    14.5038  14.7085  14.8005  14.9214  14.9674  15.0889  15.1859  15.3033
    15.3781  15.4827  15.5323  15.5963  15.6197  15.7270  15.8891  15.9626
    16.1698  16.2164  16.2971  16.3571  16.3738  16.5057  16.5425  16.5496
    16.7102  16.7587  16.9047

          k = 0.1667-0.5000 0.2129 ( 29174 PWs)   bands (ev):

   -35.3898 -35.3897 -35.3896 -35.3896 -35.3883 -35.3883 -35.3882 -35.3882
   -35.3776 -35.3775 -35.3775 -35.3774 -35.3768 -35.3767 -35.3766 -35.3766
   -35.3721 -35.3720 -35.3719 -35.3719 -35.3703 -35.3702 -35.3701 -35.3701
   -35.3685 -35.3684 -35.3684 -35.3684 -35.3631 -35.3631 -35.3631 -35.3630
   -35.3618 -35.3617 -35.3617 -35.3616 -35.3594 -35.3593 -35.3593 -35.3592
   -11.9941 -11.9936 -11.9863 -11.9859 -11.9564 -11.9519 -11.9519 -11.9462
   -11.9433 -11.9327 -11.9075 -11.8377 -11.8316 -11.8314 -11.8140 -11.8093
   -11.8004 -11.7959 -11.7946 -11.7929 -11.7921 -11.7882 -11.7864 -11.7841
   -11.7816 -11.7787 -11.7785 -11.7735 -11.7706 -11.7669 -11.7667 -11.7623
   -11.7615 -11.7589 -11.7587 -11.7522 -11.7506 -11.7498 -11.7491 -11.7460
   -11.7459 -11.7412 -11.7400 -11.7396 -11.7340 -11.7321 -11.7302 -11.7289
   -11.7279 -11.7260 -11.7254 -11.7229 -11.7221 -11.7208 -11.7206 -11.7189
   -11.7176 -11.7163 -11.7152 -11.7138 -11.7119 -11.7109 -11.7021 -11.7016
   -11.7014 -11.7003 -11.6929 -11.6924 -11.6897 -11.6870 -11.6868 -11.6846
   -11.6830 -11.6822 -11.6759 -11.6723 -11.6681 -11.6640 -11.6619 -11.6617
    -8.1195  -8.1130  -8.0872  -7.8028  -7.2550  -7.2533  -7.2309  -7.0207
    -6.7194  -6.7166  -6.6868  -6.4082  -6.2581  -6.2507  -6.2196  -1.5271
    -1.4987  -1.3182  -1.2625  -0.6101  -0.5783  -0.5508  -0.5205   0.0773
     0.1387   0.2227   0.2789   0.4124   0.4463   0.6280   0.6794   0.7523
     0.8028   0.9047   0.9628   1.7296   2.0455   2.0595   2.1609   5.0596
     5.0712   5.1507   5.2033   5.2378   5.2678   5.4547   5.5248   5.7754
     5.7873   6.0265   6.0502   6.0554   6.1364   6.2904   6.3219   6.5823
     6.6621   6.8102   6.9219   7.0831   7.0892   7.1811   7.2520   7.3248
     7.3299   7.4119   7.4261   7.5471   7.6063   7.7653   7.8503   8.0002
     8.0054   8.1078   8.1585   8.2709   8.3302   8.4012   8.5131   8.6216
     8.6434   8.6740   8.6820   8.8002   9.0416   9.0528   9.1588   9.1760
     9.3286   9.3972   9.5021   9.5371   9.6420   9.7977   9.8288   9.8708
     9.8858   9.9199   9.9241   9.9454  10.0153  10.0182  10.0473  10.0913
    10.4382  10.5325  10.5691  10.6790  11.4591  12.6356  12.8678  13.0457
    13.1920  13.4751  13.5190  13.5944  13.6108  13.6911  13.7057  13.7556
    13.7905  13.9606  13.9906  14.0903  14.1132  14.3226  14.4257  14.4787
    14.5020  14.6966  14.7306  14.8773  15.0530  15.1507  15.2247  15.3501
    15.3702  15.5712  15.5973  15.6879  15.7071  15.8283  15.8922  15.9994
    16.1949  16.2100  16.3015  16.4468  16.4645  16.5035  16.5292  16.5357
    16.6406  16.6641  16.7771

          k = 0.1667-0.5000-0.3194 ( 29164 PWs)   bands (ev):

   -35.3898 -35.3896 -35.3896 -35.3895 -35.3883 -35.3883 -35.3882 -35.3882
   -35.3775 -35.3775 -35.3774 -35.3773 -35.3767 -35.3767 -35.3766 -35.3766
   -35.3721 -35.3720 -35.3720 -35.3719 -35.3703 -35.3702 -35.3701 -35.3701
   -35.3685 -35.3684 -35.3684 -35.3684 -35.3631 -35.3631 -35.3630 -35.3630
   -35.3618 -35.3617 -35.3617 -35.3616 -35.3594 -35.3593 -35.3593 -35.3592
   -11.9940 -11.9935 -11.9860 -11.9857 -11.9566 -11.9516 -11.9514 -11.9466
   -11.9435 -11.9334 -11.9082 -11.8357 -11.8342 -11.8312 -11.8134 -11.8080
   -11.8002 -11.7960 -11.7944 -11.7934 -11.7922 -11.7883 -11.7870 -11.7840
   -11.7817 -11.7785 -11.7782 -11.7746 -11.7714 -11.7669 -11.7667 -11.7633
   -11.7618 -11.7593 -11.7588 -11.7520 -11.7506 -11.7496 -11.7485 -11.7460
   -11.7457 -11.7408 -11.7404 -11.7398 -11.7335 -11.7321 -11.7299 -11.7287
   -11.7264 -11.7260 -11.7257 -11.7230 -11.7210 -11.7204 -11.7203 -11.7178
   -11.7174 -11.7156 -11.7154 -11.7141 -11.7118 -11.7114 -11.7021 -11.7018
   -11.7012 -11.7005 -11.6932 -11.6924 -11.6899 -11.6872 -11.6871 -11.6850
   -11.6832 -11.6823 -11.6759 -11.6724 -11.6683 -11.6641 -11.6619 -11.6618
    -8.1185  -8.1130  -8.0882  -7.8028  -7.2544  -7.2533  -7.2315  -7.0207
    -6.7194  -6.7165  -6.6869  -6.4082  -6.2581  -6.2507  -6.2196  -1.4691
    -1.3956  -1.3867  -1.3828  -0.6075  -0.5542  -0.5535  -0.5442   0.0904
     0.1630   0.2036   0.2389   0.4940   0.5181   0.6020   0.6225   0.7938
     0.8021   0.8817   0.9296   1.7284   2.0479   2.0583   2.1520   5.0438
     5.0534   5.1440   5.1877   5.2796   5.2852   5.4000   5.5129   5.8590
     5.8817   5.9749   6.0438   6.0508   6.0977   6.2839   6.3198   6.6634
     6.6777   6.7240   6.9214   7.0888   7.1015   7.1747   7.2390   7.3109
     7.3164   7.4200   7.4318   7.5367   7.5631   7.7817   7.8656   8.0659
     8.1324   8.1397   8.1623   8.1828   8.2715   8.3969   8.4983   8.6279
     8.6434   8.6755   8.6765   8.7032   9.0316   9.0413   9.1342   9.1365
     9.3332   9.4507   9.4787   9.4791   9.6505   9.8178   9.8483   9.9011
     9.9154   9.9397   9.9720   9.9819  10.0008  10.0240  10.0475  10.0577
    10.5044  10.5309  10.5799  10.6683  11.4500  12.6378  12.8877  13.0348
    13.3052  13.3248  13.4387  13.6851  13.6990  13.7086  13.7382  13.7506
    13.7517  13.8588  13.8630  13.9334  14.1507  14.3000  14.4287  14.4772
    14.5079  14.7017  14.7293  14.8487  15.1096  15.2094  15.2138  15.3053
    15.3644  15.5890  15.6088  15.7526  15.7951  15.8958  15.9018  16.0001
    16.2147  16.2177  16.2937  16.5085  16.5229  16.5287  16.5688  16.5773
    16.6043  16.6203  16.6329

          k = 0.3333 0.3333 0.0000 ( 29195 PWs)   bands (ev):

   -35.3898 -35.3897 -35.3896 -35.3895 -35.3884 -35.3883 -35.3882 -35.3882
   -35.3776 -35.3775 -35.3775 -35.3774 -35.3767 -35.3767 -35.3767 -35.3766
   -35.3722 -35.3721 -35.3720 -35.3719 -35.3703 -35.3702 -35.3702 -35.3701
   -35.3685 -35.3685 -35.3684 -35.3683 -35.3631 -35.3631 -35.3631 -35.3630
   -35.3618 -35.3618 -35.3617 -35.3616 -35.3595 -35.3594 -35.3593 -35.3592
   -11.9982 -11.9969 -11.9870 -11.9866 -11.9565 -11.9539 -11.9493 -11.9409
   -11.9265 -11.8966 -11.8957 -11.8807 -11.8453 -11.8196 -11.8135 -11.8060
   -11.8052 -11.7989 -11.7949 -11.7905 -11.7892 -11.7881 -11.7851 -11.7847
   -11.7840 -11.7797 -11.7788 -11.7760 -11.7660 -11.7647 -11.7641 -11.7635
   -11.7580 -11.7566 -11.7539 -11.7525 -11.7487 -11.7487 -11.7465 -11.7459
   -11.7451 -11.7409 -11.7398 -11.7398 -11.7385 -11.7373 -11.7337 -11.7314
   -11.7313 -11.7300 -11.7288 -11.7265 -11.7256 -11.7247 -11.7221 -11.7216
   -11.7201 -11.7152 -11.7131 -11.7111 -11.7070 -11.7050 -11.7044 -11.7021
   -11.7014 -11.6970 -11.6941 -11.6933 -11.6917 -11.6900 -11.6875 -11.6862
   -11.6843 -11.6788 -11.6740 -11.6714 -11.6699 -11.6699 -11.6631 -11.6626
    -8.2082  -8.0743  -7.7104  -7.7072  -7.6515  -7.4796  -7.3226  -7.0646
    -6.5822  -6.5226  -6.4923  -6.4916  -6.4517  -6.2086  -6.1650  -1.7086
    -1.2399  -1.1384  -1.1303  -0.8581  -0.8054  -0.6997  -0.5490   0.0829
     0.1723   0.2831   0.3097   0.3587   0.3701   0.5099   0.7280   0.8945
     0.9179   1.1519   1.3051   1.4449   1.7015   2.1278   2.2726   5.0104
     5.0363   5.0415   5.0528   5.2092   5.3579   5.4309   5.4691   5.9062
     5.9086   6.0183   6.0871   6.1894   6.3694   6.4316   6.5779   6.6539
     6.7119   6.7416   6.8412   6.8724   6.9510   7.1017   7.1855   7.2578
     7.2760   7.2800   7.3045   7.3471   7.4164   7.4948   7.6458   7.7585
     7.9774   7.9981   8.1201   8.5269   8.5610   8.5617   8.6551   8.7683
     8.7723   8.8726   8.9655   9.0118   9.0548   9.0663   9.1871   9.3926
     9.3989   9.4544   9.4752   9.4823   9.4902   9.5226   9.5475   9.5808
     9.6410   9.8287   9.9949  10.0380  10.1309  10.1518  10.2011  10.4532
    10.4676  10.5985  10.6904  10.6911  11.2333  12.5042  12.5402  12.7781
    12.9917  13.1007  13.3398  13.5184  13.5991  13.8598  13.8885  14.0226
    14.0327  14.0929  14.1924  14.2900  14.3784  14.4484  14.5666  14.5704
    14.6431  14.6702  14.8384  14.8490  14.9113  14.9426  15.0337  15.1632
    15.3996  15.4928  15.5619  15.7090  15.8312  15.8537  16.0415  16.0504
    16.1703  16.1755  16.2397  16.2634  16.3570  16.3613  16.5259  16.5277
    16.5721  16.5882  16.9814

          k = 0.3333 0.3333 0.1065 ( 29175 PWs)   bands (ev):

   -35.3897 -35.3897 -35.3896 -35.3895 -35.3884 -35.3883 -35.3883 -35.3882
   -35.3775 -35.3775 -35.3774 -35.3774 -35.3767 -35.3767 -35.3766 -35.3766
   -35.3721 -35.3720 -35.3719 -35.3718 -35.3702 -35.3702 -35.3701 -35.3701
   -35.3685 -35.3684 -35.3684 -35.3684 -35.3631 -35.3631 -35.3630 -35.3630
   -35.3617 -35.3617 -35.3617 -35.3616 -35.3594 -35.3593 -35.3593 -35.3592
   -11.9982 -11.9967 -11.9869 -11.9865 -11.9567 -11.9537 -11.9493 -11.9412
   -11.9270 -11.8960 -11.8953 -11.8817 -11.8461 -11.8193 -11.8130 -11.8052
   -11.8045 -11.7988 -11.7945 -11.7927 -11.7891 -11.7878 -11.7848 -11.7842
   -11.7839 -11.7800 -11.7794 -11.7772 -11.7661 -11.7648 -11.7640 -11.7633
   -11.7579 -11.7574 -11.7539 -11.7525 -11.7505 -11.7498 -11.7488 -11.7450
   -11.7434 -11.7402 -11.7398 -11.7389 -11.7378 -11.7366 -11.7334 -11.7317
   -11.7304 -11.7298 -11.7278 -11.7259 -11.7249 -11.7239 -11.7219 -11.7214
   -11.7201 -11.7152 -11.7130 -11.7115 -11.7070 -11.7051 -11.7044 -11.7022
   -11.7009 -11.6970 -11.6943 -11.6934 -11.6919 -11.6902 -11.6879 -11.6865
   -11.6845 -11.6789 -11.6743 -11.6716 -11.6700 -11.6699 -11.6633 -11.6627
    -8.2080  -8.0745  -7.7100  -7.7072  -7.6519  -7.4796  -7.3226  -7.0646
    -6.5822  -6.5226  -6.4923  -6.4916  -6.4518  -6.2086  -6.1650  -1.6843
    -1.2824  -1.1212  -1.1121  -0.8806  -0.8319  -0.6899  -0.5599   0.0879
     0.2210   0.2681   0.3186   0.3586   0.3769   0.5086   0.7482   0.8644
     0.9075   1.1564   1.3269   1.4394   1.6802   2.1336   2.2653   5.0188
     5.0319   5.0538   5.0732   5.1941   5.3372   5.4125   5.4499   5.9198
     5.9706   6.0545   6.0912   6.2050   6.3579   6.3862   6.5592   6.6259
     6.7149   6.7540   6.8376   6.8736   6.9417   7.0406   7.0667   7.1040
     7.2443   7.3061   7.3606   7.4428   7.5133   7.5781   7.6966   7.8438
     7.9398   8.0104   8.1676   8.5090   8.5237   8.5604   8.6537   8.7680
     8.7772   8.8358   8.9316   8.9608   9.0547   9.0614   9.1383   9.3526
     9.3910   9.4330   9.4645   9.4973   9.5412   9.5499   9.5568   9.6271
     9.6691   9.8374   9.9585  10.0182  10.0660  10.1692  10.2614  10.4656
    10.4800  10.5931  10.6789  10.6853  11.2639  12.5568  12.6277  12.8061
    12.9168  13.1802  13.3202  13.5181  13.6199  13.7815  13.8527  13.8947
    14.0147  14.1268  14.1966  14.2983  14.3530  14.3832  14.4450  14.5438
    14.5848  14.6069  14.7608  14.9193  14.9548  14.9997  15.1108  15.1501
    15.4013  15.5459  15.6099  15.7699  15.8216  15.9050  16.0225  16.1296
    16.1584  16.2259  16.2361  16.2761  16.3206  16.3835  16.5074  16.5150
    16.5493  16.5781  16.9238

          k = 0.3333 0.3333 0.2129 ( 29182 PWs)   bands (ev):

   -35.3898 -35.3897 -35.3896 -35.3896 -35.3883 -35.3883 -35.3883 -35.3882
   -35.3775 -35.3775 -35.3774 -35.3774 -35.3767 -35.3767 -35.3766 -35.3766
   -35.3721 -35.3720 -35.3720 -35.3719 -35.3703 -35.3702 -35.3701 -35.3701
   -35.3685 -35.3684 -35.3684 -35.3684 -35.3631 -35.3631 -35.3630 -35.3630
   -35.3618 -35.3617 -35.3617 -35.3616 -35.3594 -35.3594 -35.3593 -35.3592
   -11.9981 -11.9961 -11.9866 -11.9862 -11.9572 -11.9534 -11.9493 -11.9417
   -11.9281 -11.8948 -11.8944 -11.8839 -11.8477 -11.8188 -11.8120 -11.8035
   -11.8029 -11.7984 -11.7946 -11.7937 -11.7913 -11.7873 -11.7846 -11.7845
   -11.7824 -11.7821 -11.7798 -11.7787 -11.7664 -11.7652 -11.7637 -11.7629
   -11.7585 -11.7576 -11.7549 -11.7529 -11.7526 -11.7512 -11.7502 -11.7447
   -11.7420 -11.7406 -11.7396 -11.7387 -11.7353 -11.7341 -11.7331 -11.7320
   -11.7299 -11.7278 -11.7265 -11.7247 -11.7236 -11.7227 -11.7218 -11.7212
   -11.7202 -11.7151 -11.7128 -11.7121 -11.7074 -11.7050 -11.7045 -11.7022
   -11.7000 -11.6971 -11.6946 -11.6939 -11.6922 -11.6904 -11.6890 -11.6871
   -11.6849 -11.6792 -11.6747 -11.6718 -11.6703 -11.6702 -11.6636 -11.6628
    -8.2076  -8.0750  -7.7091  -7.7071  -7.6528  -7.4797  -7.3226  -7.0647
    -6.5821  -6.5226  -6.4924  -6.4915  -6.4519  -6.2086  -6.1650  -1.6150
    -1.3839  -1.0776  -1.0620  -0.9332  -0.8999  -0.6650  -0.5874   0.1000
     0.2376   0.2944   0.3554   0.3668   0.4065   0.5077   0.7538   0.8112
     0.8877   1.1670   1.3820   1.4266   1.6264   2.1479   2.2479   5.0030
     5.0697   5.0907   5.1114   5.1610   5.2921   5.3701   5.4031   5.9728
     6.0758   6.1200   6.1572   6.2335   6.2894   6.3656   6.4796   6.5554
     6.6979   6.7709   6.8146   6.8395   6.8812   6.9392   6.9456   7.0745
     7.2103   7.3154   7.4617   7.5371   7.5516   7.6697   7.7919   7.9461
     8.0370   8.0954   8.2299   8.4350   8.4512   8.5383   8.6523   8.7065
     8.7427   8.7678   8.8474   8.9420   9.0165   9.0818   9.1001   9.3155
     9.3432   9.4081   9.4468   9.5112   9.5284   9.5999   9.6332   9.6718
     9.8212   9.8414   9.9036   9.9350  10.0109  10.1267  10.3779  10.4982
    10.5109  10.5738  10.6580  10.6618  11.3206  12.6190  12.7596  12.9241
    12.9915  13.2529  13.3460  13.4420  13.5182  13.7068  13.7648  13.7764
    13.8418  14.0853  14.1209  14.1932  14.2625  14.3528  14.4305  14.5403
    14.6003  14.6154  14.6980  14.8176  14.9701  15.0598  15.1344  15.2451
    15.4540  15.5269  15.7015  15.8457  15.9107  15.9985  16.0505  16.1378
    16.2266  16.2288  16.2869  16.3283  16.3384  16.4437  16.4463  16.4519
    16.5419  16.5724  16.7561

          k = 0.3333 0.3333-0.3194 ( 29178 PWs)   bands (ev):

   -35.3898 -35.3897 -35.3896 -35.3896 -35.3883 -35.3883 -35.3883 -35.3882
   -35.3775 -35.3775 -35.3774 -35.3774 -35.3767 -35.3767 -35.3766 -35.3765
   -35.3721 -35.3720 -35.3720 -35.3719 -35.3702 -35.3702 -35.3702 -35.3701
   -35.3685 -35.3685 -35.3684 -35.3684 -35.3631 -35.3631 -35.3630 -35.3630
   -35.3618 -35.3617 -35.3617 -35.3616 -35.3594 -35.3594 -35.3593 -35.3592
   -11.9981 -11.9959 -11.9864 -11.9861 -11.9575 -11.9533 -11.9492 -11.9419
   -11.9287 -11.8942 -11.8936 -11.8852 -11.8484 -11.8185 -11.8114 -11.8026
   -11.8019 -11.7982 -11.7948 -11.7934 -11.7929 -11.7872 -11.7848 -11.7847
   -11.7833 -11.7817 -11.7797 -11.7793 -11.7665 -11.7655 -11.7635 -11.7627
   -11.7588 -11.7573 -11.7558 -11.7537 -11.7532 -11.7514 -11.7505 -11.7447
   -11.7415 -11.7409 -11.7395 -11.7386 -11.7345 -11.7330 -11.7325 -11.7316
   -11.7297 -11.7269 -11.7262 -11.7239 -11.7233 -11.7218 -11.7216 -11.7211
   -11.7203 -11.7150 -11.7125 -11.7125 -11.7079 -11.7049 -11.7044 -11.7021
   -11.6995 -11.6972 -11.6949 -11.6941 -11.6923 -11.6906 -11.6896 -11.6875
   -11.6852 -11.6793 -11.6749 -11.6720 -11.6704 -11.6703 -11.6638 -11.6628
    -8.2074  -8.0752  -7.7087  -7.7070  -7.6532  -7.4797  -7.3226  -7.0648
    -6.5821  -6.5226  -6.4924  -6.4914  -6.4519  -6.2086  -6.1650  -1.5308
    -1.4831  -1.0396  -0.9935  -0.9780  -0.9744  -0.6421  -0.6117   0.1076
     0.2238   0.2992   0.3714   0.3737   0.4808   0.5108   0.6765   0.8496
     0.8561   1.1733   1.4191   1.4223   1.5868   2.1575   2.2368   4.9949
     5.1154   5.1174   5.1239   5.1314   5.2658   5.3478   5.3709   6.0220
     6.0905   6.1568   6.1838   6.3065   6.3124   6.3474   6.3990   6.5450
     6.5685   6.7285   6.8364   6.8526   6.8562   6.8923   6.9393   7.0675
     7.2102   7.3143   7.4945   7.5542   7.6073   7.7067   7.7472   8.0473
     8.1359   8.2099   8.3076   8.3213   8.4187   8.4600   8.6070   8.6539
     8.6852   8.7677   8.8882   8.9061   8.9812   9.0762   9.1893   9.2255
     9.3061   9.4305   9.4555   9.4797   9.5592   9.5659   9.7192   9.7355
     9.7842   9.8180   9.9154   9.9665  10.0199  10.0329  10.4329  10.5241
    10.5416  10.5474  10.6413  10.6449  11.3470  12.5905  12.8747  13.0122
    13.2069  13.2220  13.3238  13.4280  13.4933  13.5795  13.5829  13.6863
    13.8205  14.0717  14.0904  14.1367  14.2665  14.2969  14.4977  14.5198
    14.6428  14.6583  14.6679  14.7276  14.9829  15.0299  15.1700  15.2998
    15.3899  15.5731  15.7746  15.8988  15.9086  16.0085  16.0764  16.1422
    16.1847  16.2883  16.3456  16.3527  16.3854  16.4061  16.4953  16.5151
    16.5467  16.5563  16.6659

          k = 0.3333-0.5000 0.0000 ( 29156 PWs)   bands (ev):

   -35.3897 -35.3897 -35.3896 -35.3895 -35.3883 -35.3882 -35.3882 -35.3881
   -35.3775 -35.3775 -35.3775 -35.3774 -35.3767 -35.3767 -35.3766 -35.3765
   -35.3721 -35.3720 -35.3719 -35.3718 -35.3703 -35.3702 -35.3702 -35.3701
   -35.3684 -35.3684 -35.3684 -35.3683 -35.3631 -35.3631 -35.3630 -35.3630
   -35.3617 -35.3617 -35.3616 -35.3616 -35.3594 -35.3594 -35.3593 -35.3592
   -11.9935 -11.9932 -11.9923 -11.9914 -11.9563 -11.9470 -11.9464 -11.9276
   -11.9224 -11.9164 -11.8765 -11.8582 -11.8545 -11.8347 -11.8112 -11.8083
   -11.8083 -11.8016 -11.7974 -11.7944 -11.7897 -11.7865 -11.7809 -11.7804
   -11.7772 -11.7766 -11.7755 -11.7731 -11.7712 -11.7686 -11.7661 -11.7623
   -11.7575 -11.7550 -11.7549 -11.7538 -11.7515 -11.7486 -11.7471 -11.7464
   -11.7454 -11.7428 -11.7425 -11.7385 -11.7381 -11.7372 -11.7325 -11.7316
   -11.7309 -11.7287 -11.7286 -11.7273 -11.7258 -11.7232 -11.7231 -11.7205
   -11.7184 -11.7174 -11.7167 -11.7113 -11.7100 -11.7074 -11.7040 -11.7026
   -11.7003 -11.6978 -11.6964 -11.6952 -11.6924 -11.6909 -11.6866 -11.6845
   -11.6841 -11.6827 -11.6779 -11.6724 -11.6723 -11.6696 -11.6639 -11.6636
    -7.9945  -7.9863  -7.9588  -7.7584  -7.5402  -7.5347  -7.5066  -7.1148
    -6.5195  -6.5150  -6.4870  -6.3609  -6.2986  -6.2918  -6.2617  -1.4667
    -1.4592  -1.1070  -1.0068  -0.9476  -0.9409  -0.7275  -0.6687   0.2037
     0.2232   0.2351   0.2499   0.3311   0.3850   0.6621   0.6808   0.8452
     1.0546   1.1580   1.3738   1.7389   1.8397   1.8773   2.0139   4.9395
     4.9635   4.9839   4.9848   5.1994   5.2659   5.4287   5.4364   5.9017
     5.9293   6.2884   6.3610   6.3958   6.4061   6.4752   6.5261   6.5682
     6.6544   6.6986   6.7773   6.9314   6.9622   7.0434   7.0530   7.0898
     7.2523   7.3805   7.4001   7.4168   7.4206   7.4496   7.4725   7.4928
     7.9071   8.0131   8.1185   8.6913   8.7409   8.7508   8.8102   8.8631
     8.8663   8.8789   8.8938   8.9515   8.9662   9.0421   9.1576   9.2235
     9.2572   9.3140   9.3258   9.3896   9.4819   9.5619   9.5646   9.5811
    10.0035  10.0117  10.0824  10.1202  10.2013  10.2040  10.2398  10.2547
    10.3481  10.5797  10.5992  10.6943  11.1920  12.5097  12.5532  12.7550
    12.9260  13.0409  13.1205  13.6346  13.7191  13.7655  13.9610  14.0635
    14.0750  14.1929  14.2467  14.2684  14.4185  14.4258  14.4270  14.5339
    14.6014  14.6364  14.7294  14.7883  14.8721  14.9193  15.2212  15.2366
    15.2865  15.6051  15.6610  15.7109  15.7912  16.0410  16.0825  16.1195
    16.1895  16.2131  16.2246  16.2597  16.2717  16.3124  16.3243  16.3395
    16.6810  16.7682  16.9779

          k = 0.3333-0.5000 0.1065 ( 29140 PWs)   bands (ev):

   -35.3897 -35.3897 -35.3896 -35.3895 -35.3883 -35.3883 -35.3882 -35.3881
   -35.3775 -35.3774 -35.3774 -35.3774 -35.3767 -35.3766 -35.3766 -35.3765
   -35.3720 -35.3720 -35.3719 -35.3718 -35.3702 -35.3701 -35.3701 -35.3700
   -35.3684 -35.3684 -35.3684 -35.3683 -35.3631 -35.3630 -35.3630 -35.3630
   -35.3617 -35.3617 -35.3616 -35.3616 -35.3594 -35.3593 -35.3592 -35.3591
   -11.9934 -11.9931 -11.9921 -11.9913 -11.9565 -11.9472 -11.9466 -11.9269
   -11.9220 -11.9173 -11.8772 -11.8579 -11.8542 -11.8358 -11.8127 -11.8073
   -11.8070 -11.8009 -11.7968 -11.7942 -11.7896 -11.7876 -11.7813 -11.7812
   -11.7768 -11.7765 -11.7756 -11.7733 -11.7710 -11.7689 -11.7664 -11.7620
   -11.7575 -11.7554 -11.7552 -11.7544 -11.7523 -11.7478 -11.7478 -11.7468
   -11.7456 -11.7425 -11.7416 -11.7379 -11.7377 -11.7365 -11.7339 -11.7314
   -11.7311 -11.7279 -11.7276 -11.7262 -11.7248 -11.7230 -11.7228 -11.7203
   -11.7179 -11.7169 -11.7167 -11.7115 -11.7101 -11.7079 -11.7039 -11.7023
   -11.7005 -11.6978 -11.6966 -11.6951 -11.6925 -11.6912 -11.6870 -11.6847
   -11.6842 -11.6831 -11.6780 -11.6726 -11.6725 -11.6697 -11.6640 -11.6638
    -7.9936  -7.9862  -7.9596  -7.7585  -7.5395  -7.5347  -7.5073  -7.1148
    -6.5195  -6.5149  -6.4870  -6.3609  -6.2986  -6.2917  -6.2618  -1.4477
    -1.4356  -1.1354  -1.0479  -0.9344  -0.9252  -0.7443  -0.6901   0.2213
     0.2360   0.2433   0.2706   0.3353   0.3883   0.6438   0.6671   0.8492
     1.0750   1.1622   1.3577   1.7350   1.8431   1.8745   2.0043   4.9555
     4.9761   4.9942   4.9946   5.1826   5.2523   5.4086   5.4111   5.9397
     5.9642   6.2916   6.3810   6.3999   6.4074   6.4743   6.4767   6.5596
     6.6237   6.7211   6.7805   6.9368   6.9653   7.0250   7.0354   7.0509
     7.1678   7.2148   7.3067   7.3222   7.4545   7.5530   7.6114   7.7472
     7.9481   8.0396   8.1638   8.6376   8.7327   8.7386   8.7689   8.8590
     8.8597   8.8814   8.8919   8.9558   8.9786   8.9877   9.1864   9.2387
     9.2604   9.2913   9.3349   9.3970   9.4737   9.5614   9.5969   9.6213
     9.9376   9.9791  10.0463  10.0633  10.1332  10.1394  10.2920  10.3164
    10.4068  10.5999  10.6029  10.7053  11.2159  12.5792  12.5793  12.8262
    12.8600  13.1004  13.1672  13.6176  13.7074  13.8270  13.8391  14.0071
    14.0480  14.1374  14.2459  14.2574  14.3194  14.3607  14.3884  14.4400
    14.5243  14.6550  14.7643  14.8138  14.9254  14.9763  15.2163  15.2286
    15.3169  15.6685  15.6687  15.7566  15.7869  16.0485  16.0628  16.1340
    16.2144  16.2374  16.2441  16.2596  16.2833  16.3285  16.3295  16.3582
    16.6524  16.7303  16.9282

          k = 0.3333-0.5000 0.2129 ( 29158 PWs)   bands (ev):

   -35.3897 -35.3897 -35.3896 -35.3895 -35.3883 -35.3882 -35.3882 -35.3881
   -35.3776 -35.3775 -35.3774 -35.3774 -35.3767 -35.3766 -35.3766 -35.3765
   -35.3721 -35.3720 -35.3719 -35.3718 -35.3702 -35.3702 -35.3701 -35.3701
   -35.3684 -35.3684 -35.3683 -35.3683 -35.3631 -35.3631 -35.3630 -35.3630
   -35.3618 -35.3617 -35.3617 -35.3616 -35.3594 -35.3593 -35.3593 -35.3592
   -11.9932 -11.9929 -11.9917 -11.9911 -11.9570 -11.9476 -11.9471 -11.9252
   -11.9211 -11.9193 -11.8788 -11.8571 -11.8536 -11.8381 -11.8151 -11.8052
   -11.8047 -11.7995 -11.7956 -11.7938 -11.7901 -11.7894 -11.7832 -11.7825
   -11.7781 -11.7753 -11.7752 -11.7739 -11.7708 -11.7693 -11.7670 -11.7615
   -11.7573 -11.7560 -11.7560 -11.7553 -11.7533 -11.7485 -11.7484 -11.7473
   -11.7443 -11.7428 -11.7401 -11.7381 -11.7369 -11.7346 -11.7339 -11.7317
   -11.7312 -11.7262 -11.7259 -11.7249 -11.7238 -11.7226 -11.7221 -11.7195
   -11.7170 -11.7166 -11.7158 -11.7120 -11.7101 -11.7090 -11.7038 -11.7018
   -11.7008 -11.6979 -11.6971 -11.6948 -11.6928 -11.6919 -11.6878 -11.6850
   -11.6846 -11.6840 -11.6783 -11.6729 -11.6729 -11.6700 -11.6642 -11.6641
    -7.9918  -7.9860  -7.9615  -7.7587  -7.5382  -7.5347  -7.5087  -7.1149
    -6.5195  -6.5148  -6.4872  -6.3609  -6.2986  -6.2917  -6.2618  -1.3957
    -1.3680  -1.2040  -1.1482  -0.9035  -0.8807  -0.7830  -0.7453   0.2254
     0.2369   0.2975   0.3047   0.3739   0.4092   0.5914   0.6324   0.8574
     1.1252   1.1704   1.3161   1.7267   1.8516   1.8690   1.9831   4.9860
     4.9868   5.0285   5.0435   5.1398   5.2232   5.3502   5.3625   6.0395
     6.0606   6.2931   6.3491   6.3844   6.4021   6.4667   6.4712   6.5471
     6.5845   6.7590   6.7919   6.8266   6.8803   6.9751   7.0075   7.0270
     7.0989   7.1621   7.2601   7.2724   7.4853   7.6190   7.7443   8.0417
     8.0873   8.1517   8.2533   8.4976   8.6184   8.6481   8.7472   8.7985
     8.8402   8.8826   8.8923   8.8973   9.0090   9.0283   9.1547   9.2066
     9.3146   9.3761   9.3950   9.4294   9.4444   9.5338   9.6853   9.7203
     9.7505   9.7958   9.9704   9.9866  10.1366  10.1644  10.2987  10.3258
    10.4922  10.5982  10.6317  10.7271  11.2666  12.5372  12.7766  12.9002
    13.0073  13.2354  13.2766  13.4834  13.5412  13.7438  13.7847  13.8971
    13.9693  14.0932  14.1526  14.1921  14.1976  14.2442  14.2969  14.3837
    14.5602  14.6895  14.7443  14.8516  15.0090  15.0387  15.1599  15.2108
    15.3542  15.6654  15.7321  15.8408  15.8816  16.0202  16.0586  16.1654
    16.1965  16.2617  16.2840  16.3183  16.3266  16.3357  16.4301  16.4506
    16.5739  16.6236  16.7981

          k = 0.3333-0.5000-0.3194 ( 29148 PWs)   bands (ev):

   -35.3897 -35.3896 -35.3896 -35.3895 -35.3883 -35.3882 -35.3882 -35.3881
   -35.3775 -35.3775 -35.3774 -35.3773 -35.3767 -35.3767 -35.3766 -35.3765
   -35.3721 -35.3720 -35.3719 -35.3719 -35.3702 -35.3701 -35.3701 -35.3700
   -35.3684 -35.3684 -35.3683 -35.3683 -35.3631 -35.3630 -35.3630 -35.3629
   -35.3617 -35.3617 -35.3617 -35.3616 -35.3594 -35.3593 -35.3593 -35.3592
   -11.9931 -11.9928 -11.9915 -11.9909 -11.9572 -11.9478 -11.9473 -11.9235
   -11.9211 -11.9206 -11.8795 -11.8566 -11.8533 -11.8393 -11.8161 -11.8041
   -11.8034 -11.7987 -11.7949 -11.7937 -11.7915 -11.7893 -11.7843 -11.7832
   -11.7789 -11.7749 -11.7749 -11.7741 -11.7707 -11.7694 -11.7672 -11.7612
   -11.7571 -11.7565 -11.7564 -11.7554 -11.7537 -11.7490 -11.7488 -11.7473
   -11.7438 -11.7429 -11.7394 -11.7384 -11.7370 -11.7340 -11.7326 -11.7321
   -11.7311 -11.7256 -11.7250 -11.7245 -11.7235 -11.7224 -11.7218 -11.7189
   -11.7170 -11.7159 -11.7153 -11.7123 -11.7101 -11.7097 -11.7038 -11.7015
   -11.7010 -11.6980 -11.6974 -11.6945 -11.6929 -11.6922 -11.6883 -11.6851
   -11.6848 -11.6845 -11.6784 -11.6731 -11.6730 -11.6701 -11.6644 -11.6641
    -7.9909  -7.9859  -7.9625  -7.7587  -7.5374  -7.5346  -7.5094  -7.1149
    -6.5195  -6.5147  -6.4872  -6.3609  -6.2986  -6.2917  -6.2618  -1.3466
    -1.2724  -1.2609  -1.2591  -0.8798  -0.8223  -0.8106  -0.8090   0.2270
     0.2373   0.3072   0.3152   0.4328   0.4357   0.5394   0.6080   0.8616
     1.1618   1.1746   1.2837   1.7223   1.8571   1.8664   1.9712   4.9903
     5.0015   5.0789   5.0806   5.0903   5.2059   5.3104   5.3352   6.1228
     6.1638   6.2449   6.2673   6.3693   6.3982   6.4424   6.5269   6.5863
     6.6067   6.6450   6.7888   6.8207   6.8234   6.9213   7.0123   7.0340
     7.0754   7.1594   7.2539   7.2690   7.4876   7.6389   7.7815   8.1921
     8.2665   8.3135   8.3181   8.3806   8.4197   8.5038   8.7387   8.7781
     8.8241   8.8848   8.8940   8.8952   9.0324   9.0863   9.1213   9.1346
     9.3736   9.3985   9.4772   9.4836   9.5072   9.5662   9.5749   9.5893
     9.7976   9.8273   9.8597   9.8859  10.1850  10.2301  10.2698  10.2874
    10.5323  10.5934  10.6415  10.7369  11.2940  12.4788  13.0018  13.0284
    13.1109  13.2130  13.2763  13.4154  13.5275  13.6144  13.6174  13.8879
    13.9724  13.9938  14.1269  14.1513  14.1713  14.1898  14.3261  14.3463
    14.6390  14.6941  14.6989  14.8706  15.0456  15.0571  15.1236  15.2012
    15.3519  15.6603  15.7545  15.8895  15.9452  15.9920  16.0633  16.1746
    16.1819  16.2776  16.2823  16.3317  16.4137  16.4272  16.4425  16.4968
    16.5923  16.6009  16.6578

          k =-0.5000-0.5000 0.0000 ( 29128 PWs)   bands (ev):

   -35.3897 -35.3897 -35.3896 -35.3895 -35.3882 -35.3881 -35.3881 -35.3880
   -35.3775 -35.3775 -35.3774 -35.3774 -35.3767 -35.3766 -35.3766 -35.3765
   -35.3720 -35.3720 -35.3720 -35.3719 -35.3702 -35.3702 -35.3701 -35.3701
   -35.3683 -35.3683 -35.3683 -35.3682 -35.3631 -35.3630 -35.3630 -35.3630
   -35.3617 -35.3616 -35.3616 -35.3616 -35.3593 -35.3593 -35.3593 -35.3593
   -11.9933 -11.9933 -11.9932 -11.9922 -11.9566 -11.9468 -11.9468 -11.9183
   -11.8888 -11.8888 -11.8875 -11.8868 -11.8451 -11.8381 -11.8381 -11.8076
   -11.8049 -11.8049 -11.8001 -11.7839 -11.7829 -11.7829 -11.7829 -11.7777
   -11.7777 -11.7766 -11.7728 -11.7722 -11.7695 -11.7695 -11.7695 -11.7660
   -11.7597 -11.7597 -11.7553 -11.7494 -11.7479 -11.7478 -11.7468 -11.7451
   -11.7451 -11.7448 -11.7448 -11.7401 -11.7352 -11.7350 -11.7350 -11.7328
   -11.7326 -11.7296 -11.7296 -11.7292 -11.7260 -11.7257 -11.7223 -11.7222
   -11.7188 -11.7140 -11.7140 -11.7121 -11.7086 -11.7072 -11.7072 -11.7071
   -11.7013 -11.7013 -11.6983 -11.6928 -11.6914 -11.6876 -11.6876 -11.6875
   -11.6868 -11.6804 -11.6789 -11.6789 -11.6721 -11.6721 -11.6652 -11.6642
    -7.8023  -7.7917  -7.7917  -7.7842  -7.7819  -7.7310  -7.7309  -7.1625
    -6.3848  -6.3774  -6.3774  -6.3728  -6.3528  -6.3404  -6.3403  -1.2428
    -1.2425  -1.2424  -1.2321  -1.0043  -0.8626  -0.8626  -0.8410   0.1894
     0.2478   0.2478   0.2913   0.4263   0.5085   0.5085   0.5638   0.8427
     1.4809   1.5141   1.5141   1.5538   1.6824   1.7792   1.7793   4.8534
     4.8958   4.9086   4.9086   5.2091   5.2982   5.3707   5.3707   6.2640
     6.3577   6.3859   6.3859   6.4124   6.4651   6.4651   6.5047   6.5275
     6.6967   6.7909   6.7909   6.8441   6.8559   6.8560   6.9166   6.9852
     7.1479   7.2124   7.2124   7.3629   7.4077   7.4459   7.4459   7.4481
     7.9622   7.9622   8.1423   8.9004   8.9004   8.9041   8.9197   8.9269
     8.9269   8.9301   8.9523   8.9799   8.9929   9.0184   9.0184   9.0424
     9.2167   9.2786   9.2786   9.2990   9.3074   9.4061   9.4061   9.4276
    10.1439  10.1439  10.2195  10.2779  10.3705  10.4011  10.4011  10.4039
    10.4707  10.6277  10.6277  10.7138  10.9599  12.2491  12.2491  12.2957
    12.8290  13.2223  13.2886  13.2886  13.7935  13.9018  13.9019  13.9441
    14.1029  14.1702  14.3024  14.3024  14.4334  14.4636  14.4636  14.5969
    14.6134  14.7110  14.7110  14.7137  15.0761  15.0761  15.2621  15.4576
    15.5505  15.5506  15.5914  15.6183  15.8631  15.8659  15.8659  16.1393
    16.1521  16.1785  16.1918  16.1918  16.2041  16.5817  16.5817  16.6702
    16.7020  16.7047  16.7048

          k =-0.5000-0.5000 0.1065 ( 29144 PWs)   bands (ev):

   -35.3897 -35.3897 -35.3897 -35.3896 -35.3882 -35.3882 -35.3881 -35.3881
   -35.3776 -35.3775 -35.3775 -35.3774 -35.3767 -35.3767 -35.3766 -35.3765
   -35.3720 -35.3720 -35.3719 -35.3718 -35.3702 -35.3702 -35.3702 -35.3701
   -35.3684 -35.3683 -35.3683 -35.3683 -35.3631 -35.3631 -35.3631 -35.3630
   -35.3617 -35.3617 -35.3617 -35.3616 -35.3593 -35.3592 -35.3592 -35.3591
   -11.9932 -11.9931 -11.9931 -11.9921 -11.9568 -11.9470 -11.9470 -11.9183
   -11.8885 -11.8885 -11.8878 -11.8864 -11.8462 -11.8391 -11.8391 -11.8066
   -11.8040 -11.8040 -11.7994 -11.7852 -11.7829 -11.7829 -11.7829 -11.7786
   -11.7786 -11.7767 -11.7735 -11.7721 -11.7690 -11.7690 -11.7689 -11.7660
   -11.7598 -11.7597 -11.7553 -11.7510 -11.7486 -11.7486 -11.7461 -11.7449
   -11.7447 -11.7444 -11.7444 -11.7390 -11.7375 -11.7354 -11.7354 -11.7322
   -11.7314 -11.7288 -11.7282 -11.7282 -11.7254 -11.7246 -11.7223 -11.7222
   -11.7188 -11.7137 -11.7137 -11.7119 -11.7084 -11.7074 -11.7071 -11.7071
   -11.7016 -11.7015 -11.6984 -11.6929 -11.6911 -11.6880 -11.6879 -11.6879
   -11.6868 -11.6808 -11.6790 -11.6790 -11.6723 -11.6723 -11.6653 -11.6644
    -7.8009  -7.7913  -7.7912  -7.7841  -7.7833  -7.7314  -7.7314  -7.1626
    -6.3848  -6.3774  -6.3774  -6.3727  -6.3528  -6.3404  -6.3404  -1.2334
    -1.2220  -1.2220  -1.2112  -1.0159  -0.8951  -0.8951  -0.8755   0.2146
     0.2690   0.2690   0.2951   0.4180   0.5028   0.5028   0.5609   0.8428
     1.4908   1.5220   1.5220   1.5550   1.6687   1.7674   1.7675   4.8747
     4.9130   4.9254   4.9254   5.1841   5.2761   5.3502   5.3502   6.2859
     6.3883   6.4018   6.4018   6.4259   6.4808   6.4882   6.4882   6.5774
     6.6621   6.7277   6.7277   6.8684   6.8973   6.8973   6.8985   6.9770
     7.0378   7.0722   7.0722   7.1283   7.4191   7.5612   7.5612   7.7561
     8.0210   8.0210   8.1713   8.8421   8.8433   8.8433   8.9190   8.9259
     8.9259   8.9267   8.9360   8.9766   9.0197   9.0415   9.0415   9.0699
     9.2685   9.2806   9.3300   9.3300   9.3629   9.3788   9.3788   9.4016
    10.0782  10.0783  10.1034  10.1914  10.4009  10.4009  10.4105  10.4266
    10.4864  10.6158  10.6158  10.6980  11.0055  12.3652  12.3652  12.4152
    12.6876  13.3079  13.3079  13.3102  13.8265  13.8319  13.8329  13.8329
    14.0764  14.2232  14.2232  14.2523  14.3829  14.4332  14.4333  14.6035
    14.6158  14.6614  14.6614  14.6832  15.1577  15.1577  15.2209  15.4943
    15.4989  15.5486  15.5486  15.6067  15.8995  15.8995  15.9729  16.0589
    16.1639  16.2321  16.2321  16.2446  16.2677  16.5437  16.5438  16.6446
    16.6643  16.6759  16.6760

          k =-0.5000-0.5000 0.2129 ( 29112 PWs)   bands (ev):

   -35.3897 -35.3897 -35.3896 -35.3895 -35.3882 -35.3882 -35.3881 -35.3880
   -35.3775 -35.3775 -35.3774 -35.3773 -35.3767 -35.3766 -35.3766 -35.3765
   -35.3720 -35.3719 -35.3719 -35.3718 -35.3702 -35.3701 -35.3701 -35.3700
   -35.3684 -35.3683 -35.3683 -35.3682 -35.3631 -35.3630 -35.3630 -35.3629
   -35.3617 -35.3616 -35.3616 -35.3615 -35.3593 -35.3592 -35.3592 -35.3591
   -11.9929 -11.9929 -11.9928 -11.9920 -11.9573 -11.9474 -11.9473 -11.9181
   -11.8885 -11.8879 -11.8879 -11.8855 -11.8483 -11.8410 -11.8410 -11.8043
   -11.8022 -11.8022 -11.7977 -11.7882 -11.7831 -11.7831 -11.7828 -11.7804
   -11.7804 -11.7772 -11.7753 -11.7708 -11.7681 -11.7681 -11.7680 -11.7661
   -11.7598 -11.7598 -11.7554 -11.7524 -11.7494 -11.7494 -11.7480 -11.7453
   -11.7440 -11.7440 -11.7420 -11.7400 -11.7369 -11.7351 -11.7351 -11.7328
   -11.7304 -11.7270 -11.7261 -11.7261 -11.7247 -11.7222 -11.7222 -11.7222
   -11.7190 -11.7132 -11.7132 -11.7113 -11.7085 -11.7080 -11.7069 -11.7068
   -11.7022 -11.7022 -11.6986 -11.6932 -11.6904 -11.6890 -11.6885 -11.6885
   -11.6870 -11.6816 -11.6794 -11.6794 -11.6726 -11.6726 -11.6654 -11.6649
    -7.7972  -7.7904  -7.7904  -7.7870  -7.7841  -7.7324  -7.7323  -7.1627
    -6.3847  -6.3774  -6.3773  -6.3726  -6.3529  -6.3404  -6.3404  -1.2109
    -1.1639  -1.1639  -1.1515  -1.0426  -0.9761  -0.9760  -0.9607   0.2717
     0.3030   0.3136   0.3136   0.3930   0.4878   0.4878   0.5551   0.8431
     1.5180   1.5410   1.5410   1.5575   1.6340   1.7406   1.7406   4.9328
     4.9552   4.9649   4.9650   5.1187   5.2245   5.3033   5.3033   6.3267
     6.4489   6.4489   6.4601   6.4833   6.5035   6.5488   6.5488   6.5959
     6.6370   6.6371   6.6391   6.8353   6.8460   6.8782   6.8782   6.8794
     6.9116   6.9397   6.9397   6.9807   7.4645   7.6631   7.6632   8.0889
     8.1991   8.1992   8.2410   8.6650   8.6845   8.6845   8.8929   8.9181
     8.9248   8.9248   8.9297   8.9736   9.0741   9.1059   9.1059   9.1409
     9.2206   9.3015   9.3015   9.3312   9.4272   9.4772   9.4772   9.5174
     9.8935   9.9042   9.9042   9.9839  10.4103  10.4103  10.4263  10.4750
    10.5302  10.5923  10.5923  10.6532  11.1088  12.4536  12.6590  12.6590
    12.7195  13.3010  13.3010  13.4724  13.5160  13.6345  13.6345  13.9386
    13.9572  14.1187  14.1187  14.2536  14.3663  14.3663  14.4536  14.6178
    14.6188  14.6279  14.6279  14.6489  15.1602  15.2367  15.2367  15.3261
    15.5458  15.5458  15.5472  15.5831  15.9650  15.9873  15.9873  16.1720
    16.2454  16.3351  16.3375  16.3375  16.3459  16.4557  16.4558  16.5624
    16.5750  16.5941  16.5957

          k =-0.5000-0.5000-0.3194 ( 29216 PWs)   bands (ev):

   -35.3897 -35.3897 -35.3897 -35.3896 -35.3883 -35.3883 -35.3883 -35.3882
   -35.3777 -35.3776 -35.3775 -35.3775 -35.3768 -35.3768 -35.3767 -35.3767
   -35.3721 -35.3721 -35.3720 -35.3719 -35.3702 -35.3702 -35.3702 -35.3701
   -35.3685 -35.3685 -35.3684 -35.3684 -35.3632 -35.3632 -35.3631 -35.3631
   -35.3618 -35.3618 -35.3618 -35.3617 -35.3595 -35.3594 -35.3594 -35.3593
   -11.9928 -11.9928 -11.9927 -11.9919 -11.9575 -11.9476 -11.9476 -11.9181
   -11.8889 -11.8876 -11.8876 -11.8851 -11.8494 -11.8420 -11.8420 -11.8029
   -11.8013 -11.8013 -11.7968 -11.7900 -11.7835 -11.7835 -11.7828 -11.7813
   -11.7813 -11.7781 -11.7758 -11.7702 -11.7678 -11.7676 -11.7676 -11.7662
   -11.7599 -11.7599 -11.7554 -11.7529 -11.7497 -11.7497 -11.7488 -11.7454
   -11.7441 -11.7441 -11.7410 -11.7408 -11.7359 -11.7348 -11.7348 -11.7334
   -11.7303 -11.7261 -11.7252 -11.7252 -11.7244 -11.7224 -11.7223 -11.7211
   -11.7192 -11.7130 -11.7130 -11.7101 -11.7099 -11.7078 -11.7066 -11.7066
   -11.7027 -11.7027 -11.6989 -11.6933 -11.6900 -11.6895 -11.6888 -11.6888
   -11.6871 -11.6821 -11.6796 -11.6796 -11.6728 -11.6728 -11.6655 -11.6652
    -7.7922  -7.7921  -7.7900  -7.7899  -7.7841  -7.7328  -7.7328  -7.1627
    -6.3848  -6.3773  -6.3773  -6.3726  -6.3530  -6.3405  -6.3405  -1.1964
    -1.0912  -1.0912  -1.0662  -1.0596  -1.0595  -1.0591  -1.0579   0.3070
     0.3147   0.3385   0.3385   0.3653   0.4770   0.4770   0.5521   0.8432
     1.5417   1.5529   1.5530   1.5588   1.6066   1.7247   1.7248   4.9835
     4.9894   4.9894   4.9916   5.0562   5.1915   5.2752   5.2752   6.3407
     6.5098   6.5098   6.5105   6.5268   6.5369   6.5369   6.6021   6.6029
     6.6339   6.6366   6.6366   6.6500   6.7692   6.7692   6.7792   6.8222
     6.9345   6.9504   6.9504   6.9625   7.4747   7.6918   7.6918   8.2822
     8.3954   8.3954   8.3988   8.4058   8.5026   8.5026   8.8690   8.9178
     8.9244   8.9244   8.9291   8.9728   9.1150   9.1793   9.1818   9.1818
     9.2204   9.2204   9.2326   9.2392   9.5948   9.6612   9.6613   9.7057
     9.7057   9.7066   9.7364   9.7418  10.4185  10.4185  10.4350  10.4889
    10.5798  10.5798  10.5878  10.5946  11.1698  12.3407  12.9730  12.9731
    13.0927  13.0958  13.0958  13.1372  13.5606  13.5606  13.5896  13.8513
    14.0784  14.0784  14.0825  14.0991  14.3341  14.3342  14.5859  14.6027
    14.6226  14.6226  14.6283  14.6364  15.1515  15.2156  15.2555  15.2555
    15.5440  15.5440  15.5625  15.5680  15.9374  16.0494  16.0494  16.2713
    16.3587  16.3696  16.3917  16.3951  16.3996  16.4523  16.4559  16.4656
    16.4656  16.4715  16.4963

     the Fermi energy is    11.6462 ev

!    total energy              =  -18126.65286010 Ry
     total all-electron energy =   -729913.055837 Ry
     estimated scf accuracy    <          1.5E-11 Ry
     smearing contrib. (-TS)   =       0.00287174 Ry
     internal energy E=F+TS    =  -18126.65573184 Ry

     The total energy is F=E-TS. E is the sum of the following terms:
     one-electron contribution =   -2224.61353318 Ry
     hartree contribution      =    1419.60940031 Ry
     xc contribution           =    -851.76180862 Ry
     ewald contribution        =   -3300.73002606 Ry
     one-center paw contrib.   =  -13169.15976429 Ry

     convergence has been achieved in  14 iterations

     Forces acting on atoms (cartesian axes, Ry/au):

     atom    1 type  1   force =     0.00000000   -0.00068771   -0.00234585
     atom    2 type  1   force =     0.00000000    0.00158317    0.00028363
     atom    3 type  1   force =    -0.00158317    0.00000000   -0.00028363
     atom    4 type  1   force =     0.00068771    0.00000000    0.00234585
     atom    5 type  1   force =     0.00000000    0.00068771   -0.00234585
     atom    6 type  1   force =     0.00000000   -0.00158317    0.00028363
     atom    7 type  1   force =     0.00000000    0.00065743   -0.00113492
     atom    8 type  1   force =     0.00000000    0.00082263   -0.00081246
     atom    9 type  1   force =    -0.00082263    0.00000000    0.00081246
     atom   10 type  1   force =    -0.00065743    0.00000000    0.00113492
     atom   11 type  1   force =     0.00158317    0.00000000   -0.00028363
     atom   12 type  1   force =    -0.00068771    0.00000000    0.00234585
     atom   13 type  1   force =     0.00000000   -0.00065743   -0.00113492
     atom   14 type  1   force =     0.00000000   -0.00082263   -0.00081246
     atom   15 type  1   force =     0.00082263    0.00000000    0.00081246
     atom   16 type  1   force =     0.00065743    0.00000000    0.00113492
     atom   17 type  3   force =     0.00000000   -0.00149304    0.00193494
     atom   18 type  3   force =     0.00149304    0.00000000   -0.00193494
     atom   19 type  3   force =     0.00000000    0.00149304    0.00193494
     atom   20 type  3   force =     0.00000000   -0.00065670   -0.00048446
     atom   21 type  3   force =     0.00065670    0.00000000    0.00048446
     atom   22 type  3   force =    -0.00149304    0.00000000   -0.00193494
     atom   23 type  3   force =     0.00000000    0.00065670   -0.00048446
     atom   24 type  3   force =    -0.00065670    0.00000000    0.00048446
     atom   25 type  2   force =     0.00000000    0.00000000    0.00000000
     atom   26 type  2   force =     0.00000000    0.00000000    0.00003167
     atom   27 type  2   force =     0.00000000    0.00000000   -0.00096315
     atom   28 type  2   force =     0.00000000    0.00000000    0.00000000
     atom   29 type  2   force =    -0.00067090   -0.00067090    0.00000000
     atom   30 type  2   force =     0.00008387   -0.00008387   -0.00000000
     atom   31 type  2   force =     0.00067090   -0.00067090    0.00000000
     atom   32 type  2   force =    -0.00008387   -0.00008387   -0.00000000
     atom   33 type  2   force =     0.00008387    0.00008387   -0.00000000
     atom   34 type  2   force =     0.00067090    0.00067090    0.00000000
     atom   35 type  2   force =     0.00000000    0.00000000    0.00096315
     atom   36 type  2   force =     0.00000000    0.00000000   -0.00003167
     atom   37 type  2   force =     0.00000000    0.00000000    0.00000000
     atom   38 type  2   force =    -0.00008387    0.00008387   -0.00000000
     atom   39 type  2   force =    -0.00067090    0.00067090    0.00000000

     Total force =     0.008863     Total SCF correction =     0.000023


     Computing stress (Cartesian axis) and pressure

          total   stress  (Ry/bohr**3)                   (kbar)     P=       -3.66
  -0.00002390   0.00000000   0.00000000           -3.52        0.00        0.00
   0.00000000  -0.00002390   0.00000000            0.00       -3.52        0.00
   0.00000000   0.00000000  -0.00002683            0.00        0.00       -3.95

     Energy error            =      5.7E-04 Ry
     Gradient error          =      2.3E-03 Ry/Bohr

     number of scf cycles    =   5
     number of bfgs steps    =   4

     energy             old  =  -18126.6522869766 Ry
     energy             new  =  -18126.6528600988 Ry

     CASE: energy            _new < energy            _old

     new trust radius        =       0.0091264507 bohr
     new conv_thr            =            7.8E-11 Ry


ATOMIC_POSITIONS (crystal)
Bi               0.0000000000       -0.0004496068        0.3545667278
Bi               0.0000000000       -0.0006586958        0.6453077646
Bi               0.2506587741        0.2500000783        0.8546921825
Bi               0.2504496851        0.2500000783        0.1454333096
Bi               0.0000000000        0.5004496341        0.3545667278
Bi               0.0000000000        0.5006587231        0.6453077646
Bi               0.5000000273       -0.0050015769        0.3544040271
Bi               0.5000000273       -0.0004205405        0.6446726727
Bi               0.2504206188        0.7499999763        0.8553272744
Bi               0.2550016552        0.7499999763        0.1455960103
Bi               0.7493412805        0.2500000783        0.8546921825
Bi               0.7495503695        0.2500000783        0.1454333096
Bi               0.5000000273        0.5050016042        0.3544040271
Bi               0.5000000273        0.5004205678        0.6446726727
Bi               0.7495794358        0.7499999763        0.8553272744
Bi               0.7449983994        0.7499999763        0.1455960103
Se               0.0000000000       -0.0019288727        0.0021317317
Se               0.2519289510        0.2500000783        0.4978683057
Se               0.0000000000        0.5019289000        0.0021317317
Se               0.5000000273       -0.0005021304       -0.0001923110
Se               0.2505022087        0.7499999763        0.5001923484
Se               0.7480711036        0.2500000783        0.4978683057
Se               0.5000000273        0.5005021577       -0.0001923110
Se               0.7494978459        0.7499999763        0.5001923484
O                0.0000000000        0.2500000783        0.2499999774
O                0.0000000000        0.7499999763        0.7499354987
O                0.0000000000        0.7499999763        0.2480562317
O                0.0000000000        0.2500000783        0.7500000148
O                0.7511554973        0.0011555210        0.2499999774
O                0.2495550534        0.0004450249        0.7500000148
O                0.2488445573        0.0011555210        0.2499999774
O                0.7504450012        0.0004450249        0.7500000148
O                0.2495550534        0.4995550024        0.7500000148
O                0.2488445573        0.4988445063        0.2499999774
O                0.5000000273        0.2500000783        0.2519437231
O                0.5000000273        0.2500000783        0.7500645309
O                0.5000000273        0.7499999763        0.7500000148
O                0.7504450012        0.4995550024        0.7500000148
O                0.7511554973        0.4988445063        0.2499999774



     Writing config-only to output data dir ./out/voxy.save/ :
     XML data file
     NEW-OLD atomic charge density approx. for the potential

     total cpu time spent up to now is     2894.7 secs

     Self-consistent Calculation

     iteration #  1     ecut=    50.00 Ry     beta= 0.40
     Davidson diagonalization with overlap
     ethr =  1.00E-06,  avg # of iterations =  5.2

     Threshold (ethr) on eigenvalues was too large:
     Diagonalizing with lowered threshold

     Davidson diagonalization with overlap
     ethr =  7.18E-09,  avg # of iterations =  5.0

     total cpu time spent up to now is     2980.7 secs

     total energy              =  -18126.65306299 Ry
     estimated scf accuracy    <       0.00004034 Ry

     iteration #  2     ecut=    50.00 Ry     beta= 0.40
     Davidson diagonalization with overlap
     ethr =  8.81E-09,  avg # of iterations =  3.1

     total cpu time spent up to now is     3009.6 secs

     total energy              =  -18126.65301987 Ry
     estimated scf accuracy    <       0.00002162 Ry

     iteration #  3     ecut=    50.00 Ry     beta= 0.40
     Davidson diagonalization with overlap
     ethr =  4.72E-09,  avg # of iterations =  2.0

     total cpu time spent up to now is     3034.2 secs

     total energy              =  -18126.65299654 Ry
     estimated scf accuracy    <       0.00001865 Ry

     iteration #  4     ecut=    50.00 Ry     beta= 0.40
     Davidson diagonalization with overlap
     ethr =  4.07E-09,  avg # of iterations =  2.0

     total cpu time spent up to now is     3058.0 secs

     total energy              =  -18126.65297212 Ry
     estimated scf accuracy    <       0.00000171 Ry

     iteration #  5     ecut=    50.00 Ry     beta= 0.40
     Davidson diagonalization with overlap
     ethr =  3.74E-10,  avg # of iterations =  4.1

     total cpu time spent up to now is     3090.4 secs

     total energy              =  -18126.65296551 Ry
     estimated scf accuracy    <       0.00000033 Ry

     iteration #  6     ecut=    50.00 Ry     beta= 0.40
     Davidson diagonalization with overlap
     ethr =  7.24E-11,  avg # of iterations =  3.2

     total cpu time spent up to now is     3121.3 secs

     total energy              =  -18126.65296375 Ry
     estimated scf accuracy    <       0.00000012 Ry

     iteration #  7     ecut=    50.00 Ry     beta= 0.40
     Davidson diagonalization with overlap
     ethr =  2.62E-11,  avg # of iterations =  4.0

     total cpu time spent up to now is     3153.4 secs

     total energy              =  -18126.65296350 Ry
     estimated scf accuracy    <       0.00000003 Ry

     iteration #  8     ecut=    50.00 Ry     beta= 0.40
     Davidson diagonalization with overlap
     ethr =  6.48E-12,  avg # of iterations =  3.1

     total cpu time spent up to now is     3184.2 secs

     total energy              =  -18126.65296350 Ry
     estimated scf accuracy    <          5.9E-09 Ry

     iteration #  9     ecut=    50.00 Ry     beta= 0.40
     Davidson diagonalization with overlap
     ethr =  1.29E-12,  avg # of iterations =  3.8

     total cpu time spent up to now is     3214.7 secs

     total energy              =  -18126.65296350 Ry
     estimated scf accuracy    <          1.1E-09 Ry

     iteration # 10     ecut=    50.00 Ry     beta= 0.40
     Davidson diagonalization with overlap
     ethr =  2.30E-13,  avg # of iterations =  4.0

     total cpu time spent up to now is     3247.6 secs

     total energy              =  -18126.65296350 Ry
     estimated scf accuracy    <          3.5E-10 Ry

     iteration # 11     ecut=    50.00 Ry     beta= 0.40
     Davidson diagonalization with overlap
     ethr =  1.00E-13,  avg # of iterations =  2.0

     total cpu time spent up to now is     3271.8 secs

     End of self-consistent calculation

          k = 0.0000 0.0000 0.0000 ( 29231 PWs)   bands (ev):

   -35.3855 -35.3855 -35.3854 -35.3854 -35.3842 -35.3841 -35.3841 -35.3840
   -35.3736 -35.3735 -35.3734 -35.3733 -35.3725 -35.3725 -35.3724 -35.3724
   -35.3721 -35.3721 -35.3721 -35.3720 -35.3705 -35.3705 -35.3704 -35.3704
   -35.3679 -35.3679 -35.3678 -35.3678 -35.3651 -35.3651 -35.3650 -35.3649
   -35.3638 -35.3637 -35.3637 -35.3637 -35.3614 -35.3614 -35.3614 -35.3613
   -12.0138 -12.0095 -12.0067 -11.9734 -11.9646 -11.9446 -11.9445 -11.9445
   -11.9428 -11.9381 -11.9090 -11.9090 -11.8821 -11.8199 -11.8082 -11.8082
   -11.8063 -11.8043 -11.8032 -11.8032 -11.7983 -11.7879 -11.7879 -11.7876
   -11.7870 -11.7837 -11.7824 -11.7823 -11.7626 -11.7620 -11.7620 -11.7546
   -11.7546 -11.7519 -11.7511 -11.7511 -11.7502 -11.7476 -11.7473 -11.7411
   -11.7388 -11.7385 -11.7373 -11.7373 -11.7353 -11.7334 -11.7334 -11.7315
   -11.7310 -11.7310 -11.7285 -11.7222 -11.7201 -11.7200 -11.7183 -11.7162
   -11.7161 -11.7144 -11.7144 -11.7129 -11.7094 -11.7028 -11.6979 -11.6922
   -11.6884 -11.6884 -11.6866 -11.6837 -11.6837 -11.6835 -11.6811 -11.6811
   -11.6811 -11.6732 -11.6663 -11.6630 -11.6630 -11.6569 -11.6556 -11.6555
    -8.5947  -8.3928  -7.1634  -7.1634  -7.1447  -7.1447  -7.1447  -7.1443
    -7.0371  -6.8459  -6.8055  -6.7793  -6.7758  -6.0676  -5.9409  -2.1215
    -1.5552  -0.6311  -0.6261  -0.6260  -0.6205  -0.2518  -0.2517  -0.0444
    -0.0444   0.0373   0.0542   0.2342   0.2342   0.4147   0.4240   0.4240
     0.8394   1.1206   1.1334   1.1334   1.4580   2.3678   3.1753   5.3493
     5.3906   5.3906   5.4617   5.5916   5.5916   5.6992   5.9243   5.9532
     5.9583   5.9583   6.0496   6.1110   6.1503   6.1503   6.3440   6.3440
     6.3655   6.7553   6.7991   6.8191   6.8191   6.8242   6.8443   6.9387
     6.9388   6.9621   7.2603   7.2603   7.3886   7.4581   7.5016   7.7006
     7.7006   8.1221   8.3267   8.4101   8.4101   8.4339   8.4737   8.4737
     8.4740   8.8099   8.9425   8.9555   8.9555   9.0822   9.2092   9.2092
     9.5535   9.7669   9.7669   9.7671   9.7693   9.8477   9.8477  10.0039
    10.0039  10.1015  10.2556  10.2556  10.5273  10.5273  10.5433  10.6119
    10.7789  10.8536  10.8538  10.8642  10.8643  11.5845  11.8051  12.0319
    12.7944  12.8899  13.1588  13.1588  13.6269  13.6269  13.8808  14.0132
    14.0132  14.1136  14.3628  14.3628  14.4896  14.5039  14.5748  14.6031
    14.7563  14.7564  14.9885  15.0981  15.1048  15.3259  15.3259  15.4386
    15.5816  15.6234  15.7549  15.7549  15.7947  15.7947  15.7970  15.8204
    15.8947  15.9613  15.9613  15.9731  16.2207  16.2207  16.3365  16.6834
    16.9894  17.1221  17.1221

          k = 0.0000 0.0000 0.1065 ( 29155 PWs)   bands (ev):

   -35.3854 -35.3854 -35.3854 -35.3853 -35.3841 -35.3840 -35.3840 -35.3839
   -35.3734 -35.3734 -35.3733 -35.3732 -35.3724 -35.3724 -35.3723 -35.3722
   -35.3721 -35.3721 -35.3720 -35.3720 -35.3704 -35.3704 -35.3703 -35.3703
   -35.3679 -35.3678 -35.3678 -35.3676 -35.3649 -35.3649 -35.3649 -35.3649
   -35.3637 -35.3637 -35.3636 -35.3635 -35.3615 -35.3614 -35.3613 -35.3611
   -12.0137 -12.0088 -12.0063 -11.9741 -11.9646 -11.9452 -11.9444 -11.9444
   -11.9423 -11.9382 -11.9091 -11.9091 -11.8822 -11.8190 -11.8078 -11.8078
   -11.8062 -11.8041 -11.8028 -11.8028 -11.7981 -11.7878 -11.7877 -11.7875
   -11.7870 -11.7858 -11.7823 -11.7823 -11.7632 -11.7632 -11.7632 -11.7557
   -11.7557 -11.7524 -11.7519 -11.7519 -11.7495 -11.7479 -11.7474 -11.7421
   -11.7387 -11.7377 -11.7370 -11.7370 -11.7346 -11.7328 -11.7328 -11.7306
   -11.7293 -11.7293 -11.7265 -11.7218 -11.7203 -11.7203 -11.7182 -11.7160
   -11.7160 -11.7137 -11.7137 -11.7123 -11.7093 -11.7036 -11.6978 -11.6927
   -11.6886 -11.6886 -11.6868 -11.6839 -11.6839 -11.6838 -11.6812 -11.6811
   -11.6811 -11.6732 -11.6666 -11.6631 -11.6631 -11.6569 -11.6556 -11.6556
    -8.5946  -8.3929  -7.1627  -7.1627  -7.1454  -7.1454  -7.1446  -7.1442
    -7.0372  -6.8459  -6.8053  -6.7795  -6.7759  -6.0676  -5.9409  -2.0933
    -1.6092  -0.6312  -0.6250  -0.6250  -0.6199  -0.2441  -0.2441  -0.0599
    -0.0599   0.0189   0.1569   0.2418   0.2418   0.4146   0.4217   0.4217
     0.8375   1.1126   1.1354   1.1354   1.3446   2.4609   3.1464   5.3766
     5.3932   5.3932   5.4838   5.5861   5.5861   5.6630   5.8651   5.8926
     5.9441   5.9441   6.0809   6.1515   6.1515   6.1730   6.3729   6.3729
     6.3784   6.7558   6.8001   6.8190   6.8190   6.8233   6.8435   6.8902
     6.8902   6.9107   7.2849   7.2849   7.4021   7.5362   7.5609   7.7210
     7.7210   8.1222   8.3240   8.4176   8.4176   8.4555   8.4802   8.4802
     8.5082   8.7409   8.8232   8.9554   8.9554   9.0100   9.2092   9.2092
     9.5514   9.7553   9.7554   9.7569   9.7800   9.8705   9.8705   9.9791
     9.9791  10.1242  10.2236  10.2236  10.5263  10.5263  10.5345  10.6108
    10.8076  10.8533  10.8549  10.8645  10.8645  11.6911  11.9588  11.9922
    12.7452  12.9607  13.1791  13.1791  13.6154  13.6154  13.7398  14.0873
    14.0873  14.1139  14.1286  14.3758  14.3758  14.4855  14.5020  14.7205
    14.7507  14.7507  14.9226  15.1853  15.2964  15.2964  15.3234  15.4969
    15.4969  15.5248  15.5400  15.6684  15.7723  15.7724  15.8047  15.8263
    15.9485  15.9846  16.1732  16.1732  16.2941  16.2941  16.3586  16.6547
    16.9396  17.1025  17.1025

          k = 0.0000 0.0000 0.2129 ( 29220 PWs)   bands (ev):

   -35.3855 -35.3855 -35.3855 -35.3854 -35.3843 -35.3842 -35.3842 -35.3840
   -35.3735 -35.3734 -35.3734 -35.3733 -35.3725 -35.3724 -35.3724 -35.3723
   -35.3722 -35.3722 -35.3722 -35.3721 -35.3705 -35.3705 -35.3705 -35.3704
   -35.3679 -35.3677 -35.3677 -35.3676 -35.3651 -35.3650 -35.3649 -35.3649
   -35.3638 -35.3637 -35.3637 -35.3636 -35.3614 -35.3613 -35.3613 -35.3612
   -12.0137 -12.0075 -12.0059 -11.9759 -11.9646 -11.9463 -11.9443 -11.9443
   -11.9417 -11.9387 -11.9094 -11.9094 -11.8824 -11.8167 -11.8069 -11.8069
   -11.8059 -11.8044 -11.8020 -11.8020 -11.7975 -11.7900 -11.7875 -11.7875
   -11.7875 -11.7869 -11.7821 -11.7821 -11.7656 -11.7656 -11.7644 -11.7579
   -11.7579 -11.7543 -11.7533 -11.7533 -11.7484 -11.7483 -11.7477 -11.7438
   -11.7387 -11.7367 -11.7366 -11.7346 -11.7333 -11.7313 -11.7312 -11.7297
   -11.7268 -11.7268 -11.7228 -11.7211 -11.7208 -11.7208 -11.7179 -11.7159
   -11.7159 -11.7125 -11.7125 -11.7111 -11.7093 -11.7055 -11.6979 -11.6940
   -11.6889 -11.6889 -11.6874 -11.6846 -11.6845 -11.6845 -11.6815 -11.6813
   -11.6813 -11.6734 -11.6674 -11.6634 -11.6633 -11.6570 -11.6557 -11.6557
    -8.5943  -8.3933  -7.1611  -7.1611  -7.1470  -7.1470  -7.1446  -7.1440
    -7.0375  -6.8459  -6.8048  -6.7799  -6.7760  -6.0676  -5.9409  -2.0121
    -1.7375  -0.6316  -0.6229  -0.6228  -0.6186  -0.2248  -0.2247  -0.0934
    -0.0934   0.0184   0.2552   0.2552   0.3422   0.4174   0.4174   0.4441
     0.8317   1.0098   1.1394   1.1394   1.1851   2.6387   3.0677   5.3988
     5.3988   5.4560   5.5407   5.5749   5.5749   5.6116   5.7288   5.8066
     5.9213   5.9213   6.0382   6.1407   6.1408   6.3213   6.4658   6.4658
     6.4744   6.7568   6.7700   6.7700   6.7753   6.8023   6.8195   6.8195
     6.8211   6.8421   7.2916   7.3310   7.3310   7.7606   7.7606   7.7782
     7.8239   8.1223   8.3102   8.4294   8.4294   8.4728   8.4969   8.4969
     8.5296   8.5332   8.6165   8.8799   8.9551   8.9551   9.2092   9.2092
     9.5492   9.7322   9.7323   9.7385   9.8366   9.9240   9.9241   9.9383
     9.9383  10.0871  10.1412  10.1412  10.5250  10.5250  10.5484  10.6065
    10.8535  10.8562  10.8650  10.8651  10.8957  11.7975  12.0494  12.3567
    12.6268  13.0790  13.2260  13.2260  13.4705  13.5040  13.5841  13.5841
    14.2231  14.2933  14.2933  14.4024  14.4024  14.4769  14.4954  14.7339
    14.7339  14.7806  14.9063  15.0368  15.0368  15.0406  15.3490  15.3604
    15.3605  15.5006  15.6972  15.7883  15.7883  15.8127  15.8357  15.9566
    16.1061  16.1583  16.2087  16.2087  16.4222  16.5681  16.5681  16.5760
    16.7570  17.0327  17.0497

          k = 0.0000 0.0000-0.3194 ( 29204 PWs)   bands (ev):

   -35.3855 -35.3855 -35.3854 -35.3854 -35.3842 -35.3841 -35.3841 -35.3840
   -35.3734 -35.3733 -35.3733 -35.3732 -35.3724 -35.3724 -35.3723 -35.3722
   -35.3722 -35.3721 -35.3721 -35.3721 -35.3705 -35.3704 -35.3704 -35.3703
   -35.3679 -35.3678 -35.3678 -35.3677 -35.3650 -35.3650 -35.3648 -35.3648
   -35.3637 -35.3637 -35.3636 -35.3636 -35.3615 -35.3613 -35.3613 -35.3612
   -12.0137 -12.0068 -12.0056 -11.9768 -11.9646 -11.9468 -11.9443 -11.9442
   -11.9414 -11.9390 -11.9096 -11.9096 -11.8826 -11.8152 -11.8065 -11.8065
   -11.8057 -11.8050 -11.8017 -11.8017 -11.7971 -11.7920 -11.7874 -11.7874
   -11.7874 -11.7869 -11.7820 -11.7820 -11.7667 -11.7667 -11.7649 -11.7590
   -11.7590 -11.7554 -11.7539 -11.7539 -11.7486 -11.7479 -11.7475 -11.7447
   -11.7386 -11.7365 -11.7365 -11.7325 -11.7321 -11.7305 -11.7304 -11.7299
   -11.7257 -11.7257 -11.7213 -11.7209 -11.7209 -11.7207 -11.7178 -11.7158
   -11.7157 -11.7119 -11.7119 -11.7101 -11.7093 -11.7069 -11.6979 -11.6947
   -11.6891 -11.6891 -11.6877 -11.6850 -11.6848 -11.6848 -11.6816 -11.6814
   -11.6813 -11.6734 -11.6678 -11.6635 -11.6634 -11.6570 -11.6557 -11.6557
    -8.5941  -8.3934  -7.1602  -7.1602  -7.1480  -7.1480  -7.1446  -7.1439
    -7.0376  -6.8458  -6.8046  -6.7801  -6.7760  -6.0676  -5.9409  -1.9068
    -1.8645  -0.6319  -0.6218  -0.6217  -0.6179  -0.2111  -0.2110  -0.1136
    -0.1136   0.0200   0.2612   0.2612   0.3812   0.4153   0.4153   0.6175
     0.7729   0.8558   1.1414   1.1414   1.1641   2.7462   3.0010   5.4018
     5.4018   5.5692   5.5692   5.5724   5.5733   5.5859   5.6056   5.7547
     5.9115   5.9115   6.0020   6.1324   6.1325   6.4271   6.5685   6.5686
     6.5746   6.6405   6.6575   6.6575   6.7573   6.8037   6.8193   6.8193
     6.8199   6.8414   7.2211   7.3525   7.3526   7.7804   7.7804   8.0197
     8.1224   8.1644   8.1748   8.1961   8.3836   8.4339   8.4339   8.5070
     8.5070   8.5273   8.6965   8.7791   8.9550   8.9550   9.2092   9.2092
     9.5498   9.7205   9.7206   9.7267   9.9006   9.9006   9.9202   9.9989
    10.0106  10.0107  10.0568  10.0568  10.5245  10.5246  10.5665  10.6014
    10.8536  10.8568  10.8653  10.8653  10.9626  11.7363  12.3194  12.4250
    12.8689  12.9229  13.1602  13.2542  13.2543  13.3200  13.5631  13.5631
    14.3531  14.4064  14.4064  14.4726  14.4921  14.5559  14.5559  14.6290
    14.6291  14.7337  14.8295  14.8295  14.8633  14.9317  15.3472  15.3472
    15.4489  15.4728  15.7031  15.7955  15.7955  15.8203  15.8414  15.9556
    16.2184  16.2184  16.3608  16.4652  16.5295  16.5380  16.6082  16.6459
    16.7291  16.7291  16.9515

          k = 0.0000 0.1667 0.0000 ( 29199 PWs)   bands (ev):

   -35.3855 -35.3854 -35.3854 -35.3853 -35.3842 -35.3841 -35.3841 -35.3840
   -35.3735 -35.3734 -35.3734 -35.3732 -35.3725 -35.3724 -35.3724 -35.3723
   -35.3721 -35.3721 -35.3721 -35.3720 -35.3705 -35.3704 -35.3704 -35.3704
   -35.3679 -35.3678 -35.3678 -35.3677 -35.3650 -35.3650 -35.3650 -35.3649
   -35.3638 -35.3637 -35.3637 -35.3636 -35.3614 -35.3614 -35.3613 -35.3612
   -12.0112 -12.0050 -12.0023 -11.9690 -11.9670 -11.9624 -11.9484 -11.9463
   -11.9410 -11.9158 -11.9129 -11.9084 -11.8695 -11.8196 -11.8103 -11.8069
   -11.8038 -11.8035 -11.8018 -11.7999 -11.7960 -11.7917 -11.7868 -11.7853
   -11.7847 -11.7830 -11.7812 -11.7792 -11.7633 -11.7611 -11.7604 -11.7577
   -11.7541 -11.7531 -11.7515 -11.7514 -11.7485 -11.7476 -11.7460 -11.7452
   -11.7438 -11.7422 -11.7398 -11.7360 -11.7357 -11.7348 -11.7320 -11.7317
   -11.7307 -11.7287 -11.7272 -11.7228 -11.7216 -11.7199 -11.7197 -11.7192
   -11.7186 -11.7143 -11.7138 -11.7115 -11.7100 -11.7024 -11.7008 -11.6934
   -11.6926 -11.6892 -11.6878 -11.6868 -11.6845 -11.6835 -11.6831 -11.6817
   -11.6816 -11.6733 -11.6674 -11.6654 -11.6628 -11.6586 -11.6577 -11.6565
    -8.5434  -8.3506  -7.5103  -7.3925  -7.1413  -7.1223  -7.1217  -6.9201
    -6.8314  -6.8061  -6.8035  -6.7954  -6.7472  -6.0904  -5.9728  -2.0677
    -1.5129  -0.8947  -0.7141  -0.5988  -0.5980  -0.2603  -0.2524  -0.0525
    -0.0314   0.0635   0.1012   0.2819   0.3269   0.4023   0.4137   0.6562
     0.8080   0.9590   1.0832   1.3490   1.4628   2.3472   3.0361   5.2812
     5.3679   5.4043   5.4362   5.4656   5.6097   5.6680   5.7967   5.8155
     5.8331   5.8372   5.9619   5.9695   6.1665   6.2522   6.2606   6.4206
     6.4337   6.5531   6.6741   6.8823   6.9143   7.0507   7.0517   7.1207
     7.2061   7.2210   7.3419   7.4229   7.5378   7.6197   7.6436   7.7287
     7.8217   7.9328   8.1999   8.2834   8.3613   8.4038   8.4367   8.4453
     8.5991   8.8376   8.8948   8.9077   8.9781   9.0968   9.1123   9.1165
     9.5161   9.5894   9.7254   9.7568   9.8242   9.8578   9.8586   9.8633
     9.9000  10.1637  10.2500  10.2632  10.3446  10.3926  10.4068  10.5534
    10.5947  10.6144  10.7318  10.8370  10.9689  11.9448  12.1297  12.2887
    12.7704  12.9995  13.0057  13.3143  13.6062  13.7162  13.7674  13.9870
    14.0633  14.2963  14.3465  14.4182  14.4460  14.5033  14.6338  14.6798
    14.9035  14.9457  15.0556  15.0576  15.0965  15.1383  15.1884  15.3256
    15.3958  15.4639  15.4973  15.5404  15.6709  15.7524  15.8006  15.8592
    15.9893  16.0613  16.0719  16.0810  16.2199  16.3849  16.4295  16.8470
    16.9756  17.0100  17.0999

          k = 0.0000 0.1667 0.1065 ( 29197 PWs)   bands (ev):

   -35.3854 -35.3854 -35.3854 -35.3853 -35.3842 -35.3841 -35.3841 -35.3840
   -35.3734 -35.3734 -35.3734 -35.3733 -35.3725 -35.3724 -35.3723 -35.3723
   -35.3721 -35.3721 -35.3721 -35.3720 -35.3705 -35.3704 -35.3704 -35.3703
   -35.3680 -35.3678 -35.3678 -35.3677 -35.3650 -35.3650 -35.3650 -35.3649
   -35.3638 -35.3637 -35.3637 -35.3636 -35.3615 -35.3614 -35.3613 -35.3612
   -12.0112 -12.0044 -12.0021 -11.9698 -11.9669 -11.9624 -11.9483 -11.9465
   -11.9414 -11.9162 -11.9131 -11.9079 -11.8699 -11.8187 -11.8097 -11.8065
   -11.8036 -11.8034 -11.8015 -11.7998 -11.7959 -11.7915 -11.7867 -11.7851
   -11.7850 -11.7846 -11.7811 -11.7792 -11.7642 -11.7624 -11.7618 -11.7580
   -11.7549 -11.7535 -11.7523 -11.7521 -11.7495 -11.7477 -11.7465 -11.7454
   -11.7436 -11.7411 -11.7381 -11.7355 -11.7344 -11.7341 -11.7320 -11.7310
   -11.7298 -11.7275 -11.7259 -11.7225 -11.7216 -11.7203 -11.7196 -11.7191
   -11.7185 -11.7137 -11.7135 -11.7110 -11.7100 -11.7031 -11.7009 -11.6935
   -11.6931 -11.6894 -11.6880 -11.6871 -11.6845 -11.6838 -11.6833 -11.6818
   -11.6817 -11.6734 -11.6677 -11.6655 -11.6629 -11.6586 -11.6577 -11.6566
    -8.5433  -8.3508  -7.5101  -7.3927  -7.1407  -7.1230  -7.1216  -6.9201
    -6.8311  -6.8063  -6.8035  -6.7953  -6.7473  -6.0904  -5.9728  -2.0400
    -1.5655  -0.8830  -0.7266  -0.5979  -0.5979  -0.2551  -0.2478  -0.0668
    -0.0409   0.0735   0.1771   0.2859   0.3308   0.4071   0.4127   0.6078
     0.8331   0.9971   1.0845   1.2575   1.4311   2.4199   3.0104   5.2953
     5.3780   5.4038   5.4387   5.4627   5.5923   5.6638   5.7205   5.7616
     5.7864   5.8906   5.9756   6.0434   6.1173   6.3042   6.3271   6.4342
     6.4702   6.5788   6.6730   6.8242   6.8509   6.9861   7.0996   7.1325
     7.2066   7.2198   7.3210   7.3975   7.4815   7.6935   7.6936   7.7822
     7.8760   7.9322   8.2093   8.3123   8.3651   8.4173   8.4417   8.4477
     8.5877   8.7600   8.8074   8.8921   8.9332   8.9974   9.1293   9.1315
     9.4948   9.6680   9.7220   9.7604   9.8154   9.8672   9.8801   9.8921
     9.9202  10.1169  10.2432  10.2472  10.3445  10.4030  10.4159  10.5458
    10.5870  10.6112  10.7389  10.8302  11.0054  12.0123  12.2314  12.2559
    12.7744  13.0140  13.0321  13.3268  13.6089  13.7276  13.7492  13.8924
    14.0966  14.1923  14.2292  14.3333  14.4344  14.4676  14.6136  14.6639
    14.7881  14.9442  15.0192  15.0438  15.1265  15.2033  15.3705  15.4055
    15.4451  15.5126  15.5249  15.5468  15.6421  15.7238  15.8010  15.8737
    16.0164  16.0524  16.0710  16.2125  16.2350  16.3964  16.4285  16.8203
    16.9545  16.9682  17.0872

          k = 0.0000 0.1667 0.2129 ( 29192 PWs)   bands (ev):

   -35.3855 -35.3855 -35.3854 -35.3853 -35.3842 -35.3841 -35.3841 -35.3840
   -35.3734 -35.3734 -35.3734 -35.3733 -35.3725 -35.3724 -35.3723 -35.3723
   -35.3722 -35.3721 -35.3721 -35.3720 -35.3705 -35.3704 -35.3704 -35.3703
   -35.3679 -35.3678 -35.3677 -35.3676 -35.3650 -35.3650 -35.3650 -35.3649
   -35.3637 -35.3637 -35.3637 -35.3636 -35.3614 -35.3613 -35.3613 -35.3612
   -12.0112 -12.0032 -12.0016 -11.9715 -11.9666 -11.9625 -11.9480 -11.9467
   -11.9421 -11.9169 -11.9136 -11.9069 -11.8706 -11.8165 -11.8084 -11.8058
   -11.8036 -11.8031 -11.8008 -11.7998 -11.7956 -11.7913 -11.7888 -11.7863
   -11.7847 -11.7845 -11.7810 -11.7794 -11.7662 -11.7646 -11.7633 -11.7593
   -11.7567 -11.7552 -11.7538 -11.7537 -11.7503 -11.7481 -11.7463 -11.7458
   -11.7430 -11.7397 -11.7349 -11.7343 -11.7334 -11.7325 -11.7303 -11.7294
   -11.7292 -11.7253 -11.7233 -11.7220 -11.7216 -11.7209 -11.7194 -11.7187
   -11.7181 -11.7129 -11.7125 -11.7102 -11.7101 -11.7047 -11.7009 -11.6942
   -11.6935 -11.6899 -11.6883 -11.6877 -11.6847 -11.6845 -11.6837 -11.6820
   -11.6820 -11.6734 -11.6684 -11.6657 -11.6631 -11.6588 -11.6578 -11.6567
    -8.5430  -8.3512  -7.5099  -7.3930  -7.1392  -7.1244  -7.1216  -6.9201
    -6.8307  -6.8068  -6.8035  -6.7951  -6.7475  -6.0904  -5.9728  -1.9602
    -1.6906  -0.8520  -0.7590  -0.5978  -0.5960  -0.2424  -0.2376  -0.0932
    -0.0605   0.0833   0.2929   0.3222   0.3805   0.4113   0.4295   0.5448
     0.8419   0.9943   1.0873   1.1423   1.3578   2.5652   2.9414   5.3307
     5.3987   5.4030   5.4443   5.4557   5.5605   5.6449   5.6595   5.6806
     5.7608   5.8190   5.9757   6.1824   6.2016   6.3626   6.4072   6.4347
     6.5455   6.6393   6.6511   6.6905   6.7803   6.8730   7.1171   7.1481
     7.2077   7.2165   7.3124   7.3933   7.4148   7.7516   7.7540   7.9283
     7.9433   8.0287   8.2119   8.3721   8.4021   8.4280   8.4528   8.4772
     8.5200   8.5532   8.6115   8.7842   8.9162   8.9240   9.1370   9.1405
     9.4874   9.7110   9.7334   9.7726   9.8264   9.9053   9.9068   9.9469
     9.9765  10.0215  10.1732  10.2047  10.3584  10.4294  10.4371  10.5227
    10.5691  10.6030  10.7580  10.8116  11.0942  12.0913  12.2737  12.5178
    12.7230  13.0795  13.1001  13.3476  13.5652  13.5695  13.6901  13.8015
    13.8204  14.1396  14.2199  14.3445  14.3615  14.4905  14.5300  14.6175
    14.7342  14.9375  14.9920  15.0607  15.1983  15.2273  15.2518  15.4117
    15.4841  15.5447  15.6019  15.6170  15.7336  15.7774  15.9388  15.9531
    15.9973  16.0661  16.1470  16.2765  16.4235  16.4345  16.4897  16.6945
    16.8842  16.8983  16.9818

          k = 0.0000 0.1667-0.3194 ( 29188 PWs)   bands (ev):

   -35.3855 -35.3855 -35.3854 -35.3853 -35.3842 -35.3841 -35.3841 -35.3840
   -35.3734 -35.3734 -35.3734 -35.3733 -35.3725 -35.3724 -35.3723 -35.3723
   -35.3722 -35.3721 -35.3721 -35.3720 -35.3705 -35.3704 -35.3704 -35.3703
   -35.3679 -35.3678 -35.3677 -35.3676 -35.3650 -35.3650 -35.3649 -35.3649
   -35.3637 -35.3637 -35.3636 -35.3636 -35.3614 -35.3613 -35.3613 -35.3612
   -12.0112 -12.0025 -12.0013 -11.9724 -11.9664 -11.9626 -11.9479 -11.9469
   -11.9425 -11.9172 -11.9138 -11.9063 -11.8709 -11.8152 -11.8078 -11.8054
   -11.8038 -11.8030 -11.8005 -11.7998 -11.7953 -11.7912 -11.7906 -11.7861
   -11.7845 -11.7844 -11.7809 -11.7794 -11.7672 -11.7657 -11.7638 -11.7600
   -11.7576 -11.7566 -11.7544 -11.7543 -11.7504 -11.7483 -11.7463 -11.7460
   -11.7427 -11.7390 -11.7347 -11.7328 -11.7324 -11.7313 -11.7299 -11.7289
   -11.7287 -11.7243 -11.7223 -11.7220 -11.7213 -11.7209 -11.7194 -11.7185
   -11.7180 -11.7127 -11.7121 -11.7102 -11.7097 -11.7058 -11.7010 -11.6948
   -11.6935 -11.6902 -11.6885 -11.6881 -11.6848 -11.6848 -11.6840 -11.6821
   -11.6821 -11.6735 -11.6688 -11.6658 -11.6632 -11.6588 -11.6578 -11.6567
    -8.5428  -8.3514  -7.5097  -7.3931  -7.1383  -7.1253  -7.1215  -6.9201
    -6.8304  -6.8070  -6.8035  -6.7950  -6.7477  -6.0904  -5.9728  -1.8574
    -1.8144  -0.8209  -0.7907  -0.5978  -0.5950  -0.2345  -0.2316  -0.1070
    -0.0708   0.0872   0.2959   0.3320   0.4107   0.4196   0.4952   0.6109
     0.7606   0.8837   1.0886   1.2276   1.2737   2.6543   2.8844   5.3551
     5.3972   5.4147   5.4475   5.4526   5.5459   5.6071   5.6390   5.6677
     5.7536   5.7865   5.9550   6.2751   6.2812   6.3837   6.4347   6.4414
     6.5635   6.5807   6.6728   6.6779   6.7106   6.8388   7.0912   7.1653
     7.2084   7.2139   7.3154   7.3910   7.4046   7.7759   7.7791   7.9305
     8.0687   8.1837   8.1975   8.3467   8.3748   8.3754   8.4276   8.4576
     8.4994   8.5186   8.6051   8.6452   8.9073   8.9227   9.1391   9.1425
     9.4882   9.7048   9.7363   9.7592   9.8968   9.9106   9.9166   9.9337
    10.0337  10.0455  10.0966  10.1363  10.3694  10.4414  10.4657  10.4961
    10.5584  10.5979  10.7790  10.7910  11.1488  12.0505  12.4311  12.6120
    12.8589  12.9677  13.2350  13.2906  13.3232  13.4752  13.6532  13.7423
    14.0115  14.0725  14.1186  14.1867  14.4942  14.5405  14.5878  14.6137
    14.6795  14.7276  15.0360  15.1490  15.1576  15.2690  15.3249  15.3674
    15.4394  15.5295  15.5776  15.6754  15.7628  15.7985  15.8432  15.9661
    16.0007  16.2748  16.3216  16.4344  16.4480  16.4550  16.5462  16.6399
    16.6714  16.8174  16.8854

          k = 0.0000 0.3333 0.0000 ( 29167 PWs)   bands (ev):

   -35.3855 -35.3854 -35.3853 -35.3853 -35.3841 -35.3841 -35.3840 -35.3839
   -35.3734 -35.3734 -35.3734 -35.3733 -35.3725 -35.3724 -35.3723 -35.3722
   -35.3722 -35.3721 -35.3720 -35.3720 -35.3704 -35.3704 -35.3703 -35.3703
   -35.3679 -35.3678 -35.3677 -35.3676 -35.3650 -35.3650 -35.3649 -35.3649
   -35.3637 -35.3637 -35.3636 -35.3636 -35.3614 -35.3614 -35.3613 -35.3611
   -12.0045 -11.9929 -11.9912 -11.9823 -11.9598 -11.9595 -11.9570 -11.9558
   -11.9410 -11.9241 -11.9189 -11.8705 -11.8450 -11.8188 -11.8138 -11.8047
   -11.8034 -11.7974 -11.7974 -11.7950 -11.7931 -11.7923 -11.7856 -11.7847
   -11.7805 -11.7774 -11.7768 -11.7720 -11.7711 -11.7682 -11.7637 -11.7599
   -11.7598 -11.7555 -11.7549 -11.7534 -11.7521 -11.7504 -11.7484 -11.7474
   -11.7462 -11.7416 -11.7392 -11.7357 -11.7339 -11.7322 -11.7321 -11.7293
   -11.7288 -11.7278 -11.7274 -11.7260 -11.7250 -11.7235 -11.7231 -11.7197
   -11.7181 -11.7143 -11.7129 -11.7115 -11.7091 -11.7067 -11.7047 -11.7025
   -11.6949 -11.6946 -11.6920 -11.6914 -11.6871 -11.6841 -11.6840 -11.6832
   -11.6812 -11.6733 -11.6725 -11.6695 -11.6634 -11.6622 -11.6592 -11.6580
    -8.3942  -8.2359  -7.8566  -7.6673  -7.0800  -7.0597  -7.0584  -6.9002
    -6.8974  -6.8773  -6.8742  -6.5439  -6.4868  -6.1533  -6.0712  -1.9077
    -1.3915  -1.2934  -0.9462  -0.5238  -0.5227  -0.3154  -0.3065  -0.0551
     0.0497   0.1145   0.1888   0.2982   0.3908   0.4795   0.4869   0.6630
     0.7854   0.9444   1.1662   1.3914   1.7337   2.2890   2.6500   5.1873
     5.2330   5.3075   5.4160   5.4361   5.4473   5.5736   5.6061   5.6273
     5.6805   5.7905   5.8192   5.9104   6.0886   6.1173   6.3792   6.5061
     6.5341   6.7669   6.8304   6.8642   6.9666   7.1292   7.4005   7.4661
     7.5573   7.5941   7.6092   7.6979   7.7097   7.7666   7.7925   7.8979
     7.9136   8.0751   8.1045   8.1715   8.2082   8.2238   8.3230   8.3702
     8.5797   8.6645   8.6702   8.8946   8.9736   9.0672   9.1001   9.1612
     9.5079   9.5825   9.6016   9.7166   9.7315   9.8046   9.8385   9.8548
     9.8972   9.9956  10.0262  10.0398  10.0546  10.0945  10.1922  10.2306
    10.3887  10.4598  10.4982  10.7052  11.3809  12.5478  12.7245  12.7323
    12.8808  12.9369  13.2957  13.4926  13.6720  13.7377  13.8158  13.9011
    14.0582  14.2305  14.3862  14.5531  14.5683  14.5993  14.6032  14.6877
    14.7121  14.7780  14.8204  14.8409  14.8663  14.9426  15.0909  15.1282
    15.1654  15.3998  15.4198  15.5498  15.5550  15.7138  15.8818  16.0177
    16.1268  16.1608  16.2043  16.2870  16.3247  16.4810  16.5758  16.5814
    16.8656  16.9643  16.9758

          k = 0.0000 0.3333 0.1065 ( 29197 PWs)   bands (ev):

   -35.3856 -35.3854 -35.3854 -35.3853 -35.3841 -35.3841 -35.3840 -35.3840
   -35.3735 -35.3734 -35.3734 -35.3733 -35.3725 -35.3724 -35.3723 -35.3723
   -35.3722 -35.3721 -35.3721 -35.3720 -35.3705 -35.3704 -35.3704 -35.3703
   -35.3679 -35.3679 -35.3678 -35.3677 -35.3650 -35.3650 -35.3650 -35.3649
   -35.3638 -35.3637 -35.3637 -35.3636 -35.3615 -35.3614 -35.3614 -35.3612
   -12.0045 -11.9924 -11.9909 -11.9823 -11.9595 -11.9594 -11.9578 -11.9558
   -11.9414 -11.9245 -11.9192 -11.8700 -11.8458 -11.8181 -11.8129 -11.8044
   -11.8036 -11.7973 -11.7971 -11.7948 -11.7934 -11.7922 -11.7855 -11.7845
   -11.7817 -11.7773 -11.7767 -11.7723 -11.7716 -11.7689 -11.7652 -11.7614
   -11.7587 -11.7563 -11.7557 -11.7535 -11.7527 -11.7509 -11.7480 -11.7478
   -11.7443 -11.7412 -11.7390 -11.7356 -11.7332 -11.7320 -11.7315 -11.7292
   -11.7287 -11.7269 -11.7267 -11.7256 -11.7247 -11.7235 -11.7225 -11.7194
   -11.7183 -11.7141 -11.7127 -11.7115 -11.7094 -11.7068 -11.7042 -11.7027
   -11.6950 -11.6948 -11.6921 -11.6919 -11.6873 -11.6844 -11.6843 -11.6833
   -11.6813 -11.6734 -11.6727 -11.6697 -11.6636 -11.6623 -11.6593 -11.6580
    -8.3940  -8.2361  -7.8565  -7.6675  -7.0794  -7.0603  -7.0584  -6.8999
    -6.8973  -6.8776  -6.8743  -6.5439  -6.4868  -6.1533  -6.0712  -1.8814
    -1.4394  -1.2734  -0.9750  -0.5240  -0.5222  -0.3146  -0.3060  -0.0613
     0.0481   0.1392   0.2374   0.2976   0.3973   0.4853   0.4880   0.6622
     0.7828   0.9445   1.0997   1.4131   1.7178   2.3153   2.6348   5.1724
     5.2211   5.3061   5.3791   5.4075   5.4356   5.5760   5.6270   5.6679
     5.7022   5.7738   5.8395   5.9561   6.0875   6.0889   6.4030   6.5585
     6.5614   6.7879   6.7891   6.8664   6.9636   7.1122   7.3834   7.4836
     7.5391   7.5946   7.6068   7.6572   7.6765   7.7504   7.7862   7.9085
     7.9095   8.1000   8.1530   8.1949   8.2095   8.2288   8.3495   8.3644
     8.5655   8.6391   8.6455   8.8484   8.9632   9.0124   9.0651   9.0890
     9.4531   9.6166   9.6593   9.7536   9.7712   9.8099   9.8812   9.8908
     9.9114  10.0085  10.0100  10.0628  10.0690  10.0896  10.1937  10.2743
    10.3622  10.4557  10.5116  10.6910  11.3821  12.5535  12.7147  12.7331
    12.9344  12.9392  13.2913  13.4998  13.6771  13.7094  13.7935  13.9182
    13.9905  14.2486  14.2799  14.3177  14.3412  14.5229  14.5937  14.6791
    14.6851  14.7845  14.8318  14.9299  14.9955  15.0882  15.1279  15.1653
    15.3534  15.4683  15.4744  15.5431  15.5851  15.7241  15.8867  15.9991
    16.1528  16.1605  16.1964  16.2794  16.3296  16.4278  16.5611  16.5691
    16.8161  16.9461  16.9832

          k = 0.0000 0.3333 0.2129 ( 29173 PWs)   bands (ev):

   -35.3855 -35.3854 -35.3854 -35.3853 -35.3841 -35.3841 -35.3840 -35.3840
   -35.3734 -35.3734 -35.3734 -35.3733 -35.3725 -35.3724 -35.3723 -35.3723
   -35.3722 -35.3721 -35.3721 -35.3720 -35.3704 -35.3704 -35.3704 -35.3703
   -35.3679 -35.3678 -35.3677 -35.3676 -35.3650 -35.3650 -35.3649 -35.3649
   -35.3637 -35.3637 -35.3637 -35.3636 -35.3614 -35.3613 -35.3613 -35.3612
   -12.0045 -11.9912 -11.9904 -11.9821 -11.9593 -11.9591 -11.9589 -11.9560
   -11.9420 -11.9253 -11.9198 -11.8691 -11.8473 -11.8164 -11.8109 -11.8042
   -11.8038 -11.7972 -11.7967 -11.7945 -11.7942 -11.7918 -11.7853 -11.7840
   -11.7840 -11.7772 -11.7763 -11.7729 -11.7726 -11.7698 -11.7660 -11.7636
   -11.7621 -11.7565 -11.7553 -11.7537 -11.7523 -11.7513 -11.7487 -11.7482
   -11.7424 -11.7396 -11.7387 -11.7353 -11.7319 -11.7318 -11.7303 -11.7284
   -11.7277 -11.7259 -11.7254 -11.7248 -11.7239 -11.7235 -11.7215 -11.7191
   -11.7183 -11.7139 -11.7121 -11.7115 -11.7102 -11.7068 -11.7033 -11.7025
   -11.6954 -11.6952 -11.6929 -11.6924 -11.6877 -11.6850 -11.6848 -11.6835
   -11.6815 -11.6735 -11.6731 -11.6700 -11.6639 -11.6624 -11.6593 -11.6581
    -8.3936  -8.2365  -7.8563  -7.6677  -7.0782  -7.0615  -7.0583  -6.8992
    -6.8971  -6.8783  -6.8746  -6.5438  -6.4869  -6.1533  -6.0712  -1.8062
    -1.5537  -1.2192  -1.0466  -0.5245  -0.5211  -0.3126  -0.3051  -0.0709
     0.0450   0.1529   0.2966   0.3791   0.4309   0.4901   0.4986   0.6596
     0.7675   0.9445   0.9448   1.4699   1.6687   2.3755   2.5959   5.1440
     5.1968   5.2774   5.3115   5.4141   5.4652   5.5803   5.6155   5.6700
     5.7406   5.7455   5.9260   6.0116   6.0894   6.0935   6.4289   6.6399
     6.6613   6.6991   6.7771   6.8770   6.9810   7.1012   7.3378   7.4864
     7.5175   7.5486   7.5959   7.6075   7.6567   7.7351   7.7737   7.8993
     7.9271   8.1414   8.1976   8.2024   8.2478   8.2657   8.3518   8.3968
     8.5448   8.5852   8.6091   8.7093   8.9108   8.9424   9.0273   9.0428
     9.3940   9.5875   9.6939   9.8397   9.8455   9.8742   9.9122   9.9465
     9.9472  10.0121  10.0302  10.0458  10.1217  10.1427  10.2224  10.2931
    10.3250  10.4410  10.5481  10.6529  11.3874  12.5656  12.7034  12.7312
    12.9790  13.0833  13.2903  13.5125  13.5925  13.6573  13.7334  13.8581
    13.9287  13.9925  14.0185  14.2635  14.2703  14.4927  14.5473  14.6917
    14.6953  14.7960  14.8245  14.9863  15.0121  15.1603  15.1868  15.3257
    15.4602  15.5405  15.5798  15.7033  15.7153  15.9051  15.9184  15.9473
    16.0620  16.1316  16.2522  16.2728  16.3252  16.3618  16.5180  16.5500
    16.6971  16.8389  17.0040

          k = 0.0000 0.3333-0.3194 ( 29180 PWs)   bands (ev):

   -35.3855 -35.3854 -35.3854 -35.3853 -35.3841 -35.3841 -35.3841 -35.3840
   -35.3735 -35.3734 -35.3733 -35.3732 -35.3725 -35.3724 -35.3724 -35.3723
   -35.3722 -35.3721 -35.3721 -35.3720 -35.3705 -35.3704 -35.3704 -35.3703
   -35.3679 -35.3678 -35.3677 -35.3677 -35.3651 -35.3650 -35.3649 -35.3649
   -35.3637 -35.3637 -35.3637 -35.3636 -35.3614 -35.3613 -35.3613 -35.3612
   -12.0045 -11.9906 -11.9901 -11.9821 -11.9602 -11.9590 -11.9586 -11.9561
   -11.9424 -11.9258 -11.9201 -11.8686 -11.8481 -11.8155 -11.8099 -11.8046
   -11.8035 -11.7971 -11.7964 -11.7947 -11.7942 -11.7915 -11.7858 -11.7847
   -11.7838 -11.7771 -11.7760 -11.7732 -11.7731 -11.7698 -11.7658 -11.7646
   -11.7644 -11.7569 -11.7554 -11.7532 -11.7529 -11.7510 -11.7490 -11.7483
   -11.7421 -11.7387 -11.7385 -11.7351 -11.7317 -11.7313 -11.7300 -11.7275
   -11.7275 -11.7253 -11.7251 -11.7244 -11.7235 -11.7232 -11.7211 -11.7191
   -11.7181 -11.7140 -11.7119 -11.7114 -11.7108 -11.7068 -11.7033 -11.7018
   -11.6955 -11.6955 -11.6936 -11.6926 -11.6879 -11.6853 -11.6850 -11.6836
   -11.6817 -11.6736 -11.6733 -11.6702 -11.6641 -11.6625 -11.6594 -11.6582
    -8.3935  -8.2367  -7.8562  -7.6679  -7.0776  -7.0622  -7.0583  -6.8989
    -6.8970  -6.8787  -6.8747  -6.5438  -6.4869  -6.1533  -6.0712  -1.7117
    -1.6663  -1.1564  -1.1177  -0.5248  -0.5205  -0.3114  -0.3046  -0.0750
     0.0435   0.1561   0.2961   0.4013   0.4912   0.5022   0.5831   0.6437
     0.7064   0.8543   0.9450   1.5179   1.6231   2.4145   2.5669   5.1304
     5.1848   5.2581   5.2866   5.4288   5.5065   5.5748   5.5824   5.6698
     5.7247   5.7519   5.9863   6.0024   6.0896   6.1485   6.4351   6.6318
     6.7040   6.7072   6.7582   6.8769   6.9960   7.1182   7.3075   7.4521
     7.4900   7.5378   7.5966   7.6089   7.6533   7.7273   7.7666   7.8946
     7.9328   8.1582   8.1950   8.2045   8.2659   8.2978   8.3440   8.4378
     8.5647   8.5699   8.5748   8.6014   8.8622   8.9356   9.0137   9.0414
     9.3701   9.5705   9.6990   9.8453   9.8927   9.9040   9.9492   9.9678
     9.9696   9.9741  10.0377  10.0676  10.1957  10.1965  10.2115  10.2130
    10.3552  10.4246  10.5903  10.6099  11.3915  12.5717  12.7064  12.7213
    13.0384  13.2209  13.3137  13.4506  13.4513  13.6226  13.7687  13.8073
    13.8361  13.8728  13.9508  14.2187  14.2934  14.4692  14.6334  14.7418
    14.7455  14.7725  14.7889  14.8513  14.9880  15.2179  15.2210  15.3982
    15.4969  15.6237  15.6587  15.7355  15.7929  15.8971  15.9557  15.9576
    16.1135  16.1413  16.1834  16.2448  16.3672  16.4124  16.4641  16.5422
    16.6180  16.7148  16.9963

          k = 0.0000-0.5000 0.0000 ( 29172 PWs)   bands (ev):

   -35.3856 -35.3855 -35.3854 -35.3854 -35.3842 -35.3841 -35.3840 -35.3840
   -35.3734 -35.3734 -35.3733 -35.3732 -35.3725 -35.3724 -35.3723 -35.3723
   -35.3722 -35.3722 -35.3721 -35.3720 -35.3705 -35.3704 -35.3704 -35.3703
   -35.3679 -35.3679 -35.3677 -35.3675 -35.3650 -35.3650 -35.3650 -35.3648
   -35.3638 -35.3637 -35.3636 -35.3635 -35.3614 -35.3614 -35.3613 -35.3610
   -11.9962 -11.9943 -11.9786 -11.9771 -11.9738 -11.9694 -11.9563 -11.9429
   -11.9400 -11.9378 -11.9210 -11.8359 -11.8264 -11.8235 -11.8181 -11.8157
   -11.8036 -11.7965 -11.7945 -11.7918 -11.7910 -11.7858 -11.7849 -11.7845
   -11.7834 -11.7823 -11.7821 -11.7662 -11.7661 -11.7656 -11.7640 -11.7629
   -11.7622 -11.7622 -11.7600 -11.7593 -11.7575 -11.7520 -11.7503 -11.7461
   -11.7424 -11.7392 -11.7383 -11.7344 -11.7338 -11.7327 -11.7324 -11.7290
   -11.7289 -11.7275 -11.7255 -11.7250 -11.7224 -11.7214 -11.7212 -11.7211
   -11.7184 -11.7175 -11.7145 -11.7143 -11.7124 -11.7119 -11.7055 -11.7028
   -11.7010 -11.6999 -11.6922 -11.6876 -11.6870 -11.6853 -11.6844 -11.6827
   -11.6815 -11.6806 -11.6734 -11.6708 -11.6648 -11.6617 -11.6600 -11.6586
    -8.1680  -8.1530  -8.1322  -7.8240  -7.0043  -6.9804  -6.9753  -6.9696
    -6.9681  -6.9653  -6.8920  -6.4354  -6.2450  -6.2394  -6.2082  -1.6540
    -1.6368  -1.2449  -1.1377  -0.4303  -0.4286  -0.4059  -0.3990  -0.0561
     0.1489   0.1763   0.2237   0.2515   0.3026   0.5080   0.6242   0.7140
     0.8077   0.8897   0.9429   1.7281   2.1045   2.1254   2.2459   5.1955
     5.1978   5.2448   5.2535   5.2836   5.4175   5.5906   5.6011   5.6491
     5.6612   5.7672   5.8068   5.8511   5.9057   6.1150   6.3573   6.6546
     6.6900   6.7181   6.8079   7.1939   7.2190   7.2551   7.3803   7.4383
     7.4492   7.6023   7.6688   7.7965   7.8199   7.9224   7.9348   7.9802
     7.9876   8.0199   8.1463   8.1941   8.2253   8.2331   8.3323   8.3356
     8.3973   8.4572   8.6640   9.0446   9.2006   9.2942   9.3093   9.3161
     9.3606   9.3743   9.3754   9.4173   9.5755   9.5846   9.6595   9.7022
     9.7518   9.8432   9.9753  10.0025  10.1197  10.1486  10.2117  10.2225
    10.2684  10.3386  10.4994  10.5704  11.5711  12.6677  12.6705  13.0555
    13.4583  13.4733  13.6246  13.6478  13.6598  13.6987  13.7114  13.7197
    13.8228  14.1179  14.2150  14.3210  14.3373  14.3604  14.3868  14.4725
    14.5620  14.8899  14.9284  15.0034  15.0466  15.0520  15.0888  15.1306
    15.1411  15.1950  15.4230  15.4257  15.4515  15.8410  15.9495  16.0360
    16.0913  16.1861  16.3329  16.3364  16.3864  16.6585  16.6672  16.6699
    16.6972  16.7555  16.7990

          k = 0.0000-0.5000 0.1065 ( 29170 PWs)   bands (ev):

   -35.3856 -35.3854 -35.3854 -35.3854 -35.3841 -35.3841 -35.3840 -35.3840
   -35.3734 -35.3733 -35.3733 -35.3733 -35.3725 -35.3724 -35.3723 -35.3722
   -35.3722 -35.3722 -35.3721 -35.3720 -35.3704 -35.3704 -35.3704 -35.3703
   -35.3679 -35.3679 -35.3678 -35.3677 -35.3650 -35.3649 -35.3649 -35.3649
   -35.3637 -35.3637 -35.3636 -35.3635 -35.3615 -35.3614 -35.3613 -35.3612
   -11.9962 -11.9942 -11.9781 -11.9769 -11.9734 -11.9693 -11.9565 -11.9436
   -11.9402 -11.9385 -11.9214 -11.8356 -11.8263 -11.8250 -11.8176 -11.8141
   -11.8033 -11.7963 -11.7944 -11.7924 -11.7911 -11.7861 -11.7850 -11.7846
   -11.7837 -11.7819 -11.7807 -11.7671 -11.7664 -11.7662 -11.7656 -11.7649
   -11.7643 -11.7625 -11.7607 -11.7577 -11.7549 -11.7505 -11.7498 -11.7468
   -11.7428 -11.7395 -11.7383 -11.7342 -11.7337 -11.7325 -11.7316 -11.7288
   -11.7286 -11.7271 -11.7253 -11.7248 -11.7217 -11.7212 -11.7209 -11.7207
   -11.7176 -11.7176 -11.7152 -11.7142 -11.7121 -11.7118 -11.7049 -11.7033
   -11.7008 -11.7001 -11.6924 -11.6878 -11.6871 -11.6856 -11.6846 -11.6829
   -11.6817 -11.6807 -11.6735 -11.6709 -11.6650 -11.6617 -11.6600 -11.6587
    -8.1671  -8.1529  -8.1331  -7.8241  -7.0040  -6.9797  -6.9757  -6.9696
    -6.9679  -6.9660  -6.8921  -6.4354  -6.2450  -6.2394  -6.2082  -1.6327
    -1.6112  -1.2783  -1.1842  -0.4312  -0.4285  -0.4059  -0.3990  -0.0583
     0.1491   0.1863   0.2239   0.2964   0.3405   0.5132   0.6240   0.7086
     0.8074   0.8644   0.9144   1.7290   2.1056   2.1244   2.2385   5.1604
     5.1708   5.2066   5.2286   5.3029   5.4260   5.6343   5.6421   5.6522
     5.6873   5.7722   5.8074   5.8468   5.9341   6.1070   6.3565   6.6666
     6.7011   6.7311   6.8135   7.2164   7.2243   7.2581   7.3828   7.4363
     7.4494   7.5948   7.6364   7.7444   7.7711   7.9251   7.9355   7.9502
     7.9855   8.0266   8.1422   8.1962   8.2251   8.2438   8.3375   8.3635
     8.4094   8.4718   8.6399   8.9543   9.1516   9.2621   9.2648   9.2726
     9.3002   9.3560   9.3563   9.3856   9.6393   9.6730   9.7535   9.7970
     9.8101   9.8841   9.9924  10.0145  10.1419  10.1538  10.2262  10.2300
    10.2868  10.3388  10.4795  10.5484  11.5437  12.6619  12.6790  13.0554
    13.4653  13.4692  13.5878  13.5975  13.6307  13.6810  13.6833  13.7079
    13.8037  14.0853  14.1036  14.1720  14.1940  14.4811  14.5899  14.5998
    14.6086  14.8126  14.8160  14.8924  14.9584  15.0635  15.1118  15.2791
    15.2940  15.3558  15.3912  15.4099  15.5202  15.8589  15.9616  16.0392
    16.1145  16.1665  16.3343  16.3453  16.3834  16.6304  16.6536  16.6559
    16.6908  16.7209  16.7714

          k = 0.0000-0.5000 0.2129 ( 29198 PWs)   bands (ev):

   -35.3856 -35.3855 -35.3855 -35.3854 -35.3841 -35.3841 -35.3840 -35.3840
   -35.3735 -35.3734 -35.3734 -35.3733 -35.3725 -35.3724 -35.3724 -35.3723
   -35.3723 -35.3722 -35.3721 -35.3721 -35.3705 -35.3704 -35.3704 -35.3703
   -35.3679 -35.3678 -35.3678 -35.3677 -35.3651 -35.3650 -35.3650 -35.3649
   -35.3638 -35.3637 -35.3637 -35.3636 -35.3615 -35.3614 -35.3613 -35.3613
   -11.9961 -11.9942 -11.9771 -11.9763 -11.9725 -11.9690 -11.9568 -11.9450
   -11.9406 -11.9396 -11.9222 -11.8348 -11.8274 -11.8264 -11.8164 -11.8114
   -11.8028 -11.7959 -11.7940 -11.7939 -11.7916 -11.7865 -11.7859 -11.7840
   -11.7832 -11.7814 -11.7791 -11.7702 -11.7697 -11.7678 -11.7660 -11.7657
   -11.7652 -11.7631 -11.7610 -11.7560 -11.7523 -11.7508 -11.7479 -11.7472
   -11.7436 -11.7398 -11.7385 -11.7341 -11.7335 -11.7322 -11.7306 -11.7283
   -11.7278 -11.7264 -11.7254 -11.7230 -11.7212 -11.7205 -11.7201 -11.7196
   -11.7179 -11.7168 -11.7159 -11.7140 -11.7118 -11.7117 -11.7044 -11.7036
   -11.7008 -11.7002 -11.6929 -11.6885 -11.6876 -11.6861 -11.6851 -11.6834
   -11.6819 -11.6809 -11.6736 -11.6712 -11.6655 -11.6619 -11.6601 -11.6588
    -8.1652  -8.1528  -8.1351  -7.8243  -7.0033  -6.9783  -6.9763  -6.9696
    -6.9677  -6.9675  -6.8923  -6.4355  -6.2450  -6.2394  -6.2082  -1.5736
    -1.5377  -1.3604  -1.2963  -0.4330  -0.4283  -0.4057  -0.3988  -0.0614
     0.1496   0.1930   0.2244   0.4145   0.4219   0.5388   0.6236   0.6777
     0.8069   0.8079   0.8413   1.7310   2.1084   2.1223   2.2233   5.1025
     5.1243   5.1490   5.1842   5.3666   5.4548   5.5679   5.7137   5.7264
     5.7352   5.7856   5.8085   5.8377   6.0021   6.1010   6.3551   6.6947
     6.7264   6.7610   6.8267   7.2161   7.2708   7.2817   7.3784   7.4350
     7.4463   7.5713   7.5729   7.6413   7.6755   7.9007   7.9315   7.9370
     7.9802   8.0269   8.1326   8.1972   8.2084   8.2935   8.3451   8.4311
     8.4484   8.4957   8.5993   8.7591   9.0604   9.1617   9.1788   9.1892
     9.2430   9.3831   9.3865   9.3963   9.6987   9.8010   9.8539   9.9098
     9.9347   9.9559  10.0216  10.0354  10.1691  10.2046  10.2343  10.2804
    10.3344  10.3378  10.4264  10.4901  11.4894  12.6425  12.7047  13.0550
    13.4682  13.4797  13.5185  13.5284  13.5696  13.6173  13.6246  13.6517
    13.7788  13.9777  14.0343  14.0718  14.0822  14.4582  14.6959  14.7003
    14.7672  14.8135  14.8280  14.8948  14.9211  14.9732  15.2023  15.2857
    15.3246  15.3249  15.4721  15.6047  15.7043  15.9159  15.9958  16.0444
    16.1175  16.1642  16.3368  16.3819  16.3858  16.5424  16.6041  16.6438
    16.6596  16.6701  16.7015

          k = 0.0000-0.5000-0.3194 ( 29176 PWs)   bands (ev):

   -35.3857 -35.3855 -35.3854 -35.3854 -35.3841 -35.3841 -35.3840 -35.3840
   -35.3735 -35.3734 -35.3733 -35.3733 -35.3725 -35.3724 -35.3723 -35.3723
   -35.3723 -35.3722 -35.3721 -35.3721 -35.3704 -35.3704 -35.3704 -35.3703
   -35.3679 -35.3678 -35.3677 -35.3677 -35.3651 -35.3650 -35.3650 -35.3649
   -35.3638 -35.3637 -35.3636 -35.3636 -35.3614 -35.3613 -35.3613 -35.3612
   -11.9960 -11.9941 -11.9766 -11.9760 -11.9721 -11.9689 -11.9569 -11.9457
   -11.9408 -11.9403 -11.9226 -11.8342 -11.8287 -11.8263 -11.8157 -11.8100
   -11.8025 -11.7957 -11.7947 -11.7938 -11.7920 -11.7867 -11.7862 -11.7838
   -11.7827 -11.7812 -11.7782 -11.7722 -11.7707 -11.7688 -11.7661 -11.7658
   -11.7655 -11.7634 -11.7611 -11.7553 -11.7514 -11.7509 -11.7484 -11.7463
   -11.7440 -11.7398 -11.7387 -11.7340 -11.7334 -11.7321 -11.7302 -11.7281
   -11.7274 -11.7260 -11.7254 -11.7218 -11.7212 -11.7203 -11.7191 -11.7189
   -11.7179 -11.7178 -11.7150 -11.7141 -11.7118 -11.7115 -11.7051 -11.7029
   -11.7012 -11.7000 -11.6931 -11.6889 -11.6879 -11.6864 -11.6854 -11.6836
   -11.6821 -11.6810 -11.6737 -11.6713 -11.6658 -11.6620 -11.6601 -11.6589
    -8.1642  -8.1527  -8.1362  -7.8244  -7.0030  -6.9773  -6.9767  -6.9696
    -6.9684  -6.9676  -6.8925  -6.4355  -6.2450  -6.2394  -6.2082  -1.5136
    -1.4326  -1.4314  -1.4192  -0.4339  -0.4282  -0.4057  -0.3988  -0.0625
     0.1498   0.1944   0.2246   0.4441   0.5460   0.5769   0.5992   0.6233
     0.7818   0.7860   0.8066   1.7319   2.1101   2.1212   2.2154   5.0786
     5.1033   5.1255   5.1645   5.4449   5.4742   5.4850   5.7143   5.7634
     5.7683   5.7938   5.8093   5.8354   6.0385   6.1035   6.3544   6.7116
     6.7411   6.7785   6.8347   7.2096   7.2938   7.3130   7.3618   7.4386
     7.4429   7.5387   7.5530   7.5889   7.6274   7.8820   7.9353   7.9378
     7.9770   8.0231   8.1273   8.1970   8.1997   8.3229   8.3478   8.4656
     8.5057   8.5428   8.5863   8.5873   9.0210   9.1100   9.1471   9.1566
     9.2236   9.3959   9.3992   9.4168   9.7208   9.8528   9.8761   9.9528
     9.9922   9.9966  10.0332  10.0449  10.1796  10.2393  10.2467  10.3256
    10.3376  10.3684  10.3985  10.4258  11.4624  12.6317  12.7196  13.0546
    13.4709  13.4876  13.4886  13.5023  13.5354  13.5873  13.5887  13.6134
    13.7623  13.9444  14.0003  14.0214  14.0574  14.4273  14.6662  14.7933
    14.8124  14.8163  14.8657  14.8700  14.9757  15.1143  15.1342  15.1581
    15.3270  15.3325  15.5206  15.7146  15.7965  15.9584  16.0332  16.0455
    16.0726  16.1888  16.3551  16.3965  16.4207  16.4799  16.5379  16.6336
    16.6418  16.6534  16.6666

          k = 0.1667 0.1667 0.0000 ( 29209 PWs)   bands (ev):

   -35.3855 -35.3855 -35.3854 -35.3853 -35.3842 -35.3841 -35.3841 -35.3840
   -35.3735 -35.3734 -35.3734 -35.3733 -35.3725 -35.3724 -35.3724 -35.3723
   -35.3722 -35.3721 -35.3721 -35.3720 -35.3705 -35.3704 -35.3704 -35.3703
   -35.3680 -35.3679 -35.3678 -35.3677 -35.3651 -35.3650 -35.3650 -35.3649
   -35.3638 -35.3637 -35.3637 -35.3636 -35.3615 -35.3614 -35.3613 -35.3612
   -12.0090 -12.0049 -11.9939 -11.9696 -11.9689 -11.9653 -11.9604 -11.9405
   -11.9255 -11.9172 -11.9156 -11.9010 -11.8645 -11.8188 -11.8084 -11.8081
   -11.8050 -11.8005 -11.7994 -11.7977 -11.7941 -11.7896 -11.7894 -11.7859
   -11.7835 -11.7825 -11.7776 -11.7767 -11.7618 -11.7617 -11.7616 -11.7572
   -11.7568 -11.7565 -11.7559 -11.7524 -11.7508 -11.7476 -11.7464 -11.7463
   -11.7441 -11.7408 -11.7372 -11.7367 -11.7354 -11.7349 -11.7325 -11.7321
   -11.7312 -11.7286 -11.7274 -11.7240 -11.7233 -11.7214 -11.7211 -11.7208
   -11.7193 -11.7142 -11.7122 -11.7107 -11.7102 -11.7048 -11.7025 -11.6939
   -11.6928 -11.6922 -11.6889 -11.6878 -11.6856 -11.6844 -11.6843 -11.6839
   -11.6821 -11.6740 -11.6684 -11.6656 -11.6644 -11.6609 -11.6587 -11.6580
    -8.4930  -8.3088  -7.4801  -7.4784  -7.4300  -7.2781  -6.9345  -6.8884
    -6.7840  -6.7833  -6.7357  -6.7271  -6.7167  -6.1097  -6.0021  -2.0148
    -1.4714  -0.8646  -0.8561  -0.7073  -0.6683  -0.3212  -0.2653  -0.1270
     0.0825   0.0930   0.2160   0.2526   0.3655   0.4535   0.5800   0.7425
     0.7851   0.8110   1.2510   1.2791   1.4970   2.3209   2.9098   5.1627
     5.3080   5.4050   5.4592   5.5097   5.5255   5.5618   5.6345   5.6551
     5.7502   5.8504   5.9741   6.1423   6.1727   6.1733   6.2319   6.4194
     6.7097   6.7156   6.7545   6.7646   6.9266   6.9570   7.0671   7.1533
     7.3207   7.3997   7.4096   7.4376   7.5309   7.7277   7.7744   7.7830
     7.8912   8.1273   8.1405   8.1630   8.2215   8.3294   8.4492   8.5937
     8.5999   8.7468   8.8991   8.9559   8.9617   9.0316   9.1177   9.1755
     9.4350   9.5554   9.6115   9.7101   9.7865   9.8058   9.8504   9.9279
    10.0027  10.0501  10.1099  10.1102  10.2330  10.2850  10.3228  10.3766
    10.5907  10.6057  10.7330  10.7651  11.1486  12.1559  12.3334  12.5459
    12.6602  12.8966  13.3449  13.3860  13.5026  13.5193  13.7794  14.0937
    14.1016  14.2235  14.3075  14.3717  14.4868  14.6139  14.6546  14.7322
    14.8199  14.9317  14.9992  15.0027  15.1262  15.1605  15.2115  15.2688
    15.2935  15.4421  15.4985  15.5465  15.6030  15.6275  15.7841  15.9010
    15.9037  15.9635  16.1088  16.3041  16.3916  16.4750  16.4871  16.6423
    16.8632  17.0786  17.1329

          k = 0.1667 0.1667 0.1065 ( 29209 PWs)   bands (ev):

   -35.3855 -35.3855 -35.3854 -35.3853 -35.3842 -35.3841 -35.3841 -35.3840
   -35.3734 -35.3734 -35.3734 -35.3733 -35.3725 -35.3724 -35.3724 -35.3723
   -35.3722 -35.3721 -35.3721 -35.3720 -35.3705 -35.3704 -35.3704 -35.3703
   -35.3680 -35.3679 -35.3678 -35.3677 -35.3650 -35.3650 -35.3650 -35.3649
   -35.3638 -35.3637 -35.3637 -35.3637 -35.3615 -35.3614 -35.3613 -35.3613
   -12.0089 -12.0045 -11.9934 -11.9695 -11.9687 -11.9661 -11.9606 -11.9411
   -11.9263 -11.9168 -11.9145 -11.9016 -11.8649 -11.8180 -11.8078 -11.8076
   -11.8047 -11.8004 -11.7991 -11.7979 -11.7941 -11.7894 -11.7893 -11.7858
   -11.7848 -11.7829 -11.7777 -11.7767 -11.7641 -11.7629 -11.7612 -11.7578
   -11.7572 -11.7566 -11.7549 -11.7529 -11.7516 -11.7501 -11.7470 -11.7461
   -11.7444 -11.7383 -11.7364 -11.7356 -11.7347 -11.7344 -11.7315 -11.7314
   -11.7301 -11.7282 -11.7267 -11.7239 -11.7230 -11.7213 -11.7210 -11.7207
   -11.7191 -11.7140 -11.7121 -11.7108 -11.7098 -11.7047 -11.7030 -11.6942
   -11.6928 -11.6925 -11.6891 -11.6880 -11.6857 -11.6847 -11.6845 -11.6842
   -11.6823 -11.6741 -11.6688 -11.6657 -11.6646 -11.6609 -11.6588 -11.6580
    -8.4929  -8.3090  -7.4797  -7.4784  -7.4304  -7.2782  -6.9344  -6.8885
    -6.7840  -6.7832  -6.7358  -6.7269  -6.7170  -6.1097  -6.0021  -1.9875
    -1.5225  -0.8541  -0.8447  -0.7176  -0.6813  -0.3181  -0.2692  -0.1189
     0.0666   0.1490   0.2066   0.2942   0.3722   0.4432   0.5566   0.6542
     0.8165   0.9287   1.1871   1.2496   1.4660   2.3781   2.8869   5.1708
     5.3111   5.4047   5.4696   5.4726   5.5250   5.5662   5.6005   5.6279
     5.7116   5.9140   6.0297   6.0864   6.1846   6.2376   6.2769   6.4460
     6.6790   6.6900   6.7506   6.7563   6.8529   6.9282   7.0379   7.2003
     7.3044   7.4237   7.4638   7.4979   7.5358   7.6963   7.7798   7.7941
     7.8812   8.1276   8.1492   8.2208   8.2502   8.3541   8.4334   8.5912
     8.6000   8.6887   8.8249   8.8875   8.9588   8.9695   9.0342   9.1741
     9.4652   9.6143   9.7168   9.7196   9.7941   9.8024   9.8391   9.9461
     9.9881  10.0388  10.1153  10.1291  10.1822  10.2759  10.3078  10.3920
    10.6025  10.6171  10.7244  10.7569  11.1884  12.2389  12.3614  12.5199
    12.7070  12.9146  13.3176  13.4117  13.4355  13.6180  13.7595  14.0424
    14.1325  14.1586  14.2544  14.2711  14.2974  14.4691  14.5641  14.7146
    14.8436  14.8708  14.9490  15.1287  15.2490  15.2590  15.3212  15.3422
    15.3800  15.4556  15.5033  15.5553  15.5963  15.6205  15.7765  15.8882
    15.9315  16.0815  16.1434  16.2921  16.3769  16.4612  16.4892  16.5993
    16.8054  17.0565  17.1500

          k = 0.1667 0.1667 0.2129 ( 29191 PWs)   bands (ev):

   -35.3855 -35.3854 -35.3854 -35.3853 -35.3842 -35.3841 -35.3841 -35.3840
   -35.3734 -35.3734 -35.3733 -35.3732 -35.3724 -35.3724 -35.3723 -35.3723
   -35.3721 -35.3721 -35.3721 -35.3721 -35.3705 -35.3704 -35.3704 -35.3703
   -35.3680 -35.3678 -35.3677 -35.3676 -35.3650 -35.3650 -35.3649 -35.3648
   -35.3637 -35.3637 -35.3636 -35.3636 -35.3615 -35.3613 -35.3613 -35.3612
   -12.0089 -12.0036 -11.9925 -11.9693 -11.9684 -11.9676 -11.9609 -11.9423
   -11.9276 -11.9158 -11.9129 -11.9029 -11.8658 -11.8159 -11.8066 -11.8064
   -11.8043 -11.8003 -11.7991 -11.7982 -11.7939 -11.7892 -11.7890 -11.7880
   -11.7854 -11.7827 -11.7778 -11.7768 -11.7668 -11.7649 -11.7616 -11.7592
   -11.7584 -11.7573 -11.7544 -11.7539 -11.7530 -11.7521 -11.7475 -11.7463
   -11.7451 -11.7352 -11.7345 -11.7343 -11.7337 -11.7321 -11.7306 -11.7295
   -11.7291 -11.7270 -11.7255 -11.7234 -11.7225 -11.7213 -11.7207 -11.7204
   -11.7189 -11.7135 -11.7119 -11.7109 -11.7090 -11.7051 -11.7040 -11.6948
   -11.6930 -11.6927 -11.6896 -11.6884 -11.6859 -11.6852 -11.6850 -11.6846
   -11.6826 -11.6742 -11.6694 -11.6659 -11.6648 -11.6611 -11.6589 -11.6581
    -8.4926  -8.3094  -7.4789  -7.4782  -7.4313  -7.2784  -6.9341  -6.8887
    -6.7839  -6.7829  -6.7361  -6.7263  -6.7176  -6.1097  -6.0021  -1.9091
    -1.6445  -0.8293  -0.8122  -0.7418  -0.7169  -0.3089  -0.2798  -0.0977
     0.0402   0.1352   0.3371   0.3755   0.3904   0.4200   0.5332   0.5711
     0.8720   0.9732   1.1040   1.2157   1.3879   2.4964   2.8263   5.1962
     5.3160   5.3704   5.4134   5.4947   5.5077   5.5740   5.5873   5.6021
     5.6855   5.9361   5.9776   6.1625   6.2593   6.3495   6.3670   6.4815
     6.6042   6.6102   6.7285   6.7388   6.7795   6.8939   6.9693   7.2263
     7.2859   7.4719   7.5113   7.5403   7.6149   7.6908   7.7845   7.8570
     7.8962   8.1219   8.1579   8.2959   8.3311   8.4073   8.4299   8.5164
     8.5801   8.5924   8.6518   8.7362   8.8602   8.9577   9.0168   9.1732
     9.4623   9.6987   9.7390   9.7800   9.8066   9.8361   9.8850   9.9485
     9.9873  10.0317  10.0741  10.1631  10.1754  10.2541  10.2878  10.3704
    10.6240  10.6469  10.7046  10.7325  11.2673  12.3335  12.4594  12.5579
    12.8207  12.9513  13.2869  13.4136  13.4963  13.5671  13.7101  13.8187
    13.9238  14.1285  14.1426  14.2236  14.2395  14.3259  14.3442  14.7104
    14.8782  14.9796  15.0214  15.0310  15.2443  15.2930  15.3558  15.4196
    15.5086  15.5149  15.5573  15.5976  15.6702  15.7293  15.8402  15.9552
    16.0356  16.1588  16.2672  16.3189  16.3432  16.4184  16.5152  16.5202
    16.6311  16.9032  17.0774

          k = 0.1667 0.1667-0.3194 ( 29224 PWs)   bands (ev):

   -35.3855 -35.3855 -35.3854 -35.3854 -35.3842 -35.3842 -35.3841 -35.3840
   -35.3735 -35.3734 -35.3734 -35.3733 -35.3725 -35.3724 -35.3724 -35.3723
   -35.3722 -35.3722 -35.3721 -35.3721 -35.3705 -35.3705 -35.3705 -35.3704
   -35.3679 -35.3678 -35.3678 -35.3677 -35.3650 -35.3650 -35.3650 -35.3649
   -35.3638 -35.3637 -35.3637 -35.3636 -35.3615 -35.3614 -35.3613 -35.3613
   -12.0089 -12.0032 -11.9920 -11.9691 -11.9686 -11.9680 -11.9610 -11.9429
   -11.9282 -11.9151 -11.9121 -11.9037 -11.8662 -11.8146 -11.8060 -11.8058
   -11.8042 -11.8003 -11.7995 -11.7981 -11.7936 -11.7902 -11.7889 -11.7887
   -11.7852 -11.7826 -11.7779 -11.7769 -11.7678 -11.7659 -11.7615 -11.7593
   -11.7592 -11.7591 -11.7554 -11.7543 -11.7527 -11.7525 -11.7476 -11.7465
   -11.7454 -11.7347 -11.7339 -11.7337 -11.7315 -11.7310 -11.7305 -11.7293
   -11.7285 -11.7262 -11.7252 -11.7227 -11.7221 -11.7214 -11.7205 -11.7202
   -11.7188 -11.7133 -11.7120 -11.7109 -11.7081 -11.7062 -11.7042 -11.6953
   -11.6929 -11.6928 -11.6898 -11.6886 -11.6860 -11.6855 -11.6853 -11.6847
   -11.6827 -11.6742 -11.6698 -11.6660 -11.6649 -11.6612 -11.6590 -11.6581
    -8.4924  -8.3096  -7.4785  -7.4782  -7.4317  -7.2784  -6.9340  -6.8889
    -6.7839  -6.7828  -6.7362  -6.7260  -6.7180  -6.1097  -6.0021  -1.8087
    -1.7651  -0.8110  -0.7693  -0.7613  -0.7595  -0.2981  -0.2914  -0.0818
     0.0185   0.1306   0.3602   0.3908   0.3985   0.4951   0.5348   0.5994
     0.7610   0.9452   1.1870   1.1990   1.3146   2.5701   2.7775   5.2231
     5.3112   5.3182   5.4230   5.4760   5.5261   5.5639   5.5844   5.5978
     5.7012   5.9017   5.9436   6.2596   6.3468   6.3697   6.3995   6.4652
     6.5419   6.6029   6.7123   6.7265   6.7514   6.8913   6.9308   7.2080
     7.2925   7.4855   7.5359   7.5398   7.6090   7.7362   7.7911   7.8695
     8.0844   8.0854   8.1280   8.2250   8.3597   8.4507   8.5028   8.5127
     8.5369   8.5515   8.5646   8.5923   8.8431   8.9526   9.0170   9.1729
     9.4631   9.7227   9.7352   9.7360   9.8718   9.8771   9.9175   9.9333
     9.9682   9.9795  10.1323  10.1688  10.1945  10.2685  10.2784  10.3112
    10.6372  10.6711  10.7005  10.7011  11.3081  12.3223  12.4786  12.7353
    12.9421  12.9489  13.2887  13.2900  13.4293  13.5587  13.6817  13.8474
    13.8625  13.9239  14.0906  14.1130  14.2633  14.2871  14.5369  14.5837
    14.8593  14.8961  15.0571  15.1032  15.2288  15.3164  15.4519  15.4595
    15.5063  15.5155  15.6227  15.6327  15.6484  15.7262  15.7952  15.9660
    16.2622  16.2852  16.3073  16.3280  16.3713  16.4654  16.4841  16.5300
    16.5507  16.5715  17.0629

          k = 0.1667 0.3333 0.0000 ( 29163 PWs)   bands (ev):

   -35.3855 -35.3854 -35.3854 -35.3853 -35.3841 -35.3841 -35.3840 -35.3839
   -35.3734 -35.3734 -35.3733 -35.3732 -35.3725 -35.3724 -35.3723 -35.3723
   -35.3722 -35.3721 -35.3720 -35.3720 -35.3704 -35.3704 -35.3703 -35.3703
   -35.3679 -35.3679 -35.3678 -35.3676 -35.3650 -35.3650 -35.3649 -35.3648
   -35.3638 -35.3637 -35.3636 -35.3635 -35.3615 -35.3614 -35.3613 -35.3611
   -12.0029 -11.9985 -11.9847 -11.9788 -11.9729 -11.9577 -11.9560 -11.9372
   -11.9350 -11.9301 -11.9024 -11.8767 -11.8461 -11.8174 -11.8117 -11.8043
   -11.8019 -11.8008 -11.7944 -11.7940 -11.7920 -11.7912 -11.7869 -11.7838
   -11.7817 -11.7812 -11.7782 -11.7724 -11.7699 -11.7693 -11.7672 -11.7597
   -11.7580 -11.7567 -11.7539 -11.7523 -11.7513 -11.7498 -11.7475 -11.7461
   -11.7446 -11.7425 -11.7395 -11.7374 -11.7357 -11.7353 -11.7323 -11.7319
   -11.7297 -11.7291 -11.7271 -11.7265 -11.7253 -11.7239 -11.7226 -11.7206
   -11.7194 -11.7141 -11.7121 -11.7113 -11.7095 -11.7073 -11.7039 -11.7015
   -11.6964 -11.6929 -11.6922 -11.6918 -11.6908 -11.6864 -11.6851 -11.6842
   -11.6823 -11.6754 -11.6724 -11.6699 -11.6657 -11.6637 -11.6604 -11.6597
    -8.3464  -8.1943  -7.8183  -7.6519  -7.3889  -7.2703  -7.0928  -6.9741
    -6.7524  -6.7026  -6.6961  -6.5182  -6.4865  -6.1662  -6.0935  -1.8571
    -1.3522  -1.2524  -0.9172  -0.7608  -0.6180  -0.4319  -0.4076  -0.0385
     0.1184   0.1674   0.2827   0.3559   0.4323   0.4766   0.6210   0.6932
     0.7822   1.0809   1.1291   1.4038   1.7064   2.2473   2.5540   5.0908
     5.1927   5.2375   5.2710   5.3556   5.4125   5.4941   5.5072   5.6514
     5.7533   5.8006   6.0285   6.1379   6.2259   6.2436   6.3838   6.4242
     6.6593   6.7611   6.8272   6.9014   7.0053   7.1169   7.2596   7.3444
     7.4249   7.4477   7.4968   7.5394   7.6478   7.7105   7.7628   7.8778
     7.9238   8.0548   8.1287   8.2193   8.3133   8.4046   8.4401   8.5704
     8.7193   8.7309   8.8403   8.8833   9.0214   9.0642   9.1387   9.2542
     9.3096   9.4799   9.5865   9.6317   9.6534   9.7027   9.8037   9.8625
     9.8855   9.9383  10.0043  10.0304  10.0693  10.0942  10.1177  10.1712
    10.3869  10.5004  10.6438  10.7124  11.3949  12.4161  12.7566  12.8295
    12.9960  13.2144  13.2440  13.3568  13.5622  13.6595  13.8773  14.0271
    14.0976  14.2100  14.2484  14.3219  14.4603  14.5311  14.6020  14.6314
    14.6730  14.6886  14.7739  14.8621  14.9304  15.0415  15.0623  15.2377
    15.3449  15.3968  15.5354  15.6641  15.7590  15.8252  15.8708  15.9580
    15.9986  16.0278  16.1008  16.2305  16.2731  16.4753  16.6081  16.7352
    16.7889  16.8644  16.9902

          k = 0.1667 0.3333 0.1065 ( 29165 PWs)   bands (ev):

   -35.3855 -35.3854 -35.3854 -35.3853 -35.3841 -35.3841 -35.3840 -35.3839
   -35.3734 -35.3734 -35.3734 -35.3733 -35.3725 -35.3724 -35.3723 -35.3723
   -35.3722 -35.3721 -35.3721 -35.3720 -35.3704 -35.3704 -35.3703 -35.3703
   -35.3679 -35.3678 -35.3678 -35.3676 -35.3650 -35.3649 -35.3649 -35.3649
   -35.3637 -35.3637 -35.3636 -35.3636 -35.3615 -35.3613 -35.3613 -35.3612
   -12.0029 -11.9981 -11.9845 -11.9785 -11.9726 -11.9579 -11.9566 -11.9376
   -11.9356 -11.9294 -11.9030 -11.8764 -11.8469 -11.8167 -11.8108 -11.8040
   -11.8020 -11.8005 -11.7944 -11.7939 -11.7923 -11.7911 -11.7869 -11.7837
   -11.7818 -11.7815 -11.7788 -11.7727 -11.7704 -11.7698 -11.7672 -11.7607
   -11.7583 -11.7568 -11.7545 -11.7537 -11.7524 -11.7494 -11.7477 -11.7454
   -11.7439 -11.7419 -11.7393 -11.7373 -11.7354 -11.7342 -11.7319 -11.7311
   -11.7293 -11.7284 -11.7267 -11.7262 -11.7249 -11.7237 -11.7225 -11.7204
   -11.7195 -11.7141 -11.7123 -11.7110 -11.7094 -11.7075 -11.7035 -11.7018
   -11.6965 -11.6931 -11.6925 -11.6920 -11.6911 -11.6865 -11.6854 -11.6845
   -11.6825 -11.6755 -11.6725 -11.6701 -11.6658 -11.6638 -11.6605 -11.6597
    -8.3462  -8.1945  -7.8182  -7.6520  -7.3888  -7.2704  -7.0927  -6.9742
    -6.7524  -6.7023  -6.6964  -6.5181  -6.4865  -6.1662  -6.0935  -1.8313
    -1.3987  -1.2329  -0.9448  -0.7515  -0.6279  -0.4309  -0.4087  -0.0295
     0.1238   0.2164   0.2638   0.3526   0.4440   0.4906   0.5876   0.7270
     0.8012   1.0289   1.1178   1.4190   1.6875   2.2679   2.5405   5.0858
     5.2031   5.2388   5.2563   5.3126   5.3772   5.5029   5.5497   5.6572
     5.7889   5.8122   6.0336   6.1472   6.2232   6.2585   6.3718   6.4363
     6.6590   6.7788   6.7966   6.8839   6.9976   7.0854   7.2470   7.3273
     7.3860   7.4706   7.4997   7.5868   7.7050   7.7586   7.7841   7.8686
     7.9213   8.0515   8.1369   8.2060   8.2916   8.4131   8.4353   8.5676
     8.6890   8.7435   8.8122   8.8770   8.9411   9.0385   9.0764   9.1443
     9.4049   9.5301   9.5915   9.6318   9.6969   9.7352   9.8095   9.8686
     9.8944   9.9416   9.9980  10.0206  10.0675  10.1010  10.1415  10.1930
    10.3874  10.5007  10.6536  10.7171  11.4036  12.4615  12.7722  12.8655
    12.9577  13.1951  13.2606  13.3850  13.5646  13.6425  13.8505  13.9949
    14.0685  14.1709  14.2008  14.2702  14.3513  14.3766  14.4493  14.6086
    14.6885  14.7366  14.7941  14.8810  15.0002  15.0875  15.1890  15.3350
    15.3627  15.4907  15.5754  15.6424  15.7359  15.8530  15.8976  15.9529
    16.0184  16.0582  16.1151  16.2241  16.2864  16.4730  16.5789  16.7043
    16.7746  16.8543  16.9527

          k = 0.1667 0.3333 0.2129 ( 29179 PWs)   bands (ev):

   -35.3855 -35.3854 -35.3854 -35.3853 -35.3841 -35.3841 -35.3840 -35.3840
   -35.3735 -35.3734 -35.3734 -35.3733 -35.3724 -35.3724 -35.3724 -35.3723
   -35.3722 -35.3721 -35.3721 -35.3720 -35.3704 -35.3704 -35.3704 -35.3703
   -35.3679 -35.3678 -35.3677 -35.3677 -35.3650 -35.3650 -35.3650 -35.3649
   -35.3637 -35.3637 -35.3637 -35.3636 -35.3614 -35.3613 -35.3613 -35.3613
   -12.0029 -11.9974 -11.9842 -11.9779 -11.9719 -11.9586 -11.9576 -11.9383
   -11.9367 -11.9283 -11.9041 -11.8757 -11.8484 -11.8151 -11.8090 -11.8034
   -11.8027 -11.7998 -11.7946 -11.7937 -11.7932 -11.7906 -11.7868 -11.7838
   -11.7829 -11.7817 -11.7794 -11.7732 -11.7714 -11.7702 -11.7671 -11.7622
   -11.7607 -11.7569 -11.7548 -11.7543 -11.7539 -11.7507 -11.7479 -11.7444
   -11.7435 -11.7405 -11.7389 -11.7368 -11.7344 -11.7331 -11.7308 -11.7293
   -11.7286 -11.7269 -11.7262 -11.7249 -11.7242 -11.7233 -11.7220 -11.7202
   -11.7195 -11.7141 -11.7126 -11.7106 -11.7096 -11.7075 -11.7028 -11.7020
   -11.6966 -11.6935 -11.6929 -11.6923 -11.6916 -11.6868 -11.6859 -11.6852
   -11.6828 -11.6757 -11.6729 -11.6704 -11.6661 -11.6641 -11.6607 -11.6598
    -8.3458  -8.1949  -7.8180  -7.6523  -7.3886  -7.2706  -7.0926  -6.9743
    -6.7523  -6.7016  -6.6973  -6.5180  -6.4866  -6.1662  -6.0935  -1.7575
    -1.5100  -1.1805  -1.0134  -0.7274  -0.6529  -0.4295  -0.4102  -0.0049
     0.1133   0.2113   0.3243   0.3965   0.4631   0.5084   0.5790   0.7287
     0.8283   0.9335   1.0841   1.4677   1.6326   2.3158   2.5064   5.0753
     5.1952   5.2088   5.2617   5.3165   5.3370   5.4824   5.5349   5.7282
     5.7919   5.9152   6.0125   6.1389   6.2251   6.3274   6.3639   6.4740
     6.6521   6.7183   6.7812   6.8551   6.9493   7.0539   7.2262   7.2797
     7.4024   7.4834   7.5697   7.6712   7.7303   7.7795   7.8430   7.8823
     7.9426   8.0608   8.1188   8.1953   8.2749   8.4070   8.4562   8.5473
     8.6224   8.7132   8.7542   8.7968   8.8932   8.9768   8.9981   9.1132
     9.3758   9.5421   9.6305   9.7215   9.7677   9.8019   9.8237   9.8546
     9.8913   9.9590   9.9852  10.0171  10.0540  10.0737  10.2353  10.2612
    10.3784  10.4836  10.6704  10.7263  11.4194  12.5635  12.7868  12.8735
    13.0181  13.1803  13.2878  13.4400  13.5527  13.6214  13.7543  13.8650
    13.9159  14.0101  14.0764  14.1520  14.2401  14.3377  14.4145  14.6057
    14.6589  14.7226  14.7908  14.9180  15.1226  15.1983  15.3187  15.3698
    15.4408  15.5061  15.6146  15.7278  15.8360  15.8431  15.9390  15.9817
    16.0537  16.1424  16.1958  16.2256  16.3222  16.4640  16.5239  16.6264
    16.6796  16.8113  16.8608

          k = 0.1667 0.3333-0.3194 ( 29206 PWs)   bands (ev):

   -35.3856 -35.3855 -35.3854 -35.3853 -35.3841 -35.3841 -35.3841 -35.3840
   -35.3735 -35.3734 -35.3734 -35.3733 -35.3725 -35.3724 -35.3724 -35.3723
   -35.3722 -35.3722 -35.3721 -35.3720 -35.3705 -35.3704 -35.3704 -35.3704
   -35.3679 -35.3678 -35.3678 -35.3677 -35.3651 -35.3650 -35.3650 -35.3649
   -35.3638 -35.3637 -35.3637 -35.3636 -35.3614 -35.3614 -35.3613 -35.3613
   -12.0028 -11.9970 -11.9841 -11.9776 -11.9715 -11.9593 -11.9579 -11.9387
   -11.9371 -11.9278 -11.9047 -11.8753 -11.8491 -11.8141 -11.8080 -11.8032
   -11.8030 -11.7993 -11.7947 -11.7941 -11.7933 -11.7903 -11.7870 -11.7846
   -11.7830 -11.7817 -11.7795 -11.7733 -11.7720 -11.7704 -11.7671 -11.7627
   -11.7623 -11.7570 -11.7549 -11.7548 -11.7539 -11.7515 -11.7479 -11.7442
   -11.7432 -11.7402 -11.7387 -11.7364 -11.7338 -11.7328 -11.7301 -11.7286
   -11.7282 -11.7261 -11.7257 -11.7241 -11.7239 -11.7233 -11.7217 -11.7203
   -11.7194 -11.7142 -11.7127 -11.7103 -11.7100 -11.7074 -11.7030 -11.7015
   -11.6967 -11.6939 -11.6932 -11.6926 -11.6919 -11.6870 -11.6862 -11.6855
   -11.6829 -11.6758 -11.6731 -11.6706 -11.6662 -11.6642 -11.6608 -11.6599
    -8.3456  -8.1951  -7.8178  -7.6524  -7.3885  -7.2707  -7.0926  -6.9744
    -6.7522  -6.7011  -6.6978  -6.5180  -6.4867  -6.1662  -6.0935  -1.6655
    -1.6194  -1.1205  -1.0811  -0.7052  -0.6754  -0.4292  -0.4105   0.0149
     0.0953   0.2042   0.3127   0.4668   0.4865   0.5673   0.5831   0.7034
     0.7423   0.9559   1.0519   1.5243   1.5733   2.3471   2.4816   5.0698
     5.1724   5.2019   5.2726   5.3097   5.3694   5.4386   5.5181   5.7854
     5.7912   5.9205   6.0659   6.1318   6.1791   6.3366   6.3988   6.5502
     6.6487   6.6580   6.7295   6.8666   6.8955   7.0589   7.2103   7.2639
     7.4282   7.4865   7.6442   7.6920   7.7425   7.7733   7.8133   7.9044
     7.9859   8.0554   8.0984   8.2161   8.2854   8.4314   8.4484   8.5125
     8.5755   8.6385   8.7492   8.7702   8.8939   8.9396   8.9854   9.1076
     9.3616   9.5299   9.6366   9.7466   9.7981   9.8289   9.8370   9.8625
     9.9314   9.9487   9.9789  10.0170  10.0405  10.0529  10.2936  10.2970
    10.3898  10.4454  10.6776  10.7307  11.4263  12.6263  12.8083  12.8142
    13.1273  13.2366  13.3208  13.3913  13.5145  13.6141  13.7424  13.7618
    13.7881  13.9136  14.0133  14.1108  14.2127  14.3238  14.5393  14.5917
    14.6229  14.6632  14.8009  14.9178  15.1416  15.3060  15.3276  15.4319
    15.4449  15.5359  15.5964  15.7139  15.8201  15.8691  15.9600  16.0508
    16.1401  16.1994  16.2201  16.2737  16.3656  16.4683  16.5459  16.5676
    16.5861  16.6269  16.8517

          k = 0.1667-0.5000 0.0000 ( 29174 PWs)   bands (ev):

   -35.3856 -35.3855 -35.3854 -35.3854 -35.3842 -35.3840 -35.3840 -35.3839
   -35.3734 -35.3734 -35.3733 -35.3733 -35.3724 -35.3724 -35.3723 -35.3723
   -35.3723 -35.3721 -35.3721 -35.3720 -35.3705 -35.3704 -35.3703 -35.3703
   -35.3679 -35.3679 -35.3677 -35.3676 -35.3650 -35.3650 -35.3650 -35.3649
   -35.3637 -35.3637 -35.3636 -35.3636 -35.3615 -35.3614 -35.3613 -35.3611
   -11.9957 -11.9939 -11.9881 -11.9867 -11.9567 -11.9539 -11.9532 -11.9458
   -11.9430 -11.9319 -11.9058 -11.8403 -11.8324 -11.8275 -11.8164 -11.8137
   -11.8024 -11.7974 -11.7957 -11.7932 -11.7914 -11.7876 -11.7848 -11.7845
   -11.7825 -11.7814 -11.7801 -11.7704 -11.7690 -11.7673 -11.7666 -11.7605
   -11.7589 -11.7582 -11.7570 -11.7547 -11.7532 -11.7511 -11.7504 -11.7491
   -11.7457 -11.7405 -11.7398 -11.7384 -11.7367 -11.7334 -11.7325 -11.7296
   -11.7288 -11.7284 -11.7262 -11.7240 -11.7237 -11.7228 -11.7218 -11.7211
   -11.7192 -11.7182 -11.7147 -11.7135 -11.7123 -11.7100 -11.7027 -11.7024
   -11.7003 -11.6993 -11.6923 -11.6923 -11.6894 -11.6860 -11.6853 -11.6835
   -11.6819 -11.6815 -11.6751 -11.6712 -11.6670 -11.6631 -11.6609 -11.6609
    -8.1241  -8.1093  -8.0889  -7.8045  -7.2584  -7.2504  -7.2327  -7.0262
    -6.7182  -6.7171  -6.6878  -6.4073  -6.2568  -6.2514  -6.2206  -1.6070
    -1.5907  -1.2095  -1.1024  -0.6210  -0.6029  -0.5412  -0.4884   0.0509
     0.1032   0.2225   0.2350   0.3835   0.4281   0.5754   0.5892   0.8066
     0.8243   0.9551   1.0191   1.7305   2.0399   2.0624   2.1887   5.1209
     5.1219   5.1349   5.1767   5.2792   5.3371   5.4406   5.4661   5.6248
     5.6712   6.0516   6.0550   6.0990   6.1827   6.3030   6.3184   6.4921
     6.6226   6.8885   6.9052   7.0680   7.0759   7.1675   7.2341   7.3995
     7.4187   7.4445   7.5377   7.6195   7.6476   7.7385   7.7391   7.7452
     7.8421   8.1043   8.1236   8.3453   8.4008   8.4524   8.5685   8.6015
     8.6401   8.6539   8.7253   8.9999   9.0838   9.1228   9.2495   9.2883
     9.3325   9.3973   9.5941   9.6014   9.6379   9.6741   9.6949   9.7747
     9.7947   9.8653   9.8886   9.9152   9.9506   9.9738  10.1050  10.1638
    10.2738  10.3963  10.5989  10.6897  11.4765  12.6407  12.8156  13.0840
    13.1363  13.4747  13.4920  13.5667  13.6293  13.7360  13.7503  13.9216
    13.9409  14.0695  14.0734  14.2271  14.3260  14.3518  14.3942  14.4996
    14.5159  14.8092  14.8097  14.9409  14.9937  15.0662  15.0964  15.2281
    15.2876  15.4625  15.4680  15.5958  15.6297  15.6836  15.8851  15.9393
    16.1598  16.2155  16.2726  16.3464  16.3473  16.5066  16.5487  16.5561
    16.7358  16.7939  16.9524

          k = 0.1667-0.5000 0.1065 ( 29142 PWs)   bands (ev):

   -35.3855 -35.3854 -35.3853 -35.3853 -35.3841 -35.3840 -35.3840 -35.3839
   -35.3734 -35.3734 -35.3733 -35.3733 -35.3724 -35.3724 -35.3723 -35.3722
   -35.3722 -35.3721 -35.3720 -35.3720 -35.3704 -35.3703 -35.3703 -35.3703
   -35.3679 -35.3678 -35.3677 -35.3676 -35.3650 -35.3650 -35.3649 -35.3649
   -35.3637 -35.3637 -35.3636 -35.3635 -35.3614 -35.3613 -35.3613 -35.3611
   -11.9956 -11.9938 -11.9879 -11.9865 -11.9569 -11.9535 -11.9528 -11.9461
   -11.9433 -11.9324 -11.9063 -11.8398 -11.8323 -11.8290 -11.8158 -11.8124
   -11.8023 -11.7971 -11.7955 -11.7930 -11.7921 -11.7882 -11.7852 -11.7847
   -11.7822 -11.7804 -11.7799 -11.7717 -11.7695 -11.7674 -11.7671 -11.7613
   -11.7601 -11.7588 -11.7582 -11.7532 -11.7524 -11.7514 -11.7493 -11.7482
   -11.7459 -11.7413 -11.7396 -11.7391 -11.7359 -11.7324 -11.7322 -11.7295
   -11.7294 -11.7273 -11.7260 -11.7239 -11.7228 -11.7226 -11.7218 -11.7205
   -11.7185 -11.7179 -11.7148 -11.7136 -11.7121 -11.7103 -11.7025 -11.7020
   -11.7006 -11.6996 -11.6925 -11.6923 -11.6894 -11.6862 -11.6856 -11.6838
   -11.6821 -11.6817 -11.6752 -11.6713 -11.6672 -11.6632 -11.6610 -11.6609
    -8.1232  -8.1093  -8.0898  -7.8046  -7.2578  -7.2503  -7.2333  -7.0262
    -6.7181  -6.7171  -6.6879  -6.4073  -6.2568  -6.2514  -6.2206  -1.5862
    -1.5656  -1.2416  -1.1477  -0.6177  -0.5951  -0.5450  -0.4957   0.0568
     0.1129   0.2398   0.2681   0.3786   0.3920   0.6061   0.6336   0.7818
     0.8171   0.9398   1.0038   1.7292   2.0413   2.0612   2.1808   5.0962
     5.1095   5.1631   5.1634   5.2651   5.2730   5.4903   5.5070   5.6513
     5.6915   6.0462   6.0539   6.0882   6.1731   6.2975   6.3180   6.5152
     6.6346   6.8751   6.9122   7.0740   7.0781   7.1755   7.2440   7.3699
     7.3792   7.4460   7.4634   7.5728   7.6577   7.7372   7.7872   7.8371
     7.8970   8.1004   8.1424   8.3344   8.4020   8.4021   8.5514   8.6125
     8.6375   8.6617   8.7085   8.9631   9.0656   9.0786   9.2188   9.2525
     9.3270   9.3800   9.5648   9.5913   9.6381   9.7131   9.7456   9.7955
     9.8261   9.8732   9.9013   9.9494   9.9652  10.0166  10.0864  10.1110
    10.3384  10.4461  10.5914  10.6886  11.4673  12.6345  12.8317  13.0704
    13.1466  13.4955  13.5162  13.5571  13.6434  13.7249  13.7412  13.7747
    13.8933  14.0650  14.1036  14.1443  14.2621  14.3549  14.4074  14.4909
    14.5038  14.7068  14.7996  14.9219  14.9680  15.0896  15.1853  15.3034
    15.3788  15.4830  15.5342  15.5957  15.6194  15.7262  15.8858  15.9612
    16.1691  16.2160  16.2965  16.3554  16.3716  16.5036  16.5410  16.5489
    16.7105  16.7581  16.9035

          k = 0.1667-0.5000 0.2129 ( 29174 PWs)   bands (ev):

   -35.3856 -35.3854 -35.3854 -35.3853 -35.3841 -35.3840 -35.3840 -35.3840
   -35.3735 -35.3734 -35.3734 -35.3733 -35.3725 -35.3724 -35.3724 -35.3723
   -35.3722 -35.3721 -35.3721 -35.3720 -35.3704 -35.3704 -35.3703 -35.3703
   -35.3679 -35.3678 -35.3677 -35.3677 -35.3651 -35.3650 -35.3650 -35.3649
   -35.3638 -35.3637 -35.3637 -35.3636 -35.3614 -35.3613 -35.3613 -35.3612
   -11.9955 -11.9938 -11.9873 -11.9860 -11.9574 -11.9527 -11.9520 -11.9468
   -11.9439 -11.9336 -11.9075 -11.8382 -11.8321 -11.8320 -11.8148 -11.8100
   -11.8019 -11.7968 -11.7951 -11.7935 -11.7927 -11.7885 -11.7866 -11.7846
   -11.7819 -11.7795 -11.7792 -11.7742 -11.7709 -11.7674 -11.7674 -11.7625
   -11.7624 -11.7593 -11.7591 -11.7527 -11.7515 -11.7503 -11.7494 -11.7464
   -11.7462 -11.7415 -11.7401 -11.7395 -11.7348 -11.7325 -11.7305 -11.7294
   -11.7285 -11.7264 -11.7261 -11.7230 -11.7225 -11.7214 -11.7213 -11.7192
   -11.7178 -11.7166 -11.7152 -11.7139 -11.7118 -11.7110 -11.7020 -11.7015
   -11.7013 -11.7002 -11.6929 -11.6925 -11.6897 -11.6867 -11.6864 -11.6846
   -11.6824 -11.6819 -11.6754 -11.6716 -11.6676 -11.6634 -11.6612 -11.6610
    -8.1213  -8.1091  -8.0917  -7.8048  -7.2565  -7.2503  -7.2346  -7.0263
    -6.7178  -6.7171  -6.6882  -6.4073  -6.2568  -6.2513  -6.2207  -1.5287
    -1.4934  -1.3206  -1.2571  -0.6119  -0.5740  -0.5515  -0.5159   0.0733
     0.1392   0.2221   0.2786   0.4116   0.4472   0.6266   0.6781   0.7526
     0.8041   0.9041   0.9632   1.7268   2.0449   2.0588   2.1643   5.0603
     5.0720   5.1522   5.2010   5.2365   5.2677   5.4521   5.5201   5.7737
     5.7882   6.0265   6.0529   6.0556   6.1363   6.2857   6.3158   6.5833
     6.6614   6.8124   6.9220   7.0839   7.0901   7.1820   7.2506   7.3260
     7.3298   7.4096   7.4286   7.5470   7.6061   7.7615   7.8494   8.0002
     8.0060   8.1059   8.1581   8.2712   8.3307   8.4018   8.5119   8.6223
     8.6417   8.6744   8.6823   8.8008   9.0433   9.0546   9.1603   9.1775
     9.3295   9.3994   9.5028   9.5382   9.6405   9.7985   9.8301   9.8716
     9.8858   9.9237   9.9241   9.9480  10.0153  10.0197  10.0463  10.0948
    10.4335  10.5354  10.5662  10.6816  11.4492  12.6299  12.8679  13.0458
    13.1948  13.4758  13.5206  13.5948  13.6111  13.6933  13.7050  13.7558
    13.7912  13.9616  13.9896  14.0912  14.1156  14.3265  14.4244  14.4793
    14.5026  14.6948  14.7295  14.8777  15.0532  15.1519  15.2231  15.3517
    15.3710  15.5711  15.5950  15.6886  15.7072  15.8270  15.8902  15.9982
    16.1940  16.2081  16.3011  16.4453  16.4630  16.5020  16.5277  16.5359
    16.6413  16.6638  16.7759

          k = 0.1667-0.5000-0.3194 ( 29164 PWs)   bands (ev):

   -35.3855 -35.3854 -35.3853 -35.3853 -35.3841 -35.3841 -35.3840 -35.3840
   -35.3735 -35.3734 -35.3733 -35.3733 -35.3724 -35.3724 -35.3724 -35.3723
   -35.3722 -35.3721 -35.3720 -35.3720 -35.3704 -35.3704 -35.3703 -35.3703
   -35.3679 -35.3678 -35.3678 -35.3677 -35.3650 -35.3650 -35.3649 -35.3649
   -35.3637 -35.3637 -35.3637 -35.3636 -35.3614 -35.3613 -35.3613 -35.3613
   -11.9955 -11.9937 -11.9870 -11.9858 -11.9576 -11.9524 -11.9515 -11.9472
   -11.9442 -11.9342 -11.9081 -11.8361 -11.8348 -11.8319 -11.8142 -11.8087
   -11.8017 -11.7969 -11.7948 -11.7940 -11.7927 -11.7886 -11.7872 -11.7845
   -11.7819 -11.7793 -11.7788 -11.7753 -11.7716 -11.7674 -11.7674 -11.7635
   -11.7627 -11.7598 -11.7592 -11.7527 -11.7513 -11.7500 -11.7490 -11.7463
   -11.7462 -11.7411 -11.7405 -11.7396 -11.7343 -11.7326 -11.7302 -11.7292
   -11.7269 -11.7268 -11.7260 -11.7230 -11.7213 -11.7213 -11.7210 -11.7182
   -11.7175 -11.7158 -11.7156 -11.7142 -11.7117 -11.7114 -11.7019 -11.7017
   -11.7011 -11.7005 -11.6931 -11.6925 -11.6899 -11.6869 -11.6868 -11.6850
   -11.6826 -11.6820 -11.6754 -11.6718 -11.6678 -11.6635 -11.6613 -11.6611
    -8.1203  -8.1091  -8.0928  -7.8049  -7.2558  -7.2502  -7.2353  -7.0263
    -6.7176  -6.7171  -6.6884  -6.4073  -6.2568  -6.2513  -6.2207  -1.4714
    -1.3906  -1.3884  -1.3771  -0.6093  -0.5542  -0.5505  -0.5389   0.0855
     0.1634   0.2040   0.2389   0.4944   0.5161   0.6020   0.6223   0.7931
     0.8022   0.8814   0.9306   1.7257   2.0471   2.0576   2.1556   5.0444
     5.0541   5.1455   5.1845   5.2801   5.2864   5.3959   5.5075   5.8570
     5.8826   5.9752   6.0438   6.0537   6.0978   6.2792   6.3135   6.6646
     6.6772   6.7259   6.9213   7.0893   7.1024   7.1757   7.2370   7.3112
     7.3173   7.4172   7.4348   7.5368   7.5638   7.7772   7.8635   8.0657
     8.1320   8.1399   8.1623   8.1822   8.2728   8.3972   8.4976   8.6289
     8.6414   8.6760   8.6773   8.7037   9.0338   9.0430   9.1352   9.1377
     9.3341   9.4532   9.4795   9.4799   9.6488   9.8181   9.8496   9.9040
     9.9171   9.9405   9.9712   9.9802  10.0017  10.0248  10.0505  10.0614
    10.4987  10.5287  10.5823  10.6713  11.4405  12.6323  12.8882  13.0347
    13.3050  13.3291  13.4393  13.6845  13.7015  13.7092  13.7381  13.7508
    13.7523  13.8570  13.8616  13.9371  14.1532  14.3048  14.4277  14.4773
    14.5083  14.7007  14.7273  14.8491  15.1097  15.2117  15.2119  15.3051
    15.3665  15.5893  15.6054  15.7526  15.7950  15.8946  15.9003  15.9997
    16.2116  16.2170  16.2931  16.5065  16.5200  16.5293  16.5685  16.5774
    16.6042  16.6214  16.6318

          k = 0.3333 0.3333 0.0000 ( 29195 PWs)   bands (ev):

   -35.3855 -35.3855 -35.3854 -35.3853 -35.3841 -35.3841 -35.3840 -35.3839
   -35.3735 -35.3735 -35.3734 -35.3733 -35.3725 -35.3725 -35.3724 -35.3724
   -35.3722 -35.3722 -35.3721 -35.3720 -35.3705 -35.3704 -35.3703 -35.3703
   -35.3680 -35.3679 -35.3678 -35.3677 -35.3651 -35.3650 -35.3650 -35.3649
   -35.3638 -35.3637 -35.3637 -35.3636 -35.3615 -35.3614 -35.3614 -35.3612
   -11.9990 -11.9977 -11.9875 -11.9872 -11.9576 -11.9545 -11.9496 -11.9414
   -11.9275 -11.8971 -11.8963 -11.8813 -11.8450 -11.8203 -11.8142 -11.8068
   -11.8060 -11.8000 -11.7956 -11.7906 -11.7906 -11.7889 -11.7859 -11.7851
   -11.7843 -11.7799 -11.7791 -11.7760 -11.7671 -11.7656 -11.7647 -11.7642
   -11.7585 -11.7568 -11.7541 -11.7534 -11.7495 -11.7493 -11.7469 -11.7460
   -11.7452 -11.7410 -11.7406 -11.7401 -11.7387 -11.7376 -11.7344 -11.7319
   -11.7318 -11.7301 -11.7294 -11.7267 -11.7260 -11.7252 -11.7225 -11.7220
   -11.7203 -11.7154 -11.7130 -11.7112 -11.7071 -11.7049 -11.7044 -11.7020
   -11.7013 -11.6970 -11.6940 -11.6933 -11.6916 -11.6897 -11.6873 -11.6859
   -11.6840 -11.6784 -11.6735 -11.6709 -11.6693 -11.6692 -11.6626 -11.6618
    -8.2072  -8.0786  -7.7091  -7.7067  -7.6528  -7.4841  -7.3218  -7.0700
    -6.5816  -6.5244  -6.4923  -6.4908  -6.4513  -6.2091  -6.1647  -1.7066
    -1.2402  -1.1367  -1.1285  -0.8563  -0.8039  -0.6978  -0.5462   0.0836
     0.1717   0.2815   0.3064   0.3590   0.3693   0.5097   0.7284   0.8913
     0.9182   1.1528   1.3063   1.4433   1.7019   2.1288   2.2724   5.0108
     5.0370   5.0420   5.0524   5.2069   5.3555   5.4263   5.4648   5.9074
     5.9101   6.0174   6.0884   6.1889   6.3641   6.4324   6.5769   6.6547
     6.7109   6.7422   6.8416   6.8741   6.9511   7.1011   7.1839   7.2581
     7.2781   7.2825   7.3046   7.3480   7.4132   7.4957   7.6458   7.7588
     7.9746   7.9953   8.1175   8.5274   8.5606   8.5609   8.6545   8.7691
     8.7718   8.8733   8.9650   9.0117   9.0555   9.0669   9.1897   9.3954
     9.3977   9.4550   9.4775   9.4836   9.4904   9.5274   9.5495   9.5817
     9.6451   9.8306   9.9918  10.0372  10.1287  10.1522  10.2032  10.4520
    10.4670  10.5987  10.6903  10.6904  11.2269  12.5043  12.5398  12.7801
    12.9913  13.1003  13.3420  13.5198  13.5986  13.8597  13.8885  14.0239
    14.0351  14.0925  14.1925  14.2917  14.3814  14.4489  14.5663  14.5727
    14.6420  14.6717  14.8399  14.8484  14.9100  14.9404  15.0333  15.1643
    15.3996  15.4911  15.5614  15.7068  15.8277  15.8535  16.0404  16.0505
    16.1686  16.1763  16.2391  16.2626  16.3542  16.3592  16.5251  16.5269
    16.5704  16.5895  16.9810

          k = 0.3333 0.3333 0.1065 ( 29175 PWs)   bands (ev):

   -35.3855 -35.3855 -35.3854 -35.3853 -35.3842 -35.3841 -35.3840 -35.3840
   -35.3735 -35.3734 -35.3733 -35.3733 -35.3725 -35.3724 -35.3724 -35.3723
   -35.3722 -35.3721 -35.3721 -35.3720 -35.3705 -35.3704 -35.3704 -35.3703
   -35.3679 -35.3678 -35.3677 -35.3676 -35.3650 -35.3650 -35.3649 -35.3649
   -35.3637 -35.3637 -35.3637 -35.3636 -35.3614 -35.3613 -35.3613 -35.3612
   -11.9990 -11.9975 -11.9874 -11.9870 -11.9578 -11.9543 -11.9496 -11.9416
   -11.9280 -11.8965 -11.8959 -11.8822 -11.8458 -11.8201 -11.8138 -11.8060
   -11.8053 -11.7998 -11.7952 -11.7931 -11.7899 -11.7889 -11.7854 -11.7846
   -11.7844 -11.7803 -11.7796 -11.7772 -11.7672 -11.7657 -11.7646 -11.7640
   -11.7584 -11.7576 -11.7544 -11.7532 -11.7511 -11.7503 -11.7490 -11.7452
   -11.7436 -11.7408 -11.7404 -11.7392 -11.7381 -11.7368 -11.7342 -11.7321
   -11.7309 -11.7302 -11.7283 -11.7262 -11.7254 -11.7244 -11.7223 -11.7219
   -11.7203 -11.7154 -11.7130 -11.7115 -11.7070 -11.7050 -11.7044 -11.7021
   -11.7008 -11.6971 -11.6942 -11.6935 -11.6917 -11.6899 -11.6878 -11.6862
   -11.6842 -11.6785 -11.6737 -11.6711 -11.6694 -11.6693 -11.6628 -11.6618
    -8.2070  -8.0788  -7.7086  -7.7067  -7.6533  -7.4841  -7.3218  -7.0701
    -6.5816  -6.5244  -6.4923  -6.4908  -6.4514  -6.2092  -6.1647  -1.6824
    -1.2824  -1.1195  -1.1102  -0.8789  -0.8303  -0.6881  -0.5573   0.0886
     0.2200   0.2662   0.3156   0.3589   0.3765   0.5085   0.7481   0.8637
     0.9057   1.1570   1.3280   1.4380   1.6807   2.1346   2.2650   5.0197
     5.0324   5.0541   5.0730   5.1921   5.3347   5.4079   5.4453   5.9208
     5.9723   6.0531   6.0926   6.2048   6.3544   6.3854   6.5581   6.6263
     6.7137   6.7550   6.8380   6.8751   6.9413   7.0406   7.0689   7.1036
     7.2447   7.3074   7.3598   7.4426   7.5102   7.5788   7.6968   7.8447
     7.9360   8.0086   8.1660   8.5091   8.5233   8.5602   8.6533   8.7689
     8.7760   8.8372   8.9311   8.9605   9.0557   9.0624   9.1408   9.3543
     9.3912   9.4326   9.4673   9.4984   9.5429   9.5523   9.5595   9.6291
     9.6721   9.8392   9.9560  10.0181  10.0649  10.1719  10.2585  10.4644
    10.4792  10.5932  10.6785  10.6855  11.2572  12.5563  12.6270  12.8083
    12.9167  13.1804  13.3223  13.5192  13.6201  13.7811  13.8526  13.8968
    14.0157  14.1276  14.1974  14.3003  14.3549  14.3827  14.4453  14.5453
    14.5853  14.6065  14.7616  14.9203  14.9530  14.9991  15.1100  15.1499
    15.4003  15.5462  15.6082  15.7672  15.8196  15.9043  16.0210  16.1296
    16.1596  16.2244  16.2357  16.2745  16.3184  16.3822  16.5066  16.5147
    16.5477  16.5788  16.9235

          k = 0.3333 0.3333 0.2129 ( 29182 PWs)   bands (ev):

   -35.3855 -35.3855 -35.3854 -35.3853 -35.3841 -35.3840 -35.3840 -35.3839
   -35.3735 -35.3734 -35.3734 -35.3733 -35.3725 -35.3724 -35.3724 -35.3723
   -35.3722 -35.3721 -35.3721 -35.3720 -35.3704 -35.3704 -35.3704 -35.3703
   -35.3679 -35.3678 -35.3678 -35.3677 -35.3650 -35.3650 -35.3650 -35.3649
   -35.3637 -35.3637 -35.3637 -35.3636 -35.3615 -35.3614 -35.3613 -35.3613
   -11.9989 -11.9969 -11.9871 -11.9868 -11.9583 -11.9540 -11.9497 -11.9421
   -11.9290 -11.8954 -11.8950 -11.8844 -11.8474 -11.8195 -11.8127 -11.8044
   -11.8038 -11.7995 -11.7950 -11.7944 -11.7920 -11.7885 -11.7850 -11.7848
   -11.7831 -11.7823 -11.7801 -11.7788 -11.7674 -11.7660 -11.7643 -11.7637
   -11.7587 -11.7581 -11.7556 -11.7535 -11.7531 -11.7514 -11.7503 -11.7449
   -11.7422 -11.7408 -11.7403 -11.7393 -11.7358 -11.7344 -11.7338 -11.7326
   -11.7301 -11.7284 -11.7270 -11.7251 -11.7242 -11.7231 -11.7221 -11.7216
   -11.7203 -11.7152 -11.7127 -11.7121 -11.7075 -11.7049 -11.7045 -11.7021
   -11.6999 -11.6971 -11.6946 -11.6939 -11.6920 -11.6901 -11.6888 -11.6869
   -11.6846 -11.6788 -11.6742 -11.6713 -11.6696 -11.6696 -11.6631 -11.6619
    -8.2066  -8.0793  -7.7077  -7.7066  -7.6542  -7.4842  -7.3218  -7.0702
    -6.5815  -6.5244  -6.4924  -6.4907  -6.4515  -6.2091  -6.1647  -1.6134
    -1.3832  -1.0760  -1.0600  -0.9318  -0.8983  -0.6631  -0.5852   0.1006
     0.2363   0.2900   0.3538   0.3670   0.4072   0.5076   0.7537   0.8112
     0.8855   1.1671   1.3825   1.4259   1.6273   2.1492   2.2472   5.0040
     5.0703   5.0915   5.1119   5.1599   5.2888   5.3652   5.3977   5.9740
     6.0770   6.1205   6.1555   6.2347   6.2898   6.3626   6.4783   6.5548
     6.6963   6.7725   6.8142   6.8399   6.8824   6.9398   6.9464   7.0750
     7.2108   7.3164   7.4616   7.5347   7.5510   7.6660   7.7892   7.9453
     8.0383   8.0947   8.2300   8.4349   8.4515   8.5381   8.6523   8.7061
     8.7430   8.7686   8.8480   8.9421   9.0179   9.0829   9.1015   9.3165
     9.3446   9.4087   9.4483   9.5127   9.5307   9.6030   9.6351   9.6733
     9.8224   9.8424   9.9019   9.9358  10.0105  10.1289  10.3730  10.4970
    10.5095  10.5737  10.6586  10.6628  11.3133  12.6172  12.7591  12.9252
    12.9924  13.2552  13.3469  13.4428  13.5191  13.7090  13.7657  13.7757
    13.8446  14.0844  14.1220  14.1932  14.2621  14.3536  14.4323  14.5417
    14.6012  14.6152  14.6987  14.8188  14.9689  15.0602  15.1318  15.2433
    15.4531  15.5263  15.7012  15.8430  15.9102  15.9962  16.0491  16.1385
    16.2252  16.2280  16.2864  16.3264  16.3383  16.4435  16.4460  16.4517
    16.5418  16.5716  16.7560

          k = 0.3333 0.3333-0.3194 ( 29178 PWs)   bands (ev):

   -35.3855 -35.3854 -35.3854 -35.3853 -35.3841 -35.3841 -35.3840 -35.3839
   -35.3734 -35.3734 -35.3734 -35.3733 -35.3725 -35.3724 -35.3724 -35.3723
   -35.3722 -35.3721 -35.3721 -35.3720 -35.3704 -35.3704 -35.3704 -35.3703
   -35.3679 -35.3678 -35.3678 -35.3677 -35.3650 -35.3650 -35.3650 -35.3649
   -35.3638 -35.3637 -35.3637 -35.3635 -35.3614 -35.3614 -35.3613 -35.3612
   -11.9988 -11.9966 -11.9869 -11.9866 -11.9585 -11.9539 -11.9497 -11.9423
   -11.9296 -11.8949 -11.8942 -11.8857 -11.8481 -11.8193 -11.8122 -11.8035
   -11.8028 -11.7993 -11.7952 -11.7942 -11.7934 -11.7884 -11.7851 -11.7849
   -11.7835 -11.7825 -11.7800 -11.7794 -11.7676 -11.7662 -11.7641 -11.7635
   -11.7590 -11.7578 -11.7565 -11.7543 -11.7538 -11.7516 -11.7506 -11.7449
   -11.7419 -11.7410 -11.7400 -11.7393 -11.7351 -11.7334 -11.7327 -11.7327
   -11.7298 -11.7275 -11.7266 -11.7243 -11.7240 -11.7221 -11.7220 -11.7216
   -11.7204 -11.7151 -11.7125 -11.7125 -11.7079 -11.7049 -11.7044 -11.7019
   -11.6994 -11.6972 -11.6948 -11.6941 -11.6922 -11.6903 -11.6895 -11.6872
   -11.6848 -11.6789 -11.6744 -11.6714 -11.6697 -11.6697 -11.6633 -11.6620
    -8.2064  -8.0795  -7.7073  -7.7065  -7.6547  -7.4842  -7.3218  -7.0702
    -6.5815  -6.5244  -6.4924  -6.4906  -6.4515  -6.2091  -6.1648  -1.5298
    -1.4814  -1.0380  -0.9918  -0.9761  -0.9731  -0.6397  -0.6101   0.1083
     0.2227   0.2945   0.3718   0.3725   0.4805   0.5108   0.6779   0.8467
     0.8561   1.1730   1.4189   1.4223   1.5883   2.1591   2.2358   4.9958
     5.1159   5.1179   5.1245   5.1330   5.2616   5.3423   5.3647   6.0235
     6.0920   6.1568   6.1812   6.3045   6.3138   6.3501   6.3980   6.5450
     6.5648   6.7275   6.8372   6.8533   6.8568   6.8929   6.9404   7.0679
     7.2109   7.3153   7.4948   7.5517   7.6064   7.7004   7.7444   8.0456
     8.1373   8.2117   8.3080   8.3219   8.4189   8.4590   8.6081   8.6546
     8.6846   8.7685   8.8891   8.9064   8.9817   9.0771   9.1914   9.2259
     9.3077   9.4303   9.4569   9.4815   9.5617   9.5694   9.7209   9.7354
     9.7848   9.8193   9.9137   9.9674  10.0205  10.0357  10.4268  10.5224
    10.5412  10.5462  10.6430  10.6463  11.3394  12.5894  12.8732  13.0122
    13.2120  13.2203  13.3244  13.4302  13.4943  13.5809  13.5849  13.6897
    13.8196  14.0702  14.0919  14.1366  14.2672  14.2974  14.4978  14.5220
    14.6462  14.6566  14.6670  14.7299  14.9821  15.0302  15.1662  15.2977
    15.3895  15.5713  15.7758  15.8978  15.9071  16.0074  16.0719  16.1418
    16.1853  16.2871  16.3459  16.3490  16.3871  16.4054  16.4922  16.5169
    16.5482  16.5561  16.6655

          k = 0.3333-0.5000 0.0000 ( 29156 PWs)   bands (ev):

   -35.3855 -35.3855 -35.3854 -35.3853 -35.3841 -35.3840 -35.3840 -35.3839
   -35.3734 -35.3734 -35.3734 -35.3733 -35.3724 -35.3724 -35.3723 -35.3723
   -35.3722 -35.3721 -35.3721 -35.3720 -35.3704 -35.3703 -35.3703 -35.3703
   -35.3679 -35.3678 -35.3677 -35.3676 -35.3650 -35.3650 -35.3650 -35.3649
   -35.3637 -35.3637 -35.3636 -35.3636 -35.3615 -35.3614 -35.3613 -35.3612
   -11.9952 -11.9936 -11.9930 -11.9912 -11.9574 -11.9475 -11.9468 -11.9282
   -11.9231 -11.9173 -11.8766 -11.8589 -11.8551 -11.8347 -11.8120 -11.8090
   -11.8083 -11.8026 -11.7979 -11.7957 -11.7903 -11.7873 -11.7815 -11.7809
   -11.7781 -11.7772 -11.7757 -11.7741 -11.7717 -11.7692 -11.7665 -11.7633
   -11.7577 -11.7558 -11.7556 -11.7539 -11.7519 -11.7494 -11.7474 -11.7469
   -11.7458 -11.7430 -11.7428 -11.7386 -11.7385 -11.7372 -11.7332 -11.7321
   -11.7314 -11.7293 -11.7292 -11.7276 -11.7263 -11.7234 -11.7234 -11.7210
   -11.7186 -11.7174 -11.7168 -11.7113 -11.7098 -11.7075 -11.7039 -11.7027
   -11.7002 -11.6977 -11.6962 -11.6953 -11.6924 -11.6906 -11.6863 -11.6843
   -11.6836 -11.6826 -11.6774 -11.6720 -11.6717 -11.6690 -11.6631 -11.6630
    -7.9965  -7.9825  -7.9632  -7.7601  -7.5419  -7.5313  -7.5100  -7.1205
    -6.5175  -6.5160  -6.4885  -6.3604  -6.2971  -6.2925  -6.2628  -1.4679
    -1.4541  -1.1108  -1.0016  -0.9488  -0.9362  -0.7280  -0.6637   0.2019
     0.2236   0.2362   0.2491   0.3302   0.3834   0.6608   0.6801   0.8422
     1.0559   1.1569   1.3744   1.7392   1.8397   1.8764   2.0163   4.9401
     4.9629   4.9844   4.9847   5.1987   5.2615   5.4238   5.4328   5.9005
     5.9317   6.2860   6.3621   6.3952   6.4070   6.4764   6.5265   6.5651
     6.6544   6.6978   6.7778   6.9306   6.9655   7.0428   7.0539   7.0913
     7.2496   7.3775   7.3997   7.4174   7.4177   7.4528   7.4743   7.4967
     7.9049   8.0104   8.1134   8.6913   8.7413   8.7518   8.8094   8.8613
     8.8666   8.8795   8.8945   8.9523   8.9672   9.0429   9.1573   9.2263
     9.2590   9.3166   9.3251   9.3945   9.4827   9.5636   9.5664   9.5834
    10.0040  10.0114  10.0808  10.1197  10.1998  10.2082  10.2412  10.2562
    10.3384  10.5815  10.5972  10.6954  11.1871  12.5110  12.5521  12.7552
    12.9260  13.0432  13.1245  13.6336  13.7186  13.7632  13.9630  14.0650
    14.0771  14.1940  14.2482  14.2704  14.4192  14.4264  14.4270  14.5336
    14.6027  14.6346  14.7299  14.7905  14.8728  14.9201  15.2214  15.2350
    15.2830  15.6052  15.6590  15.7105  15.7902  16.0388  16.0794  16.1159
    16.1889  16.2122  16.2234  16.2593  16.2719  16.3125  16.3223  16.3404
    16.6814  16.7657  16.9789

          k = 0.3333-0.5000 0.1065 ( 29140 PWs)   bands (ev):

   -35.3855 -35.3854 -35.3854 -35.3853 -35.3841 -35.3840 -35.3839 -35.3839
   -35.3734 -35.3734 -35.3734 -35.3733 -35.3725 -35.3724 -35.3723 -35.3723
   -35.3722 -35.3721 -35.3721 -35.3720 -35.3704 -35.3703 -35.3703 -35.3703
   -35.3679 -35.3678 -35.3677 -35.3676 -35.3650 -35.3650 -35.3649 -35.3649
   -35.3637 -35.3636 -35.3636 -35.3636 -35.3614 -35.3613 -35.3612 -35.3611
   -11.9950 -11.9935 -11.9929 -11.9911 -11.9576 -11.9477 -11.9471 -11.9276
   -11.9227 -11.9181 -11.8774 -11.8585 -11.8548 -11.8358 -11.8132 -11.8080
   -11.8074 -11.8018 -11.7973 -11.7955 -11.7902 -11.7884 -11.7819 -11.7816
   -11.7775 -11.7772 -11.7761 -11.7744 -11.7715 -11.7695 -11.7668 -11.7630
   -11.7577 -11.7562 -11.7558 -11.7546 -11.7528 -11.7484 -11.7484 -11.7470
   -11.7461 -11.7427 -11.7417 -11.7381 -11.7379 -11.7367 -11.7342 -11.7323
   -11.7314 -11.7286 -11.7282 -11.7266 -11.7253 -11.7233 -11.7230 -11.7208
   -11.7181 -11.7169 -11.7168 -11.7115 -11.7099 -11.7080 -11.7038 -11.7025
   -11.7004 -11.6977 -11.6964 -11.6952 -11.6925 -11.6909 -11.6867 -11.6845
   -11.6837 -11.6830 -11.6775 -11.6722 -11.6719 -11.6691 -11.6633 -11.6631
    -7.9956  -7.9824  -7.9641  -7.7602  -7.5412  -7.5313  -7.5107  -7.1205
    -6.5175  -6.5159  -6.4886  -6.3604  -6.2972  -6.2925  -6.2628  -1.4491
    -1.4305  -1.1388  -1.0427  -0.9356  -0.9205  -0.7450  -0.6851   0.2200
     0.2372   0.2432   0.2690   0.3343   0.3872   0.6426   0.6667   0.8456
     1.0761   1.1613   1.3585   1.7352   1.8430   1.8736   2.0068   4.9561
     4.9764   4.9942   4.9947   5.1821   5.2478   5.4034   5.4073   5.9385
     5.9666   6.2890   6.3820   6.3995   6.4084   6.4756   6.4776   6.5562
     6.6231   6.7203   6.7813   6.9364   6.9683   7.0248   7.0364   7.0521
     7.1655   7.2158   7.3072   7.3241   7.4499   7.5522   7.6106   7.7498
     7.9461   8.0376   8.1600   8.6378   8.7332   8.7392   8.7685   8.8581
     8.8593   8.8819   8.8927   8.9554   8.9795   8.9901   9.1869   9.2395
     9.2629   9.2939   9.3343   9.4017   9.4747   9.5642   9.5982   9.6230
     9.9371   9.9793  10.0457  10.0636  10.1320  10.1418  10.2929  10.3182
    10.3977  10.5977  10.6044  10.7066  11.2108  12.5774  12.5803  12.8264
    12.8607  13.1027  13.1712  13.6166  13.7072  13.8286  13.8375  14.0098
    14.0504  14.1377  14.2477  14.2589  14.3193  14.3601  14.3887  14.4415
    14.5257  14.6531  14.7646  14.8152  14.9260  14.9768  15.2151  15.2271
    15.3145  15.6666  15.6690  15.7556  15.7860  16.0463  16.0600  16.1303
    16.2129  16.2374  16.2431  16.2591  16.2840  16.3272  16.3297  16.3585
    16.6529  16.7277  16.9292

          k = 0.3333-0.5000 0.2129 ( 29158 PWs)   bands (ev):

   -35.3855 -35.3855 -35.3854 -35.3853 -35.3841 -35.3840 -35.3839 -35.3839
   -35.3735 -35.3734 -35.3733 -35.3733 -35.3725 -35.3724 -35.3723 -35.3723
   -35.3721 -35.3721 -35.3721 -35.3720 -35.3704 -35.3703 -35.3703 -35.3703
   -35.3679 -35.3678 -35.3677 -35.3676 -35.3650 -35.3650 -35.3650 -35.3649
   -35.3637 -35.3637 -35.3636 -35.3635 -35.3614 -35.3613 -35.3613 -35.3612
   -11.9948 -11.9933 -11.9925 -11.9908 -11.9581 -11.9481 -11.9475 -11.9260
   -11.9219 -11.9200 -11.8789 -11.8578 -11.8543 -11.8380 -11.8154 -11.8060
   -11.8054 -11.8004 -11.7961 -11.7951 -11.7907 -11.7901 -11.7834 -11.7830
   -11.7782 -11.7763 -11.7760 -11.7751 -11.7712 -11.7699 -11.7672 -11.7625
   -11.7578 -11.7568 -11.7562 -11.7557 -11.7538 -11.7493 -11.7488 -11.7473
   -11.7449 -11.7430 -11.7402 -11.7381 -11.7372 -11.7353 -11.7343 -11.7327
   -11.7315 -11.7268 -11.7267 -11.7253 -11.7242 -11.7230 -11.7224 -11.7199
   -11.7172 -11.7168 -11.7159 -11.7121 -11.7099 -11.7090 -11.7036 -11.7020
   -11.7007 -11.6978 -11.6969 -11.6948 -11.6927 -11.6915 -11.6875 -11.6848
   -11.6840 -11.6838 -11.6778 -11.6725 -11.6722 -11.6693 -11.6637 -11.6632
    -7.9937  -7.9822  -7.9661  -7.7603  -7.5397  -7.5313  -7.5122  -7.1206
    -6.5175  -6.5158  -6.4887  -6.3604  -6.2972  -6.2924  -6.2629  -1.3976
    -1.3629  -1.2066  -1.1431  -0.9047  -0.8760  -0.7840  -0.7404   0.2248
     0.2381   0.2971   0.3011   0.3727   0.4097   0.5904   0.6326   0.8528
     1.1257   1.1702   1.3173   1.7267   1.8512   1.8683   1.9859   4.9871
     4.9872   5.0291   5.0440   5.1398   5.2183   5.3453   5.3566   6.0386
     6.0629   6.2903   6.3501   6.3852   6.4027   6.4678   6.4718   6.5430
     6.5843   6.7590   6.7930   6.8270   6.8811   6.9755   7.0076   7.0288
     7.0974   7.1640   7.2609   7.2737   7.4809   7.6141   7.7414   8.0439
     8.0857   8.1515   8.2516   8.4984   8.6185   8.6486   8.7478   8.7991
     8.8391   8.8830   8.8933   8.8977   9.0098   9.0300   9.1561   9.2089
     9.3142   9.3759   9.3973   9.4340   9.4451   9.5372   9.6866   9.7222
     9.7494   9.7967   9.9687   9.9875  10.1371  10.1655  10.2988  10.3272
    10.4846  10.5953  10.6330  10.7284  11.2607  12.5355  12.7770  12.9004
    13.0074  13.2379  13.2793  13.4862  13.5410  13.7440  13.7885  13.8998
    13.9683  14.0932  14.1527  14.1918  14.1992  14.2450  14.2975  14.3849
    14.5611  14.6880  14.7441  14.8528  15.0089  15.0384  15.1589  15.2098
    15.3516  15.6630  15.7328  15.8408  15.8799  16.0181  16.0563  16.1628
    16.1946  16.2611  16.2847  16.3163  16.3273  16.3349  16.4311  16.4505
    16.5747  16.6213  16.7989

          k = 0.3333-0.5000-0.3194 ( 29148 PWs)   bands (ev):

   -35.3854 -35.3854 -35.3853 -35.3853 -35.3841 -35.3840 -35.3840 -35.3839
   -35.3735 -35.3734 -35.3733 -35.3732 -35.3724 -35.3724 -35.3723 -35.3723
   -35.3721 -35.3720 -35.3720 -35.3719 -35.3704 -35.3703 -35.3703 -35.3703
   -35.3679 -35.3678 -35.3677 -35.3677 -35.3650 -35.3649 -35.3649 -35.3649
   -35.3637 -35.3637 -35.3636 -35.3635 -35.3614 -35.3613 -35.3613 -35.3612
   -11.9947 -11.9932 -11.9923 -11.9907 -11.9583 -11.9483 -11.9477 -11.9246
   -11.9215 -11.9214 -11.8796 -11.8573 -11.8540 -11.8391 -11.8163 -11.8049
   -11.8041 -11.7997 -11.7955 -11.7950 -11.7920 -11.7900 -11.7844 -11.7836
   -11.7789 -11.7759 -11.7758 -11.7752 -11.7711 -11.7700 -11.7674 -11.7622
   -11.7578 -11.7570 -11.7567 -11.7560 -11.7542 -11.7498 -11.7491 -11.7473
   -11.7444 -11.7431 -11.7396 -11.7385 -11.7372 -11.7349 -11.7330 -11.7330
   -11.7313 -11.7261 -11.7258 -11.7249 -11.7239 -11.7228 -11.7223 -11.7192
   -11.7171 -11.7162 -11.7153 -11.7124 -11.7099 -11.7097 -11.7036 -11.7016
   -11.7009 -11.6979 -11.6972 -11.6946 -11.6928 -11.6918 -11.6879 -11.6849
   -11.6843 -11.6842 -11.6779 -11.6726 -11.6724 -11.6694 -11.6639 -11.6632
    -7.9926  -7.9821  -7.9672  -7.7604  -7.5390  -7.5313  -7.5130  -7.1206
    -6.5175  -6.5157  -6.4888  -6.3604  -6.2972  -6.2924  -6.2629  -1.3492
    -1.2676  -1.2625  -1.2536  -0.8809  -0.8178  -0.8117  -0.8039   0.2265
     0.2386   0.3068   0.3108   0.4336   0.4342   0.5388   0.6087   0.8565
     1.1616   1.1746   1.2855   1.7222   1.8566   1.8658   1.9742   4.9917
     5.0018   5.0791   5.0823   5.0913   5.2006   5.3045   5.3286   6.1225
     6.1659   6.2465   6.2650   6.3675   6.3987   6.4436   6.5244   6.5873
     6.6073   6.6442   6.7890   6.8226   6.8228   6.9216   7.0124   7.0355
     7.0739   7.1618   7.2550   7.2702   7.4829   7.6328   7.7777   8.1892
     8.2684   8.3140   8.3186   8.3809   8.4214   8.5039   8.7391   8.7788
     8.8236   8.8851   8.8943   8.8961   9.0333   9.0879   9.1220   9.1369
     9.3747   9.3978   9.4818   9.4869   9.5074   9.5656   9.5783   9.5901
     9.7979   9.8286   9.8584   9.8866  10.1850  10.2311  10.2699  10.2886
    10.5257  10.5898  10.6427  10.7381  11.2873  12.4780  12.9996  13.0272
    13.1122  13.2166  13.2771  13.4149  13.5340  13.6174  13.6216  13.8869
    13.9715  13.9944  14.1274  14.1493  14.1729  14.1919  14.3263  14.3478
    14.6406  14.6926  14.6975  14.8720  15.0450  15.0564  15.1231  15.2003
    15.3489  15.6576  15.7552  15.8901  15.9425  15.9907  16.0609  16.1730
    16.1796  16.2766  16.2831  16.3318  16.4097  16.4305  16.4414  16.4955
    16.5947  16.6008  16.6574

          k =-0.5000-0.5000 0.0000 ( 29128 PWs)   bands (ev):

   -35.3855 -35.3854 -35.3854 -35.3853 -35.3839 -35.3839 -35.3838 -35.3838
   -35.3734 -35.3734 -35.3734 -35.3733 -35.3724 -35.3724 -35.3723 -35.3723
   -35.3721 -35.3721 -35.3721 -35.3720 -35.3702 -35.3702 -35.3702 -35.3701
   -35.3678 -35.3678 -35.3678 -35.3677 -35.3650 -35.3650 -35.3650 -35.3649
   -35.3636 -35.3636 -35.3636 -35.3636 -35.3614 -35.3613 -35.3613 -35.3613
   -11.9952 -11.9938 -11.9937 -11.9918 -11.9577 -11.9472 -11.9472 -11.9197
   -11.8894 -11.8894 -11.8879 -11.8876 -11.8455 -11.8379 -11.8379 -11.8084
   -11.8057 -11.8057 -11.8005 -11.7848 -11.7843 -11.7843 -11.7841 -11.7778
   -11.7778 -11.7767 -11.7737 -11.7723 -11.7700 -11.7700 -11.7699 -11.7680
   -11.7601 -11.7600 -11.7551 -11.7510 -11.7485 -11.7485 -11.7469 -11.7458
   -11.7458 -11.7447 -11.7446 -11.7400 -11.7353 -11.7353 -11.7352 -11.7339
   -11.7331 -11.7300 -11.7300 -11.7293 -11.7266 -11.7259 -11.7228 -11.7228
   -11.7188 -11.7140 -11.7140 -11.7123 -11.7085 -11.7073 -11.7071 -11.7071
   -11.7011 -11.7011 -11.6983 -11.6927 -11.6916 -11.6873 -11.6872 -11.6872
   -11.6863 -11.6804 -11.6784 -11.6784 -11.6715 -11.6715 -11.6643 -11.6637
    -7.8081  -7.7904  -7.7903  -7.7877  -7.7784  -7.7323  -7.7323  -7.1684
    -6.3822  -6.3767  -6.3766  -6.3752  -6.3557  -6.3400  -6.3400  -1.2471
    -1.2406  -1.2406  -1.2241  -1.0104  -0.8609  -0.8609  -0.8322   0.1873
     0.2477   0.2477   0.2929   0.4255   0.5076   0.5077   0.5653   0.8332
     1.4818   1.5147   1.5147   1.5533   1.6845   1.7799   1.7800   4.8542
     4.8958   4.9078   4.9078   5.2090   5.2953   5.3653   5.3653   6.2610
     6.3579   6.3856   6.3856   6.4139   6.4671   6.4671   6.5051   6.5264
     6.6972   6.7918   6.7918   6.8435   6.8573   6.8574   6.9187   6.9826
     7.1438   7.2098   7.2098   7.3586   7.4102   7.4490   7.4490   7.4517
     7.9601   7.9601   8.1364   8.8998   8.8998   8.9041   8.9205   8.9273
     8.9273   8.9317   8.9510   8.9803   8.9918   9.0196   9.0196   9.0481
     9.2170   9.2790   9.2790   9.3008   9.3113   9.4079   9.4079   9.4313
    10.1431  10.1431  10.2177  10.2824  10.3535  10.4001  10.4002  10.4034
    10.4723  10.6274  10.6274  10.7156  10.9638  12.2497  12.2497  12.2982
    12.8296  13.2199  13.2922  13.2922  13.7966  13.9017  13.9017  13.9447
    14.0980  14.1710  14.3052  14.3052  14.4332  14.4631  14.4631  14.5984
    14.6169  14.7110  14.7110  14.7130  15.0760  15.0760  15.2641  15.4591
    15.5483  15.5483  15.5884  15.6155  15.8634  15.8650  15.8651  16.1368
    16.1485  16.1729  16.1933  16.1933  16.2027  16.5793  16.5794  16.6045
    16.6743  16.7069  16.7069

          k =-0.5000-0.5000 0.1065 ( 29144 PWs)   bands (ev):

   -35.3855 -35.3855 -35.3854 -35.3853 -35.3840 -35.3840 -35.3839 -35.3838
   -35.3735 -35.3735 -35.3734 -35.3733 -35.3724 -35.3724 -35.3724 -35.3723
   -35.3722 -35.3721 -35.3721 -35.3720 -35.3703 -35.3703 -35.3703 -35.3702
   -35.3678 -35.3677 -35.3677 -35.3676 -35.3651 -35.3650 -35.3650 -35.3649
   -35.3637 -35.3637 -35.3636 -35.3636 -35.3613 -35.3613 -35.3612 -35.3611
   -11.9951 -11.9936 -11.9936 -11.9917 -11.9579 -11.9474 -11.9474 -11.9196
   -11.8891 -11.8891 -11.8883 -11.8872 -11.8466 -11.8389 -11.8389 -11.8075
   -11.8049 -11.8049 -11.7998 -11.7861 -11.7844 -11.7844 -11.7842 -11.7787
   -11.7787 -11.7769 -11.7735 -11.7730 -11.7695 -11.7695 -11.7693 -11.7680
   -11.7601 -11.7600 -11.7551 -11.7523 -11.7492 -11.7492 -11.7461 -11.7451
   -11.7451 -11.7450 -11.7448 -11.7389 -11.7376 -11.7357 -11.7357 -11.7335
   -11.7317 -11.7291 -11.7287 -11.7287 -11.7256 -11.7251 -11.7228 -11.7227
   -11.7188 -11.7137 -11.7137 -11.7122 -11.7082 -11.7076 -11.7070 -11.7070
   -11.7013 -11.7013 -11.6983 -11.6929 -11.6912 -11.6877 -11.6874 -11.6874
   -11.6863 -11.6808 -11.6786 -11.6786 -11.6717 -11.6717 -11.6643 -11.6639
    -7.8067  -7.7899  -7.7899  -7.7891  -7.7783  -7.7328  -7.7327  -7.1685
    -6.3822  -6.3766  -6.3766  -6.3752  -6.3558  -6.3400  -6.3400  -1.2378
    -1.2202  -1.2202  -1.2032  -1.0217  -0.8934  -0.8934  -0.8668   0.2126
     0.2689   0.2689   0.2965   0.4173   0.5018   0.5019   0.5623   0.8337
     1.4917   1.5224   1.5224   1.5546   1.6709   1.7683   1.7683   4.8754
     4.9133   4.9248   4.9248   5.1841   5.2730   5.3446   5.3446   6.2829
     6.3883   6.4017   6.4017   6.4275   6.4809   6.4901   6.4902   6.5765
     6.6629   6.7285   6.7286   6.8677   6.8987   6.8987   6.9004   6.9740
     7.0353   7.0716   7.0716   7.1321   7.4132   7.5611   7.5611   7.7589
     8.0200   8.0200   8.1658   8.8425   8.8432   8.8433   8.9198   8.9263
     8.9263   8.9271   8.9360   8.9769   9.0186   9.0426   9.0426   9.0754
     9.2690   9.2819   9.3305   9.3305   9.3668   9.3804   9.3804   9.4054
    10.0776  10.0776  10.1000  10.1957  10.3999  10.3999  10.4056  10.4178
    10.4880  10.6154  10.6154  10.7000  11.0071  12.3656  12.3656  12.4175
    12.6878  13.3086  13.3110  13.3110  13.8272  13.8345  13.8345  13.8348
    14.0760  14.2243  14.2243  14.2491  14.3829  14.4327  14.4327  14.6049
    14.6193  14.6616  14.6616  14.6832  15.1572  15.1572  15.2217  15.4918
    15.4999  15.5464  15.5464  15.6042  15.8995  15.8995  15.9731  16.0538
    16.1612  16.2336  16.2336  16.2430  16.2642  16.5413  16.5413  16.6392
    16.6695  16.6779  16.6781

          k =-0.5000-0.5000 0.2129 ( 29112 PWs)   bands (ev):

   -35.3854 -35.3854 -35.3854 -35.3852 -35.3840 -35.3839 -35.3838 -35.3837
   -35.3734 -35.3734 -35.3733 -35.3733 -35.3724 -35.3724 -35.3723 -35.3723
   -35.3721 -35.3720 -35.3720 -35.3719 -35.3703 -35.3702 -35.3702 -35.3701
   -35.3678 -35.3677 -35.3677 -35.3676 -35.3650 -35.3650 -35.3649 -35.3649
   -35.3637 -35.3636 -35.3636 -35.3635 -35.3613 -35.3612 -35.3612 -35.3611
   -11.9947 -11.9934 -11.9934 -11.9916 -11.9583 -11.9477 -11.9477 -11.9195
   -11.8889 -11.8885 -11.8885 -11.8863 -11.8487 -11.8407 -11.8407 -11.8052
   -11.8031 -11.8031 -11.7981 -11.7889 -11.7845 -11.7845 -11.7841 -11.7805
   -11.7805 -11.7775 -11.7752 -11.7717 -11.7686 -11.7686 -11.7685 -11.7680
   -11.7601 -11.7601 -11.7552 -11.7537 -11.7500 -11.7500 -11.7479 -11.7451
   -11.7446 -11.7446 -11.7424 -11.7401 -11.7369 -11.7356 -11.7356 -11.7342
   -11.7304 -11.7277 -11.7266 -11.7266 -11.7251 -11.7228 -11.7227 -11.7225
   -11.7190 -11.7132 -11.7132 -11.7116 -11.7087 -11.7079 -11.7067 -11.7067
   -11.7020 -11.7020 -11.6986 -11.6931 -11.6905 -11.6886 -11.6880 -11.6880
   -11.6865 -11.6816 -11.6789 -11.6789 -11.6720 -11.6720 -11.6645 -11.6644
    -7.8031  -7.7928  -7.7890  -7.7890  -7.7783  -7.7337  -7.7337  -7.1685
    -6.3822  -6.3766  -6.3766  -6.3751  -6.3559  -6.3401  -6.3400  -1.2157
    -1.1622  -1.1622  -1.1434  -1.0479  -0.9742  -0.9742  -0.9523   0.2697
     0.3039   0.3137   0.3138   0.3924   0.4866   0.4866   0.5562   0.8345
     1.5185   1.5410   1.5411   1.5571   1.6365   1.7418   1.7419   4.9332
     4.9566   4.9650   4.9650   5.1191   5.2202   5.2971   5.2971   6.3242
     6.4491   6.4491   6.4599   6.4842   6.5027   6.5510   6.5510   6.5976
     6.6373   6.6378   6.6378   6.8355   6.8462   6.8784   6.8784   6.8804
     6.9115   6.9406   6.9407   6.9805   7.4572   7.6604   7.6605   8.0912
     8.1996   8.1996   8.2358   8.6660   8.6851   8.6851   8.8921   8.9189
     8.9251   8.9251   8.9314   8.9738   9.0731   9.1071   9.1071   9.1460
     9.2209   9.3033   9.3034   9.3354   9.4274   9.4772   9.4772   9.5213
     9.8916   9.9036   9.9037   9.9881  10.4092  10.4092  10.4211  10.4696
    10.5318  10.5918  10.5918  10.6551  11.1053  12.4545  12.6589  12.6589
    12.7213  13.3015  13.3015  13.4719  13.5171  13.6411  13.6411  13.9409
    13.9576  14.1185  14.1185  14.2543  14.3645  14.3645  14.4506  14.6187
    14.6221  14.6284  14.6284  14.6501  15.1587  15.2356  15.2357  15.3249
    15.5437  15.5438  15.5473  15.5812  15.9587  15.9890  15.9890  16.1727
    16.2418  16.3333  16.3392  16.3392  16.3440  16.4525  16.4526  16.5648
    16.5727  16.5952  16.5977

          k =-0.5000-0.5000-0.3194 ( 29216 PWs)   bands (ev):

   -35.3855 -35.3855 -35.3854 -35.3853 -35.3841 -35.3841 -35.3840 -35.3840
   -35.3736 -35.3735 -35.3735 -35.3734 -35.3726 -35.3725 -35.3725 -35.3724
   -35.3722 -35.3721 -35.3721 -35.3721 -35.3704 -35.3704 -35.3704 -35.3703
   -35.3679 -35.3679 -35.3678 -35.3677 -35.3651 -35.3651 -35.3651 -35.3650
   -35.3638 -35.3638 -35.3637 -35.3637 -35.3615 -35.3614 -35.3614 -35.3613
   -11.9946 -11.9933 -11.9933 -11.9915 -11.9585 -11.9479 -11.9479 -11.9195
   -11.8893 -11.8882 -11.8882 -11.8859 -11.8498 -11.8417 -11.8417 -11.8039
   -11.8022 -11.8022 -11.7972 -11.7906 -11.7848 -11.7848 -11.7841 -11.7815
   -11.7814 -11.7783 -11.7757 -11.7711 -11.7683 -11.7682 -11.7682 -11.7681
   -11.7602 -11.7602 -11.7552 -11.7543 -11.7503 -11.7503 -11.7487 -11.7453
   -11.7447 -11.7447 -11.7411 -11.7410 -11.7359 -11.7352 -11.7352 -11.7349
   -11.7302 -11.7269 -11.7257 -11.7257 -11.7248 -11.7229 -11.7229 -11.7214
   -11.7191 -11.7130 -11.7130 -11.7105 -11.7100 -11.7077 -11.7065 -11.7065
   -11.7024 -11.7024 -11.6988 -11.6932 -11.6901 -11.6891 -11.6883 -11.6883
   -11.6866 -11.6820 -11.6791 -11.6791 -11.6722 -11.6722 -11.6647 -11.6646
    -7.7990  -7.7969  -7.7885  -7.7885  -7.7783  -7.7342  -7.7342  -7.1686
    -6.3823  -6.3766  -6.3765  -6.3750  -6.3559  -6.3401  -6.3401  -1.2016
    -1.0901  -1.0901  -1.0639  -1.0587  -1.0572  -1.0571  -1.0491   0.3077
     0.3121   0.3389   0.3390   0.3654   0.4756   0.4756   0.5531   0.8349
     1.5413   1.5527   1.5527   1.5583   1.6100   1.7262   1.7263   4.9861
     4.9900   4.9900   4.9911   5.0575   5.1860   5.2685   5.2685   6.3389
     6.5086   6.5103   6.5103   6.5286   6.5379   6.5379   6.5990   6.6010
     6.6370   6.6392   6.6392   6.6511   6.7683   6.7683   6.7798   6.8247
     6.9349   6.9515   6.9516   6.9606   7.4671   7.6884   7.6884   8.2770
     8.3957   8.3957   8.3994   8.4084   8.5040   8.5040   8.8686   8.9186
     8.9247   8.9247   8.9309   8.9729   9.1146   9.1786   9.1829   9.1830
     9.2223   9.2224   9.2371   9.2441   9.5946   9.6629   9.6629   9.7035
     9.7035   9.7056   9.7396   9.7467  10.4173  10.4174  10.4283  10.4864
    10.5792  10.5793  10.5888  10.5972  11.1635  12.3425  12.9712  12.9713
    13.0919  13.0964  13.0964  13.1408  13.5694  13.5694  13.5899  13.8513
    14.0783  14.0783  14.0822  14.1024  14.3313  14.3313  14.5820  14.6071
    14.6231  14.6231  14.6279  14.6391  15.1468  15.2170  15.2543  15.2543
    15.5420  15.5420  15.5623  15.5663  15.9307  16.0525  16.0525  16.2699
    16.3546  16.3643  16.3890  16.3928  16.3994  16.4548  16.4584  16.4631
    16.4650  16.4702  16.4997

     the Fermi energy is    11.6366 ev

!    total energy              =  -18126.65296350 Ry
     total all-electron energy =   -729913.055941 Ry
     estimated scf accuracy    <          6.3E-11 Ry
     smearing contrib. (-TS)   =       0.00293204 Ry
     internal energy E=F+TS    =  -18126.65589555 Ry

     The total energy is F=E-TS. E is the sum of the following terms:
     one-electron contribution =   -2224.37135754 Ry
     hartree contribution      =    1419.48973825 Ry
     xc contribution           =    -851.76296764 Ry
     ewald contribution        =   -3300.85142107 Ry
     one-center paw contrib.   =  -13169.15988754 Ry

     convergence has been achieved in  11 iterations

     Forces acting on atoms (cartesian axes, Ry/au):

     atom    1 type  1   force =     0.00000000   -0.00062324   -0.00184791
     atom    2 type  1   force =     0.00000000    0.00139500    0.00007430
     atom    3 type  1   force =    -0.00139500    0.00000000   -0.00007430
     atom    4 type  1   force =     0.00062324    0.00000000    0.00184791
     atom    5 type  1   force =     0.00000000    0.00062324   -0.00184791
     atom    6 type  1   force =     0.00000000   -0.00139500    0.00007430
     atom    7 type  1   force =     0.00000000    0.00162062   -0.00049633
     atom    8 type  1   force =     0.00000000    0.00075773   -0.00050986
     atom    9 type  1   force =    -0.00075773    0.00000000    0.00050986
     atom   10 type  1   force =    -0.00162062    0.00000000    0.00049633
     atom   11 type  1   force =     0.00139500    0.00000000   -0.00007430
     atom   12 type  1   force =    -0.00062324    0.00000000    0.00184791
     atom   13 type  1   force =     0.00000000   -0.00162062   -0.00049633
     atom   14 type  1   force =     0.00000000   -0.00075773   -0.00050986
     atom   15 type  1   force =     0.00075773    0.00000000    0.00050986
     atom   16 type  1   force =     0.00162062    0.00000000    0.00049633
     atom   17 type  3   force =     0.00000000   -0.00112471    0.00142966
     atom   18 type  3   force =     0.00112471    0.00000000   -0.00142966
     atom   19 type  3   force =     0.00000000    0.00112471    0.00142966
     atom   20 type  3   force =     0.00000000   -0.00054478   -0.00040789
     atom   21 type  3   force =     0.00054478    0.00000000    0.00040789
     atom   22 type  3   force =    -0.00112471    0.00000000   -0.00142966
     atom   23 type  3   force =     0.00000000    0.00054478   -0.00040789
     atom   24 type  3   force =    -0.00054478    0.00000000    0.00040789
     atom   25 type  2   force =     0.00000000    0.00000000    0.00000000
     atom   26 type  2   force =     0.00000000    0.00000000   -0.00005886
     atom   27 type  2   force =     0.00000000    0.00000000   -0.00027040
     atom   28 type  2   force =     0.00000000    0.00000000    0.00000000
     atom   29 type  2   force =    -0.00093078   -0.00093078   -0.00000000
     atom   30 type  2   force =     0.00007294   -0.00007294   -0.00000000
     atom   31 type  2   force =     0.00093078   -0.00093078   -0.00000000
     atom   32 type  2   force =    -0.00007294   -0.00007294   -0.00000000
     atom   33 type  2   force =     0.00007294    0.00007294   -0.00000000
     atom   34 type  2   force =     0.00093078    0.00093078   -0.00000000
     atom   35 type  2   force =     0.00000000    0.00000000    0.00027040
     atom   36 type  2   force =     0.00000000    0.00000000    0.00005886
     atom   37 type  2   force =     0.00000000    0.00000000    0.00000000
     atom   38 type  2   force =    -0.00007294    0.00007294   -0.00000000
     atom   39 type  2   force =    -0.00093078    0.00093078   -0.00000000

     Total force =     0.007750     Total SCF correction =     0.000036


     Computing stress (Cartesian axis) and pressure

          total   stress  (Ry/bohr**3)                   (kbar)     P=       -3.62
  -0.00002369   0.00000000   0.00000000           -3.49        0.00        0.00
   0.00000000  -0.00002369   0.00000000            0.00       -3.49        0.00
   0.00000000   0.00000000  -0.00002648            0.00        0.00       -3.90

     Energy error            =      1.0E-04 Ry
     Gradient error          =      1.8E-03 Ry/Bohr

     number of scf cycles    =   6
     number of bfgs steps    =   5

     energy             old  =  -18126.6528600988 Ry
     energy             new  =  -18126.6529635014 Ry

     CASE: energy            _new < energy            _old

     new trust radius        =       0.0092483999 bohr
     new conv_thr            =            7.8E-11 Ry


ATOMIC_POSITIONS (crystal)
Bi               0.0000000000       -0.0005870936        0.3543542897
Bi               0.0000000000       -0.0005027515        0.6453341658
Bi               0.2505028298        0.2500000783        0.8546657813
Bi               0.2505871719        0.2500000783        0.1456457477
Bi               0.0000000000        0.5005871209        0.3543542897
Bi               0.0000000000        0.5005027788        0.6453341658
Bi               0.5000000273       -0.0052177400        0.3543074582
Bi               0.5000000273       -0.0003419342        0.6445806122
Bi               0.2503420125        0.7499999763        0.8554193349
Bi               0.2552178183        0.7499999763        0.1456925792
Bi               0.7494972248        0.2500000783        0.8546657813
Bi               0.7494128827        0.2500000783        0.1456457477
Bi               0.5000000273        0.5052177673        0.3543074582
Bi               0.5000000273        0.5003419615        0.6445806122
Bi               0.7496580421        0.7499999763        0.8554193349
Bi               0.7447822363        0.7499999763        0.1456925792
Se               0.0000000000       -0.0022799733        0.0024680162
Se               0.2522800516        0.2500000783        0.4975320212
Se               0.0000000000        0.5022800006        0.0024680162
Se               0.5000000273       -0.0006326848       -0.0002494917
Se               0.2506327631        0.7499999763        0.5002495291
Se               0.7477200030        0.2500000783        0.4975320212
Se               0.5000000273        0.5006327121       -0.0002494917
Se               0.7493672915        0.7499999763        0.5002495291
O                0.0000000000        0.2500000783        0.2499999774
O                0.0000000000        0.7499999763        0.7499249142
O                0.0000000000        0.7499999763        0.2478489029
O                0.0000000000        0.2500000783        0.7500000148
O                0.7511200018        0.0011200255        0.2499999774
O                0.2495259213        0.0004741570        0.7500000148
O                0.2488800528        0.0011200255        0.2499999774
O                0.7504741333        0.0004741570        0.7500000148
O                0.2495259213        0.4995258703        0.7500000148
O                0.2488800528        0.4988800018        0.2499999774
O                0.5000000273        0.2500000783        0.2521510519
O                0.5000000273        0.2500000783        0.7500751154
O                0.5000000273        0.7499999763        0.7500000148
O                0.7504741333        0.4995258703        0.7500000148
O                0.7511200018        0.4988800018        0.2499999774



     Writing config-only to output data dir ./out/voxy.save/ :
     XML data file
     NEW-OLD atomic charge density approx. for the potential

     total cpu time spent up to now is     3446.5 secs

     Self-consistent Calculation

     iteration #  1     ecut=    50.00 Ry     beta= 0.40
     Davidson diagonalization with overlap
     ethr =  1.00E-06,  avg # of iterations =  5.1

     Threshold (ethr) on eigenvalues was too large:
     Diagonalizing with lowered threshold

     Davidson diagonalization with overlap
     ethr =  7.06E-09,  avg # of iterations =  5.8

     total cpu time spent up to now is     3539.4 secs

     total energy              =  -18126.65313411 Ry
     estimated scf accuracy    <       0.00003404 Ry

     iteration #  2     ecut=    50.00 Ry     beta= 0.40
     Davidson diagonalization with overlap
     ethr =  7.43E-09,  avg # of iterations =  3.0

     total cpu time spent up to now is     3568.4 secs

     total energy              =  -18126.65309790 Ry
     estimated scf accuracy    <       0.00001620 Ry

     iteration #  3     ecut=    50.00 Ry     beta= 0.40
     Davidson diagonalization with overlap
     ethr =  3.54E-09,  avg # of iterations =  2.0

     total cpu time spent up to now is     3593.2 secs

     total energy              =  -18126.65307382 Ry
     estimated scf accuracy    <       0.00000549 Ry

     iteration #  4     ecut=    50.00 Ry     beta= 0.40
     Davidson diagonalization with overlap
     ethr =  1.20E-09,  avg # of iterations =  2.9

     total cpu time spent up to now is     3619.6 secs

     total energy              =  -18126.65306103 Ry
     estimated scf accuracy    <       0.00000393 Ry

     iteration #  5     ecut=    50.00 Ry     beta= 0.40
     Davidson diagonalization with overlap
     ethr =  8.59E-10,  avg # of iterations =  2.7

     total cpu time spent up to now is     3645.5 secs

     total energy              =  -18126.65305429 Ry
     estimated scf accuracy    <       0.00000053 Ry

     iteration #  6     ecut=    50.00 Ry     beta= 0.40
     Davidson diagonalization with overlap
     ethr =  1.15E-10,  avg # of iterations =  5.0

     total cpu time spent up to now is     3680.9 secs

     total energy              =  -18126.65305213 Ry
     estimated scf accuracy    <       0.00000015 Ry

     iteration #  7     ecut=    50.00 Ry     beta= 0.40
     Davidson diagonalization with overlap
     ethr =  3.26E-11,  avg # of iterations =  2.2

     total cpu time spent up to now is     3709.6 secs

     total energy              =  -18126.65305181 Ry
     estimated scf accuracy    <       0.00000004 Ry

     iteration #  8     ecut=    50.00 Ry     beta= 0.40
     Davidson diagonalization with overlap
     ethr =  7.82E-12,  avg # of iterations =  4.0

     total cpu time spent up to now is     3741.7 secs

     total energy              =  -18126.65305179 Ry
     estimated scf accuracy    <          7.9E-09 Ry

     iteration #  9     ecut=    50.00 Ry     beta= 0.40
     Davidson diagonalization with overlap
     ethr =  1.73E-12,  avg # of iterations =  3.2

     total cpu time spent up to now is     3772.4 secs

     total energy              =  -18126.65305179 Ry
     estimated scf accuracy    <          1.6E-09 Ry

     iteration # 10     ecut=    50.00 Ry     beta= 0.40
     Davidson diagonalization with overlap
     ethr =  3.52E-13,  avg # of iterations =  3.6

     total cpu time spent up to now is     3803.3 secs

     total energy              =  -18126.65305179 Ry
     estimated scf accuracy    <          3.0E-10 Ry

     iteration # 11     ecut=    50.00 Ry     beta= 0.40
     Davidson diagonalization with overlap
     ethr =  1.00E-13,  avg # of iterations =  2.1

     total cpu time spent up to now is     3829.1 secs

     total energy              =  -18126.65305179 Ry
     estimated scf accuracy    <          8.0E-11 Ry

     iteration # 12     ecut=    50.00 Ry     beta= 0.40
     Davidson diagonalization with overlap
     ethr =  1.00E-13,  avg # of iterations =  1.0

     total cpu time spent up to now is     3850.0 secs

     End of self-consistent calculation

          k = 0.0000 0.0000 0.0000 ( 29231 PWs)   bands (ev):

   -35.3834 -35.3834 -35.3833 -35.3833 -35.3821 -35.3820 -35.3820 -35.3819
   -35.3715 -35.3715 -35.3714 -35.3713 -35.3709 -35.3708 -35.3708 -35.3707
   -35.3704 -35.3704 -35.3703 -35.3702 -35.3692 -35.3692 -35.3692 -35.3691
   -35.3659 -35.3658 -35.3658 -35.3657 -35.3639 -35.3639 -35.3638 -35.3637
   -35.3626 -35.3625 -35.3625 -35.3625 -35.3603 -35.3603 -35.3602 -35.3601
   -12.0136 -12.0092 -12.0065 -11.9756 -11.9672 -11.9458 -11.9442 -11.9442
   -11.9419 -11.9383 -11.9111 -11.9111 -11.8839 -11.8205 -11.8090 -11.8090
   -11.8067 -11.8046 -11.8029 -11.8029 -11.7967 -11.7880 -11.7880 -11.7873
   -11.7869 -11.7827 -11.7809 -11.7809 -11.7635 -11.7635 -11.7635 -11.7552
   -11.7552 -11.7518 -11.7513 -11.7513 -11.7508 -11.7488 -11.7483 -11.7418
   -11.7389 -11.7381 -11.7377 -11.7377 -11.7354 -11.7343 -11.7343 -11.7309
   -11.7309 -11.7306 -11.7290 -11.7223 -11.7193 -11.7193 -11.7174 -11.7154
   -11.7154 -11.7138 -11.7138 -11.7123 -11.7080 -11.7031 -11.6990 -11.6931
   -11.6901 -11.6901 -11.6871 -11.6840 -11.6840 -11.6833 -11.6816 -11.6811
   -11.6811 -11.6725 -11.6656 -11.6621 -11.6621 -11.6558 -11.6548 -11.6548
    -8.5920  -8.4031  -7.1712  -7.1712  -7.1447  -7.1439  -7.1439  -7.1398
    -7.0444  -6.8525  -6.8138  -6.7775  -6.7736  -6.0740  -5.9393  -2.1187
    -1.5529  -0.6291  -0.6239  -0.6238  -0.6182  -0.2505  -0.2505  -0.0431
    -0.0431   0.0356   0.0544   0.2304   0.2304   0.4148   0.4246   0.4246
     0.8389   1.1198   1.1327   1.1328   1.4586   2.3682   3.1746   5.3486
     5.3927   5.3927   5.4636   5.5820   5.5820   5.6956   5.9219   5.9491
     5.9589   5.9589   6.0519   6.1102   6.1515   6.1515   6.3397   6.3397
     6.3664   6.7444   6.7964   6.8221   6.8221   6.8251   6.8392   6.9382
     6.9383   6.9632   7.2582   7.2582   7.3917   7.4617   7.4985   7.6926
     7.6926   8.1237   8.3232   8.4125   8.4125   8.4329   8.4699   8.4700
     8.4733   8.8120   8.9435   8.9472   8.9472   9.0826   9.2115   9.2115
     9.5564   9.7652   9.7673   9.7673   9.7701   9.8499   9.8499  10.0049
    10.0050  10.0973  10.2580  10.2580  10.5262  10.5263  10.5406  10.6118
    10.7822  10.8558  10.8562  10.8670  10.8671  11.5876  11.8074  12.0314
    12.7977  12.8906  13.1598  13.1598  13.6299  13.6299  13.8750  14.0141
    14.0141  14.1151  14.3672  14.3673  14.4930  14.5080  14.5767  14.5980
    14.7559  14.7559  14.9877  15.0980  15.1075  15.3260  15.3260  15.4359
    15.5809  15.6192  15.7553  15.7553  15.7952  15.7952  15.7987  15.8226
    15.8936  15.9641  15.9641  15.9669  16.2198  16.2198  16.3409  16.6869
    16.9875  17.1203  17.1203

          k = 0.0000 0.0000 0.1065 ( 29155 PWs)   bands (ev):

   -35.3833 -35.3833 -35.3832 -35.3831 -35.3820 -35.3819 -35.3819 -35.3818
   -35.3713 -35.3713 -35.3713 -35.3712 -35.3708 -35.3708 -35.3707 -35.3707
   -35.3703 -35.3703 -35.3702 -35.3701 -35.3691 -35.3691 -35.3691 -35.3690
   -35.3658 -35.3658 -35.3657 -35.3656 -35.3638 -35.3637 -35.3637 -35.3637
   -35.3625 -35.3625 -35.3624 -35.3623 -35.3603 -35.3602 -35.3602 -35.3599
   -12.0135 -12.0084 -12.0061 -11.9764 -11.9671 -11.9464 -11.9440 -11.9440
   -11.9414 -11.9384 -11.9112 -11.9112 -11.8839 -11.8196 -11.8085 -11.8085
   -11.8066 -11.8046 -11.8025 -11.8025 -11.7965 -11.7878 -11.7878 -11.7873
   -11.7869 -11.7848 -11.7809 -11.7808 -11.7647 -11.7647 -11.7642 -11.7562
   -11.7562 -11.7526 -11.7521 -11.7521 -11.7495 -11.7491 -11.7484 -11.7423
   -11.7388 -11.7379 -11.7376 -11.7375 -11.7348 -11.7335 -11.7335 -11.7305
   -11.7293 -11.7293 -11.7262 -11.7219 -11.7197 -11.7197 -11.7173 -11.7152
   -11.7152 -11.7130 -11.7130 -11.7118 -11.7080 -11.7038 -11.6989 -11.6936
   -11.6903 -11.6902 -11.6873 -11.6843 -11.6842 -11.6837 -11.6817 -11.6812
   -11.6812 -11.6726 -11.6659 -11.6622 -11.6622 -11.6558 -11.6548 -11.6548
    -8.5918  -8.4033  -7.1707  -7.1707  -7.1447  -7.1443  -7.1443  -7.1397
    -7.0446  -6.8524  -6.8136  -6.7777  -6.7737  -6.0740  -5.9393  -2.0905
    -1.6069  -0.6292  -0.6228  -0.6228  -0.6176  -0.2428  -0.2427  -0.0590
    -0.0590   0.0162   0.1579   0.2383   0.2383   0.4149   0.4222   0.4222
     0.8368   1.1120   1.1348   1.1348   1.3450   2.4613   3.1457   5.3758
     5.3955   5.3955   5.4858   5.5765   5.5765   5.6599   5.8630   5.8899
     5.9439   5.9439   6.0812   6.1533   6.1533   6.1727   6.3688   6.3688
     6.3787   6.7449   6.7972   6.8220   6.8220   6.8244   6.8384   6.8895
     6.8896   6.9117   7.2825   7.2825   7.4023   7.5360   7.5642   7.7132
     7.7132   8.1238   8.3204   8.4202   8.4202   8.4541   8.4763   8.4763
     8.5078   8.7432   8.8244   8.9470   8.9470   9.0102   9.2115   9.2115
     9.5545   9.7557   9.7557   9.7579   9.7781   9.8726   9.8726   9.9803
     9.9804  10.1209  10.2260  10.2260  10.5252  10.5252  10.5311  10.6106
    10.8105  10.8557  10.8572  10.8673  10.8673  11.6938  11.9609  11.9922
    12.7473  12.9623  13.1800  13.1800  13.6182  13.6182  13.7377  14.0883
    14.0883  14.1121  14.1298  14.3802  14.3802  14.4890  14.5063  14.7156
    14.7503  14.7503  14.9220  15.1867  15.2966  15.2967  15.3215  15.4978
    15.4978  15.5248  15.5381  15.6653  15.7731  15.7731  15.8066  15.8286
    15.9459  15.9802  16.1735  16.1735  16.2949  16.2949  16.3631  16.6580
    16.9373  17.1010  17.1010

          k = 0.0000 0.0000 0.2129 ( 29220 PWs)   bands (ev):

   -35.3834 -35.3834 -35.3834 -35.3833 -35.3821 -35.3821 -35.3821 -35.3819
   -35.3715 -35.3714 -35.3713 -35.3712 -35.3709 -35.3709 -35.3709 -35.3708
   -35.3704 -35.3703 -35.3703 -35.3702 -35.3693 -35.3693 -35.3692 -35.3691
   -35.3658 -35.3657 -35.3657 -35.3656 -35.3639 -35.3638 -35.3637 -35.3637
   -35.3625 -35.3625 -35.3625 -35.3624 -35.3602 -35.3601 -35.3601 -35.3600
   -12.0135 -12.0070 -12.0056 -11.9783 -11.9672 -11.9477 -11.9439 -11.9439
   -11.9407 -11.9388 -11.9116 -11.9116 -11.8842 -11.8173 -11.8077 -11.8077
   -11.8063 -11.8050 -11.8017 -11.8017 -11.7958 -11.7889 -11.7876 -11.7875
   -11.7872 -11.7868 -11.7807 -11.7807 -11.7670 -11.7670 -11.7653 -11.7584
   -11.7584 -11.7544 -11.7535 -11.7535 -11.7496 -11.7487 -11.7481 -11.7437
   -11.7387 -11.7374 -11.7373 -11.7353 -11.7336 -11.7319 -11.7319 -11.7300
   -11.7269 -11.7269 -11.7222 -11.7211 -11.7204 -11.7204 -11.7170 -11.7150
   -11.7150 -11.7117 -11.7117 -11.7107 -11.7080 -11.7056 -11.6990 -11.6948
   -11.6906 -11.6906 -11.6879 -11.6848 -11.6848 -11.6845 -11.6821 -11.6813
   -11.6813 -11.6727 -11.6667 -11.6625 -11.6624 -11.6559 -11.6550 -11.6550
    -8.5915  -8.4036  -7.1698  -7.1698  -7.1453  -7.1453  -7.1447  -7.1394
    -7.0449  -6.8524  -6.8133  -6.7780  -6.7737  -6.0740  -5.9393  -2.0094
    -1.7351  -0.6294  -0.6207  -0.6206  -0.6164  -0.2230  -0.2230  -0.0932
    -0.0932   0.0151   0.2522   0.2522   0.3429   0.4177   0.4177   0.4458
     0.8308   1.0099   1.1388   1.1388   1.1846   2.6391   3.0669   5.4015
     5.4015   5.4549   5.5428   5.5651   5.5651   5.6092   5.7275   5.8042
     5.9200   5.9200   6.0388   6.1427   6.1427   6.3202   6.4626   6.4626
     6.4739   6.7458   6.7689   6.7689   6.7763   6.7990   6.8226   6.8226
     6.8230   6.8367   7.2906   7.3280   7.3280   7.7533   7.7533   7.7792
     7.8265   8.1239   8.3067   8.4321   8.4321   8.4707   8.4930   8.4930
     8.5312   8.5349   8.6175   8.8799   8.9468   8.9468   9.2115   9.2115
     9.5528   9.7326   9.7326   9.7394   9.8352   9.9257   9.9257   9.9403
     9.9403  10.0849  10.1436  10.1436  10.5238  10.5238  10.5447  10.6058
    10.8559  10.8585  10.8678  10.8679  10.8973  11.7977  12.0520  12.3584
    12.6285  13.0808  13.2268  13.2268  13.4706  13.5054  13.5866  13.5867
    14.2196  14.2944  14.2944  14.4067  14.4067  14.4806  14.4994  14.7338
    14.7338  14.7783  14.9047  15.0377  15.0378  15.0387  15.3479  15.3607
    15.3607  15.4989  15.6946  15.7891  15.7891  15.8142  15.8374  15.9529
    16.1070  16.1561  16.2087  16.2087  16.4269  16.5693  16.5693  16.5785
    16.7556  17.0316  17.0507

          k = 0.0000 0.0000-0.3194 ( 29204 PWs)   bands (ev):

   -35.3834 -35.3834 -35.3833 -35.3833 -35.3821 -35.3820 -35.3819 -35.3819
   -35.3714 -35.3713 -35.3712 -35.3712 -35.3709 -35.3709 -35.3709 -35.3708
   -35.3703 -35.3703 -35.3702 -35.3701 -35.3692 -35.3691 -35.3691 -35.3690
   -35.3659 -35.3657 -35.3657 -35.3656 -35.3638 -35.3638 -35.3637 -35.3636
   -35.3625 -35.3625 -35.3624 -35.3624 -35.3603 -35.3602 -35.3601 -35.3601
   -12.0134 -12.0063 -12.0054 -11.9793 -11.9672 -11.9483 -11.9439 -11.9439
   -11.9403 -11.9391 -11.9118 -11.9118 -11.8843 -11.8158 -11.8072 -11.8072
   -11.8060 -11.8058 -11.8014 -11.8014 -11.7953 -11.7908 -11.7874 -11.7874
   -11.7871 -11.7867 -11.7806 -11.7806 -11.7680 -11.7680 -11.7658 -11.7595
   -11.7595 -11.7555 -11.7541 -11.7541 -11.7499 -11.7489 -11.7473 -11.7446
   -11.7387 -11.7372 -11.7372 -11.7330 -11.7329 -11.7311 -11.7311 -11.7302
   -11.7258 -11.7257 -11.7206 -11.7206 -11.7206 -11.7206 -11.7169 -11.7149
   -11.7148 -11.7111 -11.7111 -11.7097 -11.7080 -11.7070 -11.6990 -11.6954
   -11.6908 -11.6908 -11.6881 -11.6851 -11.6851 -11.6850 -11.6822 -11.6814
   -11.6814 -11.6727 -11.6670 -11.6626 -11.6626 -11.6559 -11.6550 -11.6550
    -8.5914  -8.4038  -7.1692  -7.1692  -7.1459  -7.1459  -7.1447  -7.1393
    -7.0450  -6.8524  -6.8132  -6.7781  -6.7738  -6.0740  -5.9393  -1.9038
    -1.8623  -0.6297  -0.6196  -0.6195  -0.6158  -0.2089  -0.2088  -0.1139
    -0.1139   0.0164   0.2584   0.2584   0.3817   0.4155   0.4156   0.6202
     0.7746   0.8528   1.1408   1.1408   1.1635   2.7469   2.9999   5.4048
     5.4048   5.5593   5.5593   5.5683   5.5722   5.5887   5.6065   5.7517
     5.9098   5.9099   6.0026   6.1343   6.1344   6.4249   6.5660   6.5660
     6.5744   6.6417   6.6561   6.6561   6.7462   6.8000   6.8222   6.8224
     6.8224   6.8359   7.2204   7.3492   7.3492   7.7732   7.7732   8.0200
     8.1239   8.1666   8.1767   8.1959   8.3814   8.4365   8.4365   8.5032
     8.5033   8.5270   8.6969   8.7790   8.9466   8.9466   9.2115   9.2115
     9.5537   9.7209   9.7209   9.7273   9.9023   9.9023   9.9204   9.9956
    10.0122  10.0122  10.0598  10.0598  10.5233  10.5233  10.5633  10.6004
    10.8560  10.8591  10.8681  10.8681  10.9631  11.7366  12.3219  12.4269
    12.8685  12.9263  13.1626  13.2550  13.2551  13.3200  13.5655  13.5655
    14.3488  14.4103  14.4103  14.4765  14.4960  14.5576  14.5576  14.6297
    14.6298  14.7323  14.8296  14.8296  14.8618  14.9304  15.3473  15.3474
    15.4448  15.4721  15.7007  15.7964  15.7964  15.8221  15.8432  15.9524
    16.2185  16.2186  16.3597  16.4633  16.5343  16.5403  16.6057  16.6501
    16.7304  16.7304  16.9505

          k = 0.0000 0.1667 0.0000 ( 29199 PWs)   bands (ev):

   -35.3833 -35.3833 -35.3833 -35.3832 -35.3821 -35.3820 -35.3820 -35.3819
   -35.3714 -35.3714 -35.3714 -35.3712 -35.3709 -35.3708 -35.3708 -35.3707
   -35.3704 -35.3703 -35.3703 -35.3702 -35.3692 -35.3692 -35.3691 -35.3691
   -35.3658 -35.3658 -35.3657 -35.3656 -35.3638 -35.3638 -35.3638 -35.3637
   -35.3625 -35.3625 -35.3625 -35.3624 -35.3603 -35.3602 -35.3602 -35.3601
   -12.0110 -12.0047 -12.0022 -11.9712 -11.9667 -11.9644 -11.9481 -11.9460
   -11.9428 -11.9174 -11.9150 -11.9084 -11.8712 -11.8200 -11.8108 -11.8076
   -11.8042 -11.8039 -11.8016 -11.7998 -11.7946 -11.7914 -11.7868 -11.7849
   -11.7844 -11.7820 -11.7799 -11.7783 -11.7645 -11.7627 -11.7614 -11.7584
   -11.7547 -11.7536 -11.7520 -11.7513 -11.7488 -11.7484 -11.7459 -11.7456
   -11.7439 -11.7430 -11.7396 -11.7363 -11.7362 -11.7353 -11.7326 -11.7320
   -11.7305 -11.7287 -11.7276 -11.7229 -11.7210 -11.7192 -11.7188 -11.7182
   -11.7177 -11.7139 -11.7134 -11.7110 -11.7086 -11.7028 -11.7018 -11.6948
   -11.6935 -11.6895 -11.6893 -11.6874 -11.6845 -11.6835 -11.6834 -11.6820
   -11.6818 -11.6727 -11.6667 -11.6645 -11.6619 -11.6578 -11.6566 -11.6557
    -8.5408  -8.3609  -7.5080  -7.4014  -7.1492  -7.1214  -7.1195  -6.9271
    -6.8396  -6.8044  -6.8015  -6.7931  -6.7541  -6.0968  -5.9712  -2.0650
    -1.5107  -0.8923  -0.7118  -0.5966  -0.5960  -0.2590  -0.2508  -0.0529
    -0.0305   0.0635   0.1004   0.2794   0.3240   0.4019   0.4131   0.6560
     0.8083   0.9585   1.0823   1.3494   1.4624   2.3477   3.0357   5.2806
     5.3695   5.4071   5.4380   5.4581   5.6010   5.6646   5.7990   5.8173
     5.8268   5.8347   5.9610   5.9627   6.1661   6.2525   6.2605   6.4212
     6.4368   6.5500   6.6629   6.8834   6.9138   7.0481   7.0517   7.1226
     7.2052   7.2199   7.3412   7.4205   7.5352   7.6199   7.6442   7.7233
     7.8167   7.9349   8.1968   8.2800   8.3644   8.4031   8.4388   8.4407
     8.5974   8.8356   8.8868   8.9036   8.9790   9.0973   9.1144   9.1188
     9.5173   9.5912   9.7256   9.7567   9.8243   9.8588   9.8589   9.8636
     9.9023  10.1650  10.2491  10.2645  10.3463  10.3915  10.4072  10.5533
    10.5965  10.6164  10.7345  10.8396  10.9698  11.9472  12.1316  12.2888
    12.7712  13.0022  13.0053  13.3156  13.6060  13.7166  13.7704  13.9882
    14.0645  14.2993  14.3493  14.4151  14.4496  14.5033  14.6357  14.6829
    14.9023  14.9442  15.0552  15.0560  15.0974  15.1385  15.1900  15.3263
    15.3940  15.4654  15.4966  15.5418  15.6730  15.7528  15.7974  15.8579
    15.9895  16.0595  16.0726  16.0838  16.2198  16.3871  16.4287  16.8470
    16.9745  17.0113  17.0990

          k = 0.0000 0.1667 0.1065 ( 29197 PWs)   bands (ev):

   -35.3833 -35.3833 -35.3833 -35.3832 -35.3821 -35.3820 -35.3820 -35.3819
   -35.3714 -35.3714 -35.3714 -35.3713 -35.3708 -35.3708 -35.3708 -35.3707
   -35.3704 -35.3703 -35.3702 -35.3702 -35.3692 -35.3691 -35.3691 -35.3691
   -35.3659 -35.3658 -35.3657 -35.3656 -35.3638 -35.3638 -35.3638 -35.3637
   -35.3625 -35.3625 -35.3625 -35.3624 -35.3603 -35.3602 -35.3602 -35.3600
   -12.0110 -12.0041 -12.0020 -11.9721 -11.9665 -11.9645 -11.9479 -11.9464
   -11.9429 -11.9178 -11.9153 -11.9078 -11.8716 -11.8192 -11.8102 -11.8073
   -11.8041 -11.8038 -11.8013 -11.7997 -11.7945 -11.7912 -11.7867 -11.7847
   -11.7843 -11.7840 -11.7798 -11.7783 -11.7654 -11.7639 -11.7627 -11.7585
   -11.7554 -11.7541 -11.7527 -11.7522 -11.7493 -11.7486 -11.7464 -11.7462
   -11.7437 -11.7414 -11.7385 -11.7360 -11.7349 -11.7345 -11.7321 -11.7318
   -11.7300 -11.7275 -11.7258 -11.7226 -11.7210 -11.7197 -11.7187 -11.7181
   -11.7176 -11.7132 -11.7131 -11.7106 -11.7087 -11.7034 -11.7018 -11.6949
   -11.6940 -11.6897 -11.6896 -11.6877 -11.6845 -11.6838 -11.6836 -11.6822
   -11.6819 -11.6727 -11.6670 -11.6646 -11.6620 -11.6579 -11.6566 -11.6557
    -8.5406  -8.3611  -7.5078  -7.4015  -7.1487  -7.1218  -7.1194  -6.9272
    -6.8395  -6.8045  -6.8014  -6.7931  -6.7543  -6.0968  -5.9712  -2.0373
    -1.5632  -0.8807  -0.7244  -0.5958  -0.5957  -0.2537  -0.2461  -0.0675
    -0.0402   0.0723   0.1775   0.2836   0.3280   0.4069   0.4121   0.6078
     0.8327   0.9968   1.0837   1.2582   1.4305   2.4204   3.0099   5.2946
     5.3796   5.4060   5.4407   5.4562   5.5845   5.6612   5.7173   5.7605
     5.7843   5.8897   5.9733   6.0386   6.1171   6.3038   6.3269   6.4372
     6.4709   6.5762   6.6620   6.8231   6.8515   6.9862   7.0977   7.1339
     7.2051   7.2191   7.3203   7.3959   7.4797   7.6893   7.6901   7.7805
     7.8739   7.9342   8.2060   8.3093   8.3681   8.4176   8.4430   8.4432
     8.5860   8.7602   8.8061   8.8869   8.9276   8.9968   9.1315   9.1338
     9.4968   9.6690   9.7223   9.7607   9.8160   9.8663   9.8812   9.8930
     9.9225  10.1180  10.2449  10.2464  10.3455  10.4020  10.4161  10.5456
    10.5889  10.6132  10.7416  10.8328  11.0059  12.0144  12.2332  12.2564
    12.7747  13.0167  13.0317  13.3281  13.6096  13.7271  13.7518  13.8940
    14.0987  14.1944  14.2311  14.3348  14.4336  14.4714  14.6122  14.6676
    14.7870  14.9438  15.0173  15.0443  15.1266  15.2036  15.3711  15.4038
    15.4464  15.5122  15.5248  15.5488  15.6423  15.7253  15.7996  15.8709
    16.0171  16.0537  16.0700  16.2125  16.2367  16.3983  16.4280  16.8189
    16.9536  16.9705  17.0868

          k = 0.0000 0.1667 0.2129 ( 29192 PWs)   bands (ev):

   -35.3834 -35.3833 -35.3833 -35.3832 -35.3821 -35.3820 -35.3820 -35.3819
   -35.3714 -35.3714 -35.3713 -35.3713 -35.3709 -35.3708 -35.3708 -35.3707
   -35.3704 -35.3702 -35.3702 -35.3702 -35.3692 -35.3692 -35.3691 -35.3691
   -35.3659 -35.3657 -35.3657 -35.3656 -35.3638 -35.3638 -35.3638 -35.3637
   -35.3625 -35.3625 -35.3624 -35.3624 -35.3603 -35.3601 -35.3601 -35.3600
   -12.0110 -12.0027 -12.0014 -11.9739 -11.9661 -11.9648 -11.9476 -11.9472
   -11.9431 -11.9185 -11.9157 -11.9068 -11.8724 -11.8171 -11.8090 -11.8065
   -11.8043 -11.8035 -11.8006 -11.7997 -11.7941 -11.7909 -11.7878 -11.7862
   -11.7844 -11.7842 -11.7797 -11.7785 -11.7673 -11.7660 -11.7642 -11.7597
   -11.7572 -11.7555 -11.7541 -11.7540 -11.7501 -11.7490 -11.7467 -11.7462
   -11.7431 -11.7399 -11.7356 -11.7351 -11.7339 -11.7327 -11.7308 -11.7303
   -11.7297 -11.7254 -11.7229 -11.7219 -11.7210 -11.7205 -11.7184 -11.7177
   -11.7172 -11.7125 -11.7119 -11.7099 -11.7088 -11.7048 -11.7019 -11.6950
   -11.6949 -11.6900 -11.6900 -11.6883 -11.6846 -11.6845 -11.6841 -11.6825
   -11.6821 -11.6728 -11.6677 -11.6648 -11.6622 -11.6580 -11.6567 -11.6558
    -8.5403  -8.3615  -7.5075  -7.4019  -7.1478  -7.1227  -7.1193  -6.9272
    -6.8391  -6.8049  -6.8013  -6.7930  -6.7546  -6.0968  -5.9712  -1.9576
    -1.6883  -0.8497  -0.7568  -0.5957  -0.5938  -0.2407  -0.2356  -0.0944
    -0.0602   0.0816   0.2911   0.3197   0.3807   0.4103   0.4305   0.5447
     0.8415   0.9935   1.0865   1.1430   1.3574   2.5657   2.9408   5.3299
     5.3994   5.4044   5.4468   5.4519   5.5539   5.6422   5.6582   5.6767
     5.7564   5.8189   5.9726   6.1788   6.2012   6.3620   6.4066   6.4377
     6.5464   6.6381   6.6461   6.6837   6.7800   6.8728   7.1176   7.1476
     7.2033   7.2174   7.3114   7.3917   7.4135   7.7445   7.7472   7.9295
     7.9445   8.0296   8.2088   8.3748   8.3993   8.4301   8.4487   8.4761
     8.5213   8.5543   8.6111   8.7839   8.9095   8.9163   9.1392   9.1427
     9.4902   9.7114   9.7334   9.7730   9.8274   9.9062   9.9082   9.9465
     9.9786  10.0223  10.1755  10.2042  10.3584  10.4292  10.4361  10.5224
    10.5713  10.6051  10.7607  10.8144  11.0938  12.0922  12.2758  12.5192
    12.7236  13.0790  13.1024  13.3492  13.5669  13.5704  13.6927  13.8043
    13.8189  14.1412  14.2220  14.3458  14.3602  14.4948  14.5296  14.6209
    14.7337  14.9391  14.9929  15.0592  15.1984  15.2259  15.2499  15.4106
    15.4841  15.5424  15.6026  15.6195  15.7347  15.7778  15.9399  15.9499
    15.9979  16.0673  16.1467  16.2772  16.4239  16.4353  16.4912  16.6912
    16.8837  16.9023  16.9827

          k = 0.0000 0.1667-0.3194 ( 29188 PWs)   bands (ev):

   -35.3834 -35.3834 -35.3833 -35.3832 -35.3821 -35.3820 -35.3820 -35.3819
   -35.3714 -35.3713 -35.3713 -35.3713 -35.3709 -35.3708 -35.3708 -35.3707
   -35.3704 -35.3702 -35.3702 -35.3701 -35.3692 -35.3692 -35.3691 -35.3691
   -35.3658 -35.3657 -35.3657 -35.3656 -35.3638 -35.3638 -35.3637 -35.3637
   -35.3625 -35.3624 -35.3624 -35.3624 -35.3602 -35.3601 -35.3601 -35.3600
   -12.0110 -12.0019 -12.0012 -11.9748 -11.9657 -11.9650 -11.9477 -11.9475
   -11.9431 -11.9189 -11.9160 -11.9063 -11.8727 -11.8157 -11.8084 -11.8061
   -11.8046 -11.8033 -11.8003 -11.7996 -11.7938 -11.7908 -11.7895 -11.7861
   -11.7843 -11.7840 -11.7796 -11.7785 -11.7683 -11.7669 -11.7648 -11.7604
   -11.7581 -11.7567 -11.7547 -11.7547 -11.7503 -11.7492 -11.7469 -11.7461
   -11.7428 -11.7392 -11.7355 -11.7333 -11.7330 -11.7318 -11.7303 -11.7297
   -11.7296 -11.7244 -11.7220 -11.7217 -11.7207 -11.7206 -11.7183 -11.7175
   -11.7171 -11.7122 -11.7113 -11.7095 -11.7089 -11.7058 -11.7019 -11.6956
   -11.6949 -11.6903 -11.6902 -11.6886 -11.6848 -11.6847 -11.6843 -11.6827
   -11.6822 -11.6728 -11.6681 -11.6649 -11.6623 -11.6581 -11.6568 -11.6559
    -8.5401  -8.3616  -7.5073  -7.4021  -7.1473  -7.1232  -7.1193  -6.9272
    -6.8390  -6.8050  -6.8013  -6.7929  -6.7547  -6.0968  -5.9712  -1.8545
    -1.8122  -0.8185  -0.7886  -0.5957  -0.5929  -0.2326  -0.2296  -0.1085
    -0.0708   0.0854   0.2943   0.3293   0.4096   0.4207   0.4939   0.6130
     0.7616   0.8814   1.0878   1.2275   1.2737   2.6551   2.8835   5.3542
     5.3967   5.4162   5.4504   5.4505   5.5394   5.6060   5.6346   5.6654
     5.7483   5.7863   5.9516   6.2714   6.2810   6.3830   6.4376   6.4403
     6.5633   6.5819   6.6667   6.6722   6.7105   6.8377   7.0912   7.1664
     7.2005   7.2167   7.3146   7.3895   7.4027   7.7681   7.7720   7.9321
     8.0684   8.1856   8.1961   8.3476   8.3748   8.3780   8.4295   8.4539
     8.4976   8.5167   8.6061   8.6455   8.8997   8.9148   9.1412   9.1447
     9.4912   9.7052   9.7364   9.7596   9.8979   9.9122   9.9179   9.9344
    10.0332  10.0469  10.0996  10.1358  10.3690  10.4411  10.4645  10.4959
    10.5608  10.6002  10.7815  10.7939  11.1479  12.0515  12.4330  12.6133
    12.8597  12.9679  13.2365  13.2927  13.3250  13.4760  13.6561  13.7446
    14.0096  14.0717  14.1197  14.1890  14.4975  14.5402  14.5911  14.6152
    14.6822  14.7278  15.0360  15.1487  15.1583  15.2682  15.3200  15.3648
    15.4394  15.5293  15.5772  15.6791  15.7635  15.7998  15.8440  15.9667
    15.9981  16.2741  16.3232  16.4326  16.4498  16.4551  16.5439  16.6411
    16.6735  16.8168  16.8885

          k = 0.0000 0.3333 0.0000 ( 29167 PWs)   bands (ev):

   -35.3834 -35.3833 -35.3832 -35.3832 -35.3820 -35.3820 -35.3819 -35.3818
   -35.3714 -35.3713 -35.3713 -35.3713 -35.3709 -35.3708 -35.3708 -35.3707
   -35.3703 -35.3703 -35.3702 -35.3701 -35.3692 -35.3692 -35.3691 -35.3690
   -35.3658 -35.3658 -35.3656 -35.3655 -35.3638 -35.3638 -35.3638 -35.3637
   -35.3625 -35.3625 -35.3624 -35.3623 -35.3603 -35.3602 -35.3601 -35.3599
   -12.0044 -11.9926 -11.9918 -11.9808 -11.9615 -11.9594 -11.9593 -11.9550
   -11.9435 -11.9262 -11.9211 -11.8701 -11.8466 -11.8192 -11.8140 -11.8055
   -11.8036 -11.7980 -11.7976 -11.7944 -11.7929 -11.7917 -11.7850 -11.7838
   -11.7804 -11.7772 -11.7765 -11.7716 -11.7709 -11.7682 -11.7635 -11.7615
   -11.7607 -11.7555 -11.7548 -11.7532 -11.7523 -11.7514 -11.7485 -11.7481
   -11.7466 -11.7421 -11.7399 -11.7360 -11.7339 -11.7328 -11.7326 -11.7303
   -11.7285 -11.7277 -11.7271 -11.7260 -11.7249 -11.7234 -11.7227 -11.7194
   -11.7171 -11.7142 -11.7127 -11.7102 -11.7099 -11.7074 -11.7047 -11.7029
   -11.6949 -11.6947 -11.6927 -11.6916 -11.6888 -11.6842 -11.6841 -11.6834
   -11.6815 -11.6729 -11.6717 -11.6689 -11.6626 -11.6614 -11.6582 -11.6570
    -8.3917  -8.2458  -7.8540  -7.6767  -7.0880  -7.0586  -7.0563  -6.9085
    -6.9040  -6.8757  -6.8720  -6.5509  -6.4849  -6.1598  -6.0696  -1.9051
    -1.3898  -1.2907  -0.9435  -0.5218  -0.5206  -0.3134  -0.3043  -0.0580
     0.0501   0.1152   0.1882   0.2995   0.3889   0.4804   0.4829   0.6616
     0.7842   0.9431   1.1658   1.3931   1.7324   2.2900   2.6503   5.1866
     5.2341   5.3030   5.4167   5.4340   5.4454   5.5769   5.6054   5.6233
     5.6780   5.7888   5.8096   5.9072   6.0915   6.1119   6.3746   6.5065
     6.5282   6.7651   6.8301   6.8640   6.9686   7.1291   7.3989   7.4637
     7.5544   7.5968   7.6098   7.6992   7.7052   7.7636   7.7886   7.8976
     7.9070   8.0744   8.1055   8.1725   8.2107   8.2228   8.3210   8.3665
     8.5749   8.6633   8.6652   8.8954   8.9738   9.0684   9.1015   9.1618
     9.5083   9.5828   9.6013   9.7175   9.7320   9.8056   9.8415   9.8568
     9.8967   9.9970  10.0268  10.0425  10.0550  10.0940  10.1926  10.2319
    10.3910  10.4607  10.5011  10.7081  11.3782  12.5486  12.7261  12.7305
    12.8817  12.9390  13.2974  13.4941  13.6716  13.7399  13.8161  13.9020
    14.0606  14.2323  14.3865  14.5513  14.5687  14.6030  14.6043  14.6900
    14.7124  14.7770  14.8223  14.8368  14.8665  14.9430  15.0920  15.1302
    15.1674  15.4007  15.4207  15.5484  15.5561  15.7152  15.8810  16.0177
    16.1274  16.1579  16.2056  16.2886  16.3239  16.4802  16.5770  16.5798
    16.8634  16.9626  16.9733

          k = 0.0000 0.3333 0.1065 ( 29197 PWs)   bands (ev):

   -35.3835 -35.3833 -35.3832 -35.3832 -35.3820 -35.3820 -35.3819 -35.3819
   -35.3714 -35.3714 -35.3714 -35.3713 -35.3710 -35.3708 -35.3708 -35.3707
   -35.3704 -35.3703 -35.3702 -35.3702 -35.3692 -35.3692 -35.3691 -35.3691
   -35.3659 -35.3658 -35.3657 -35.3656 -35.3638 -35.3638 -35.3638 -35.3637
   -35.3626 -35.3625 -35.3625 -35.3624 -35.3603 -35.3602 -35.3602 -35.3600
   -12.0044 -11.9921 -11.9916 -11.9807 -11.9616 -11.9601 -11.9590 -11.9550
   -11.9438 -11.9267 -11.9214 -11.8697 -11.8474 -11.8185 -11.8131 -11.8052
   -11.8039 -11.7980 -11.7974 -11.7942 -11.7931 -11.7916 -11.7849 -11.7836
   -11.7813 -11.7772 -11.7764 -11.7719 -11.7715 -11.7692 -11.7650 -11.7628
   -11.7590 -11.7568 -11.7557 -11.7532 -11.7528 -11.7516 -11.7486 -11.7483
   -11.7446 -11.7417 -11.7398 -11.7359 -11.7330 -11.7327 -11.7320 -11.7296
   -11.7291 -11.7267 -11.7266 -11.7254 -11.7246 -11.7235 -11.7222 -11.7191
   -11.7174 -11.7138 -11.7125 -11.7103 -11.7101 -11.7074 -11.7044 -11.7029
   -11.6951 -11.6949 -11.6927 -11.6920 -11.6889 -11.6845 -11.6844 -11.6835
   -11.6816 -11.6730 -11.6719 -11.6690 -11.6628 -11.6614 -11.6582 -11.6570
    -8.3915  -8.2461  -7.8539  -7.6768  -7.0877  -7.0589  -7.0563  -6.9082
    -6.9040  -6.8759  -6.8721  -6.5509  -6.4849  -6.1598  -6.0696  -1.8788
    -1.4375  -1.2707  -0.9724  -0.5220  -0.5200  -0.3126  -0.3039  -0.0644
     0.0485   0.1398   0.2371   0.2991   0.3954   0.4840   0.4862   0.6608
     0.7817   0.9433   1.0994   1.4145   1.7169   2.3163   2.6350   5.1717
     5.2219   5.3021   5.3772   5.4064   5.4366   5.5785   5.6243   5.6648
     5.6981   5.7727   5.8313   5.9535   6.0822   6.0918   6.3962   6.5576
     6.5586   6.7873   6.7874   6.8668   6.9649   7.1119   7.3817   7.4814
     7.5358   7.5974   7.6078   7.6553   7.6786   7.7454   7.7819   7.9016
     7.9095   8.0987   8.1544   8.1974   8.2086   8.2290   8.3476   8.3610
     8.5620   8.6350   8.6434   8.8494   8.9623   9.0128   9.0667   9.0899
     9.4541   9.6167   9.6585   9.7544   9.7721   9.8107   9.8839   9.8930
     9.9112  10.0097  10.0106  10.0654  10.0692  10.0900  10.1935  10.2754
    10.3646  10.4566  10.5145  10.6939  11.3795  12.5543  12.7133  12.7349
    12.9361  12.9400  13.2930  13.5013  13.6771  13.7115  13.7936  13.9200
    13.9924  14.2503  14.2776  14.3196  14.3429  14.5250  14.5922  14.6785
    14.6891  14.7817  14.8321  14.9321  14.9952  15.0875  15.1305  15.1670
    15.3544  15.4689  15.4743  15.5444  15.5840  15.7252  15.8861  15.9991
    16.1496  16.1620  16.1972  16.2811  16.3291  16.4270  16.5622  16.5676
    16.8140  16.9449  16.9808

          k = 0.0000 0.3333 0.2129 ( 29173 PWs)   bands (ev):

   -35.3834 -35.3833 -35.3832 -35.3832 -35.3820 -35.3820 -35.3819 -35.3819
   -35.3714 -35.3714 -35.3713 -35.3712 -35.3709 -35.3708 -35.3708 -35.3707
   -35.3704 -35.3703 -35.3702 -35.3702 -35.3692 -35.3691 -35.3691 -35.3690
   -35.3658 -35.3657 -35.3657 -35.3656 -35.3638 -35.3638 -35.3638 -35.3637
   -35.3625 -35.3625 -35.3625 -35.3624 -35.3603 -35.3601 -35.3601 -35.3600
   -12.0043 -11.9910 -11.9908 -11.9806 -11.9617 -11.9615 -11.9584 -11.9550
   -11.9445 -11.9275 -11.9220 -11.8687 -11.8490 -11.8168 -11.8112 -11.8046
   -11.8045 -11.7980 -11.7969 -11.7939 -11.7938 -11.7913 -11.7849 -11.7832
   -11.7831 -11.7770 -11.7760 -11.7727 -11.7726 -11.7704 -11.7657 -11.7646
   -11.7620 -11.7565 -11.7557 -11.7539 -11.7531 -11.7514 -11.7490 -11.7489
   -11.7425 -11.7403 -11.7396 -11.7357 -11.7324 -11.7315 -11.7305 -11.7289
   -11.7285 -11.7258 -11.7257 -11.7243 -11.7238 -11.7236 -11.7214 -11.7188
   -11.7176 -11.7135 -11.7122 -11.7107 -11.7103 -11.7072 -11.7041 -11.7021
   -11.6956 -11.6953 -11.6930 -11.6928 -11.6893 -11.6851 -11.6850 -11.6837
   -11.6819 -11.6731 -11.6723 -11.6693 -11.6632 -11.6616 -11.6583 -11.6571
    -8.3911  -8.2465  -7.8537  -7.6771  -7.0869  -7.0597  -7.0562  -6.9078
    -6.9039  -6.8764  -6.8723  -6.5509  -6.4850  -6.1598  -6.0696  -1.8037
    -1.5515  -1.2166  -1.0441  -0.5226  -0.5189  -0.3105  -0.3029  -0.0743
     0.0454   0.1533   0.2980   0.3784   0.4299   0.4861   0.4996   0.6582
     0.7667   0.9436   0.9439   1.4705   1.6685   2.3766   2.5958   5.1432
     5.1973   5.2744   5.3097   5.4149   5.4637   5.5829   5.6129   5.6675
     5.7373   5.7381   5.9210   6.0083   6.0899   6.0925   6.4192   6.6398
     6.6610   6.6975   6.7761   6.8777   6.9814   7.1006   7.3356   7.4834
     7.5157   7.5477   7.5987   7.6088   7.6590   7.7294   7.7683   7.8921
     7.9279   8.1394   8.1969   8.2052   8.2497   8.2647   8.3490   8.3951
     8.5431   8.5825   8.6066   8.7108   8.9091   8.9402   9.0283   9.0445
     9.3959   9.5882   9.6920   9.8400   9.8464   9.8748   9.9129   9.9489
     9.9497  10.0118  10.0307  10.0472  10.1242  10.1427  10.2219  10.2956
    10.3261  10.4422  10.5510  10.6558  11.3848  12.5667  12.7019  12.7332
    12.9799  13.0841  13.2925  13.5143  13.5948  13.6587  13.7330  13.8590
    13.9302  13.9933  14.0173  14.2638  14.2732  14.4939  14.5463  14.6931
    14.6964  14.7965  14.8238  14.9890  15.0109  15.1616  15.1885  15.3269
    15.4605  15.5421  15.5787  15.7030  15.7149  15.9039  15.9196  15.9475
    16.0636  16.1281  16.2535  16.2724  16.3271  16.3615  16.5191  16.5485
    16.6952  16.8396  17.0014

          k = 0.0000 0.3333-0.3194 ( 29180 PWs)   bands (ev):

   -35.3834 -35.3833 -35.3833 -35.3832 -35.3820 -35.3820 -35.3820 -35.3819
   -35.3715 -35.3713 -35.3713 -35.3712 -35.3709 -35.3708 -35.3708 -35.3707
   -35.3704 -35.3703 -35.3702 -35.3702 -35.3692 -35.3692 -35.3691 -35.3691
   -35.3658 -35.3657 -35.3657 -35.3656 -35.3639 -35.3638 -35.3637 -35.3637
   -35.3625 -35.3625 -35.3624 -35.3624 -35.3602 -35.3601 -35.3601 -35.3601
   -12.0044 -11.9908 -11.9901 -11.9805 -11.9626 -11.9616 -11.9581 -11.9549
   -11.9448 -11.9280 -11.9223 -11.8682 -11.8498 -11.8158 -11.8102 -11.8048
   -11.8042 -11.7980 -11.7967 -11.7944 -11.7936 -11.7910 -11.7853 -11.7838
   -11.7828 -11.7769 -11.7757 -11.7732 -11.7730 -11.7705 -11.7653 -11.7653
   -11.7645 -11.7570 -11.7553 -11.7538 -11.7537 -11.7512 -11.7493 -11.7491
   -11.7422 -11.7396 -11.7392 -11.7355 -11.7322 -11.7308 -11.7301 -11.7282
   -11.7280 -11.7256 -11.7254 -11.7239 -11.7233 -11.7232 -11.7211 -11.7187
   -11.7174 -11.7136 -11.7122 -11.7110 -11.7103 -11.7072 -11.7041 -11.7014
   -11.6958 -11.6955 -11.6937 -11.6928 -11.6895 -11.6854 -11.6854 -11.6838
   -11.6820 -11.6732 -11.6725 -11.6695 -11.6633 -11.6617 -11.6584 -11.6572
    -8.3909  -8.2467  -7.8536  -7.6773  -7.0865  -7.0601  -7.0561  -6.9076
    -6.9038  -6.8766  -6.8724  -6.5509  -6.4850  -6.1598  -6.0696  -1.7091
    -1.6642  -1.1535  -1.1157  -0.5229  -0.5184  -0.3094  -0.3024  -0.0786
     0.0438   0.1565   0.2975   0.4000   0.4872   0.5025   0.5840   0.6423
     0.7059   0.8529   0.9437   1.5178   1.6238   2.4159   2.5665   5.1296
     5.1851   5.2555   5.2848   5.4322   5.4992   5.5766   5.5853   5.6673
     5.7203   5.7426   5.9818   5.9986   6.0928   6.1459   6.4249   6.6332
     6.7043   6.7048   6.7563   6.8782   6.9960   7.1179   7.3045   7.4497
     7.4898   7.5358   7.5993   7.6103   7.6557   7.7218   7.7607   7.8873
     7.9339   8.1562   8.1941   8.2072   8.2651   8.2999   8.3411   8.4355
     8.5651   8.5673   8.5727   8.6026   8.8591   8.9331   9.0146   9.0430
     9.3723   9.5712   9.6969   9.8456   9.8939   9.9046   9.9509   9.9679
     9.9711   9.9765  10.0379  10.0685  10.1958  10.1978  10.2115  10.2159
    10.3562  10.4259  10.5930  10.6130  11.3889  12.5730  12.7048  12.7232
    13.0390  13.2210  13.3170  13.4522  13.4548  13.6243  13.7694  13.8046
    13.8362  13.8730  13.9529  14.2217  14.2927  14.4687  14.6360  14.7395
    14.7478  14.7727  14.7929  14.8515  14.9859  15.2187  15.2232  15.4006
    15.4975  15.6243  15.6567  15.7370  15.7930  15.8930  15.9571  15.9593
    16.1103  16.1419  16.1824  16.2463  16.3671  16.4155  16.4640  16.5409
    16.6163  16.7162  16.9942

          k = 0.0000-0.5000 0.0000 ( 29172 PWs)   bands (ev):

   -35.3835 -35.3834 -35.3833 -35.3833 -35.3820 -35.3820 -35.3819 -35.3819
   -35.3714 -35.3714 -35.3713 -35.3712 -35.3710 -35.3709 -35.3708 -35.3708
   -35.3704 -35.3703 -35.3702 -35.3701 -35.3692 -35.3692 -35.3691 -35.3691
   -35.3658 -35.3658 -35.3656 -35.3655 -35.3638 -35.3638 -35.3638 -35.3636
   -35.3625 -35.3625 -35.3624 -35.3623 -35.3603 -35.3602 -35.3601 -35.3599
   -11.9973 -11.9929 -11.9786 -11.9779 -11.9730 -11.9665 -11.9591 -11.9453
   -11.9423 -11.9398 -11.9232 -11.8370 -11.8261 -11.8239 -11.8186 -11.8157
   -11.8045 -11.7957 -11.7951 -11.7925 -11.7912 -11.7853 -11.7841 -11.7837
   -11.7837 -11.7822 -11.7822 -11.7665 -11.7657 -11.7654 -11.7638 -11.7626
   -11.7620 -11.7615 -11.7607 -11.7588 -11.7577 -11.7529 -11.7514 -11.7473
   -11.7427 -11.7391 -11.7387 -11.7350 -11.7332 -11.7327 -11.7325 -11.7287
   -11.7282 -11.7279 -11.7262 -11.7252 -11.7237 -11.7221 -11.7214 -11.7211
   -11.7195 -11.7168 -11.7147 -11.7145 -11.7119 -11.7112 -11.7050 -11.7031
   -11.7001 -11.6996 -11.6934 -11.6887 -11.6880 -11.6853 -11.6848 -11.6822
   -11.6809 -11.6805 -11.6731 -11.6702 -11.6641 -11.6609 -11.6588 -11.6576
    -8.1709  -8.1460  -8.1409  -7.8337  -7.0127  -6.9878  -6.9742  -6.9721
    -6.9641  -6.9611  -6.8987  -6.4424  -6.2411  -6.2398  -6.2147  -1.6534
    -1.6322  -1.2450  -1.1329  -0.4299  -0.4270  -0.4022  -0.3963  -0.0596
     0.1490   0.1776   0.2253   0.2499   0.3021   0.5081   0.6203   0.7124
     0.8064   0.8882   0.9440   1.7262   2.1049   2.1259   2.2481   5.1953
     5.1967   5.2441   5.2541   5.2790   5.4167   5.5870   5.5984   5.6489
     5.6608   5.7632   5.8140   5.8436   5.9025   6.1075   6.3461   6.6565
     6.6881   6.7186   6.8065   7.1923   7.2204   7.2544   7.3830   7.4380
     7.4492   7.6019   7.6646   7.7953   7.8176   7.9205   7.9400   7.9794
     7.9811   8.0181   8.1390   8.1884   8.2249   8.2300   8.3351   8.3356
     8.3973   8.4525   8.6612   9.0450   9.2033   9.2942   9.3089   9.3186
     9.3643   9.3737   9.3762   9.4216   9.5769   9.5842   9.6610   9.7039
     9.7494   9.8425   9.9767  10.0032  10.1196  10.1495  10.2125  10.2230
    10.2730  10.3406  10.5004  10.5747  11.5666  12.6675  12.6692  13.0578
    13.4598  13.4748  13.6228  13.6514  13.6605  13.7021  13.7126  13.7224
    13.8252  14.1171  14.2140  14.3204  14.3344  14.3608  14.3852  14.4761
    14.5630  14.8935  14.9256  15.0043  15.0478  15.0531  15.0885  15.1319
    15.1418  15.1986  15.4245  15.4258  15.4530  15.8396  15.9511  16.0365
    16.0909  16.1900  16.3292  16.3348  16.3869  16.6542  16.6629  16.6696
    16.6972  16.7540  16.7991

          k = 0.0000-0.5000 0.1065 ( 29170 PWs)   bands (ev):

   -35.3835 -35.3833 -35.3833 -35.3833 -35.3820 -35.3820 -35.3819 -35.3819
   -35.3714 -35.3713 -35.3713 -35.3712 -35.3710 -35.3709 -35.3708 -35.3708
   -35.3703 -35.3703 -35.3702 -35.3701 -35.3692 -35.3691 -35.3691 -35.3691
   -35.3659 -35.3658 -35.3657 -35.3656 -35.3638 -35.3637 -35.3637 -35.3637
   -35.3625 -35.3625 -35.3624 -35.3623 -35.3603 -35.3603 -35.3602 -35.3600
   -11.9973 -11.9929 -11.9781 -11.9776 -11.9726 -11.9664 -11.9593 -11.9461
   -11.9425 -11.9405 -11.9236 -11.8367 -11.8261 -11.8253 -11.8180 -11.8141
   -11.8043 -11.7955 -11.7950 -11.7932 -11.7914 -11.7857 -11.7842 -11.7841
   -11.7834 -11.7818 -11.7811 -11.7667 -11.7666 -11.7662 -11.7655 -11.7651
   -11.7640 -11.7618 -11.7593 -11.7585 -11.7553 -11.7516 -11.7506 -11.7479
   -11.7431 -11.7394 -11.7386 -11.7348 -11.7334 -11.7324 -11.7318 -11.7286
   -11.7279 -11.7274 -11.7261 -11.7250 -11.7231 -11.7215 -11.7213 -11.7209
   -11.7186 -11.7170 -11.7152 -11.7146 -11.7118 -11.7109 -11.7044 -11.7036
   -11.6999 -11.6998 -11.6935 -11.6888 -11.6882 -11.6857 -11.6850 -11.6825
   -11.6810 -11.6807 -11.6731 -11.6703 -11.6643 -11.6610 -11.6589 -11.6577
    -8.1698  -8.1459  -8.1420  -7.8338  -7.0125  -6.9874  -6.9744  -6.9720
    -6.9645  -6.9611  -6.8989  -6.4424  -6.2411  -6.2398  -6.2147  -1.6322
    -1.6067  -1.2783  -1.1795  -0.4309  -0.4269  -0.4021  -0.3962  -0.0621
     0.1492   0.1876   0.2256   0.2948   0.3405   0.5132   0.6200   0.7070
     0.8061   0.8631   0.9151   1.7273   2.1059   2.1248   2.2408   5.1593
     5.1705   5.2056   5.2287   5.2984   5.4265   5.6330   5.6386   5.6493
     5.6859   5.7685   5.8146   5.8391   5.9322   6.0996   6.3453   6.6686
     6.6990   6.7316   6.8118   7.2147   7.2233   7.2595   7.3853   7.4362
     7.4494   7.5943   7.6326   7.7435   7.7692   7.9235   7.9408   7.9511
     7.9771   8.0242   8.1352   8.1913   8.2218   8.2441   8.3405   8.3628
     8.4094   8.4670   8.6370   8.9550   9.1534   9.2626   9.2683   9.2711
     9.3001   9.3574   9.3583   9.3901   9.6379   9.6745   9.7548   9.7981
     9.8092   9.8828   9.9935  10.0152  10.1424  10.1548  10.2266  10.2308
    10.2913  10.3409  10.4805  10.5527  11.5394  12.6590  12.6806  13.0577
    13.4667  13.4707  13.5869  13.5988  13.6338  13.6836  13.6857  13.7086
    13.8061  14.0849  14.1023  14.1705  14.1927  14.4852  14.5894  14.6007
    14.6078  14.8131  14.8145  14.8932  14.9617  15.0639  15.1128  15.2812
    15.2967  15.3567  15.3926  15.4085  15.5215  15.8571  15.9632  16.0396
    16.1139  16.1704  16.3329  16.3419  16.3842  16.6306  16.6495  16.6522
    16.6906  16.7189  16.7716

          k = 0.0000-0.5000 0.2129 ( 29198 PWs)   bands (ev):

   -35.3835 -35.3834 -35.3833 -35.3833 -35.3820 -35.3820 -35.3819 -35.3819
   -35.3715 -35.3714 -35.3713 -35.3713 -35.3710 -35.3709 -35.3709 -35.3708
   -35.3704 -35.3703 -35.3703 -35.3702 -35.3692 -35.3691 -35.3691 -35.3691
   -35.3659 -35.3657 -35.3657 -35.3657 -35.3639 -35.3638 -35.3638 -35.3637
   -35.3626 -35.3625 -35.3625 -35.3624 -35.3603 -35.3602 -35.3601 -35.3601
   -11.9972 -11.9928 -11.9771 -11.9771 -11.9716 -11.9661 -11.9596 -11.9475
   -11.9430 -11.9417 -11.9244 -11.8361 -11.8275 -11.8261 -11.8168 -11.8115
   -11.8037 -11.7950 -11.7946 -11.7945 -11.7918 -11.7863 -11.7850 -11.7833
   -11.7828 -11.7814 -11.7796 -11.7701 -11.7692 -11.7685 -11.7661 -11.7657
   -11.7650 -11.7624 -11.7596 -11.7565 -11.7529 -11.7519 -11.7490 -11.7481
   -11.7438 -11.7396 -11.7386 -11.7346 -11.7336 -11.7321 -11.7309 -11.7283
   -11.7270 -11.7266 -11.7261 -11.7234 -11.7216 -11.7215 -11.7205 -11.7201
   -11.7175 -11.7170 -11.7167 -11.7146 -11.7117 -11.7105 -11.7046 -11.7031
   -11.7003 -11.6993 -11.6939 -11.6891 -11.6888 -11.6864 -11.6855 -11.6831
   -11.6812 -11.6809 -11.6733 -11.6705 -11.6648 -11.6612 -11.6590 -11.6578
    -8.1674  -8.1457  -8.1444  -7.8340  -7.0120  -6.9866  -6.9749  -6.9718
    -6.9653  -6.9610  -6.8991  -6.4424  -6.2411  -6.2398  -6.2148  -1.5731
    -1.5331  -1.3602  -1.2918  -0.4327  -0.4268  -0.4020  -0.3961  -0.0657
     0.1497   0.1941   0.2260   0.4156   0.4204   0.5389   0.6196   0.6761
     0.8056   0.8068   0.8412   1.7296   2.1085   2.1226   2.2258   5.1013
     5.1239   5.1480   5.1838   5.3621   5.4573   5.5654   5.7100   5.7229
     5.7313   5.7834   5.8158   5.8295   6.0019   6.0939   6.3439   6.6969
     6.7240   6.7618   6.8242   7.2130   7.2694   7.2850   7.3790   7.4353
     7.4477   7.5696   7.5707   7.6408   7.6741   7.9014   7.9307   7.9424
     7.9709   8.0238   8.1262   8.1935   8.2048   8.2957   8.3474   8.4298
     8.4477   8.4907   8.5962   8.7600   9.0617   9.1633   9.1823   9.1879
     9.2409   9.3844   9.3909   9.3984   9.6973   9.8023   9.8531   9.9097
     9.9353   9.9556  10.0224  10.0360  10.1703  10.2056  10.2345  10.2812
    10.3371  10.3423  10.4276  10.4945  11.4856  12.6400  12.7065  13.0573
    13.4697  13.4811  13.5202  13.5280  13.5723  13.6193  13.6265  13.6523
    13.7799  13.9769  14.0323  14.0731  14.0805  14.4629  14.6925  14.7006
    14.7686  14.8141  14.8283  14.8947  14.9247  14.9742  15.2036  15.2880
    15.3250  15.3272  15.4709  15.6054  15.7055  15.9126  15.9971  16.0447
    16.1216  16.1632  16.3359  16.3795  16.3871  16.5428  16.6029  16.6413
    16.6553  16.6699  16.7019

          k = 0.0000-0.5000-0.3194 ( 29176 PWs)   bands (ev):

   -35.3835 -35.3834 -35.3833 -35.3833 -35.3820 -35.3820 -35.3819 -35.3818
   -35.3715 -35.3714 -35.3713 -35.3712 -35.3710 -35.3709 -35.3708 -35.3708
   -35.3704 -35.3703 -35.3702 -35.3702 -35.3692 -35.3691 -35.3691 -35.3690
   -35.3658 -35.3657 -35.3657 -35.3656 -35.3639 -35.3638 -35.3638 -35.3637
   -35.3625 -35.3625 -35.3624 -35.3624 -35.3602 -35.3601 -35.3601 -35.3600
   -11.9971 -11.9928 -11.9768 -11.9765 -11.9711 -11.9659 -11.9597 -11.9482
   -11.9432 -11.9424 -11.9248 -11.8357 -11.8285 -11.8261 -11.8160 -11.8101
   -11.8034 -11.7954 -11.7948 -11.7944 -11.7922 -11.7865 -11.7853 -11.7828
   -11.7826 -11.7812 -11.7788 -11.7719 -11.7702 -11.7695 -11.7662 -11.7657
   -11.7652 -11.7628 -11.7597 -11.7558 -11.7520 -11.7520 -11.7495 -11.7472
   -11.7441 -11.7396 -11.7386 -11.7345 -11.7336 -11.7319 -11.7306 -11.7281
   -11.7266 -11.7262 -11.7261 -11.7223 -11.7216 -11.7204 -11.7203 -11.7194
   -11.7177 -11.7176 -11.7161 -11.7148 -11.7116 -11.7103 -11.7051 -11.7024
   -11.7006 -11.6990 -11.6942 -11.6894 -11.6892 -11.6867 -11.6858 -11.6834
   -11.6813 -11.6810 -11.6733 -11.6707 -11.6651 -11.6612 -11.6590 -11.6579
    -8.1660  -8.1459  -8.1457  -7.8341  -7.0118  -6.9862  -6.9752  -6.9717
    -6.9658  -6.9610  -6.8992  -6.4424  -6.2411  -6.2398  -6.2148  -1.5133
    -1.4310  -1.4267  -1.4160  -0.4335  -0.4267  -0.4019  -0.3960  -0.0670
     0.1499   0.1955   0.2262   0.4454   0.5440   0.5776   0.5981   0.6194
     0.7807   0.7850   0.8053   1.7308   2.1101   2.1215   2.2180   5.0774
     5.1029   5.1244   5.1640   5.4387   5.4779   5.4840   5.7092   5.7599
     5.7629   5.7930   5.8165   5.8272   6.0388   6.0966   6.3432   6.7138
     6.7386   6.7794   6.8316   7.2060   7.2978   7.3129   7.3595   7.4390
     7.4458   7.5352   7.5525   7.5886   7.6263   7.8823   7.9354   7.9432
     7.9668   8.0199   8.1212   8.1937   8.1961   8.3263   8.3498   8.4639
     8.5007   8.5401   8.5842   8.5886   9.0222   9.1115   9.1506   9.1554
     9.2213   9.4001   9.4005   9.4188   9.7196   9.8540   9.8744   9.9528
     9.9928   9.9969  10.0340  10.0454  10.1809  10.2393  10.2471  10.3290
    10.3375  10.3704  10.4032  10.4300  11.4588  12.6294  12.7214  13.0569
    13.4723  13.4890  13.4904  13.5020  13.5381  13.5891  13.5902  13.6139
    13.7628  13.9445  13.9965  14.0188  14.0611  14.4318  14.6624  14.7939
    14.8098  14.8177  14.8696  14.8738  14.9764  15.1163  15.1338  15.1594
    15.3292  15.3324  15.5205  15.7150  15.7976  15.9540  16.0327  16.0457
    16.0786  16.1872  16.3546  16.3981  16.4197  16.4802  16.5361  16.6356
    16.6377  16.6540  16.6642

          k = 0.1667 0.1667 0.0000 ( 29209 PWs)   bands (ev):

   -35.3834 -35.3834 -35.3833 -35.3832 -35.3821 -35.3820 -35.3820 -35.3819
   -35.3715 -35.3714 -35.3714 -35.3713 -35.3709 -35.3709 -35.3708 -35.3707
   -35.3704 -35.3703 -35.3703 -35.3702 -35.3693 -35.3692 -35.3691 -35.3690
   -35.3659 -35.3658 -35.3657 -35.3656 -35.3639 -35.3638 -35.3638 -35.3637
   -35.3626 -35.3625 -35.3625 -35.3624 -35.3604 -35.3602 -35.3602 -35.3601
   -12.0088 -12.0046 -11.9940 -11.9689 -11.9683 -11.9672 -11.9628 -11.9430
   -11.9276 -11.9170 -11.9151 -11.9027 -11.8662 -11.8193 -11.8089 -11.8087
   -11.8052 -11.8009 -11.7992 -11.7979 -11.7933 -11.7891 -11.7890 -11.7852
   -11.7830 -11.7815 -11.7770 -11.7759 -11.7632 -11.7631 -11.7615 -11.7582
   -11.7577 -11.7572 -11.7558 -11.7526 -11.7506 -11.7478 -11.7475 -11.7462
   -11.7447 -11.7419 -11.7379 -11.7372 -11.7355 -11.7349 -11.7334 -11.7320
   -11.7305 -11.7294 -11.7274 -11.7234 -11.7232 -11.7205 -11.7205 -11.7198
   -11.7185 -11.7139 -11.7119 -11.7097 -11.7094 -11.7055 -11.7030 -11.6953
   -11.6941 -11.6932 -11.6890 -11.6886 -11.6858 -11.6847 -11.6844 -11.6839
   -11.6825 -11.6734 -11.6678 -11.6648 -11.6635 -11.6601 -11.6579 -11.6569
    -8.4904  -8.3190  -7.4773  -7.4771  -7.4385  -7.2870  -6.9324  -6.8966
    -6.7833  -6.7803  -6.7430  -6.7274  -6.7212  -6.1161  -6.0005  -2.0121
    -1.4693  -0.8628  -0.8533  -0.7048  -0.6664  -0.3196  -0.2632  -0.1266
     0.0800   0.0929   0.2175   0.2489   0.3652   0.4516   0.5789   0.7413
     0.7851   0.8121   1.2500   1.2797   1.4966   2.3214   2.9096   5.1628
     5.3103   5.4016   5.4586   5.5038   5.5207   5.5599   5.6366   5.6540
     5.7467   5.8477   5.9717   6.1420   6.1694   6.1703   6.2304   6.4182
     6.7121   6.7148   6.7495   6.7642   6.9255   6.9572   7.0666   7.1476
     7.3177   7.3976   7.4106   7.4393   7.5322   7.7253   7.7696   7.7836
     7.8851   8.1302   8.1425   8.1610   8.2171   8.3262   8.4478   8.5946
     8.5959   8.7441   8.8992   8.9554   8.9573   9.0316   9.1181   9.1778
     9.4350   9.5568   9.6133   9.7111   9.7883   9.8062   9.8509   9.9267
    10.0042  10.0505  10.1103  10.1128  10.2323  10.2866  10.3256  10.3772
    10.5913  10.6073  10.7340  10.7659  11.1496  12.1577  12.3340  12.5465
    12.6610  12.8984  13.3468  13.3864  13.5032  13.5220  13.7786  14.0957
    14.1031  14.2271  14.3094  14.3736  14.4876  14.6121  14.6540  14.7339
    14.8217  14.9319  14.9987  15.0019  15.1262  15.1626  15.2107  15.2680
    15.2938  15.4444  15.4972  15.5473  15.6027  15.6283  15.7837  15.9006
    15.9034  15.9645  16.1080  16.3035  16.3897  16.4770  16.4897  16.6409
    16.8608  17.0767  17.1358

          k = 0.1667 0.1667 0.1065 ( 29209 PWs)   bands (ev):

   -35.3834 -35.3834 -35.3833 -35.3832 -35.3821 -35.3820 -35.3820 -35.3819
   -35.3714 -35.3714 -35.3714 -35.3713 -35.3709 -35.3709 -35.3708 -35.3708
   -35.3704 -35.3703 -35.3703 -35.3702 -35.3692 -35.3692 -35.3691 -35.3691
   -35.3659 -35.3658 -35.3657 -35.3657 -35.3638 -35.3638 -35.3638 -35.3637
   -35.3625 -35.3625 -35.3625 -35.3624 -35.3603 -35.3602 -35.3602 -35.3601
   -12.0087 -12.0042 -11.9935 -11.9689 -11.9687 -11.9674 -11.9630 -11.9436
   -11.9283 -11.9165 -11.9142 -11.9034 -11.8667 -11.8184 -11.8083 -11.8082
   -11.8049 -11.8009 -11.7990 -11.7982 -11.7932 -11.7890 -11.7888 -11.7850
   -11.7839 -11.7822 -11.7771 -11.7759 -11.7649 -11.7643 -11.7617 -11.7585
   -11.7579 -11.7574 -11.7552 -11.7530 -11.7515 -11.7500 -11.7477 -11.7466
   -11.7452 -11.7394 -11.7369 -11.7361 -11.7350 -11.7345 -11.7323 -11.7312
   -11.7300 -11.7289 -11.7264 -11.7234 -11.7230 -11.7207 -11.7203 -11.7197
   -11.7183 -11.7136 -11.7118 -11.7095 -11.7094 -11.7053 -11.7035 -11.6954
   -11.6942 -11.6935 -11.6892 -11.6887 -11.6859 -11.6849 -11.6846 -11.6842
   -11.6827 -11.6734 -11.6681 -11.6649 -11.6636 -11.6602 -11.6579 -11.6569
    -8.4903  -8.3192  -7.4773  -7.4765  -7.4390  -7.2870  -6.9323  -6.8968
    -6.7833  -6.7801  -6.7432  -6.7270  -6.7217  -6.1161  -6.0005  -1.9848
    -1.5203  -0.8521  -0.8421  -0.7151  -0.6795  -0.3165  -0.2671  -0.1184
     0.0640   0.1483   0.2064   0.2928   0.3721   0.4420   0.5552   0.6537
     0.8163   0.9285   1.1874   1.2493   1.4656   2.3786   2.8867   5.1710
     5.3134   5.4011   5.4664   5.4719   5.5178   5.5637   5.6011   5.6290
     5.7088   5.9088   6.0283   6.0842   6.1826   6.2351   6.2762   6.4448
     6.6795   6.6910   6.7475   6.7538   6.8526   6.9271   7.0374   7.1946
     7.3024   7.4213   7.4646   7.4990   7.5372   7.6943   7.7798   7.7912
     7.8742   8.1293   8.1482   8.2195   8.2491   8.3511   8.4317   8.5910
     8.5982   8.6873   8.8251   8.8875   8.9574   8.9639   9.0350   9.1764
     9.4664   9.6149   9.7180   9.7205   9.7950   9.8038   9.8398   9.9450
     9.9897  10.0395  10.1173  10.1292  10.1828  10.2772  10.3091  10.3932
    10.6032  10.6187  10.7253  10.7579  11.1889  12.2406  12.3621  12.5207
    12.7077  12.9163  13.3185  13.4127  13.4375  13.6201  13.7585  14.0445
    14.1356  14.1599  14.2555  14.2718  14.2997  14.4703  14.5628  14.7148
    14.8434  14.8729  14.9489  15.1284  15.2481  15.2595  15.3190  15.3432
    15.3795  15.4569  15.5028  15.5578  15.5962  15.6210  15.7765  15.8881
    15.9313  16.0820  16.1431  16.2915  16.3751  16.4634  16.4917  16.5978
    16.8029  17.0558  17.1516

          k = 0.1667 0.1667 0.2129 ( 29191 PWs)   bands (ev):

   -35.3834 -35.3833 -35.3833 -35.3832 -35.3821 -35.3820 -35.3820 -35.3819
   -35.3714 -35.3713 -35.3713 -35.3712 -35.3709 -35.3708 -35.3708 -35.3708
   -35.3703 -35.3703 -35.3702 -35.3702 -35.3692 -35.3692 -35.3691 -35.3691
   -35.3659 -35.3657 -35.3657 -35.3656 -35.3638 -35.3638 -35.3637 -35.3637
   -35.3625 -35.3625 -35.3624 -35.3624 -35.3603 -35.3602 -35.3601 -35.3600
   -12.0087 -12.0032 -11.9925 -11.9702 -11.9685 -11.9671 -11.9634 -11.9448
   -11.9295 -11.9155 -11.9126 -11.9048 -11.8675 -11.8164 -11.8072 -11.8071
   -11.8047 -11.8007 -11.7992 -11.7982 -11.7929 -11.7888 -11.7885 -11.7870
   -11.7847 -11.7821 -11.7773 -11.7760 -11.7673 -11.7662 -11.7623 -11.7596
   -11.7590 -11.7579 -11.7545 -11.7542 -11.7536 -11.7518 -11.7479 -11.7469
   -11.7458 -11.7357 -11.7353 -11.7346 -11.7342 -11.7327 -11.7307 -11.7302
   -11.7296 -11.7273 -11.7246 -11.7232 -11.7222 -11.7208 -11.7199 -11.7194
   -11.7180 -11.7131 -11.7115 -11.7097 -11.7086 -11.7055 -11.7045 -11.6959
   -11.6942 -11.6939 -11.6897 -11.6891 -11.6860 -11.6854 -11.6850 -11.6846
   -11.6831 -11.6735 -11.6687 -11.6650 -11.6638 -11.6603 -11.6581 -11.6570
    -8.4899  -8.3196  -7.4771  -7.4755  -7.4401  -7.2872  -6.9319  -6.8971
    -6.7832  -6.7798  -6.7435  -6.7260  -6.7227  -6.1161  -6.0005  -1.9065
    -1.6422  -0.8268  -0.8102  -0.7393  -0.7151  -0.3074  -0.2778  -0.0968
     0.0377   0.1323   0.3366   0.3760   0.3897   0.4206   0.5316   0.5698
     0.8720   0.9714   1.1050   1.2156   1.3877   2.4971   2.8258   5.1969
     5.3179   5.3675   5.4104   5.4934   5.5016   5.5713   5.5832   5.6043
     5.6857   5.9299   5.9749   6.1598   6.2583   6.3479   6.3659   6.4812
     6.6037   6.6117   6.7256   6.7354   6.7810   6.8913   6.9684   7.2219
     7.2826   7.4694   7.5134   7.5422   7.6128   7.6874   7.7864   7.8520
     7.8915   8.1232   8.1553   8.2939   8.3304   8.4076   8.4285   8.5160
     8.5782   8.5947   8.6532   8.7363   8.8558   8.9498   9.0182   9.1755
     9.4644   9.6988   9.7397   9.7804   9.8081   9.8377   9.8854   9.9502
     9.9885  10.0321  10.0733  10.1650  10.1759  10.2552  10.2886  10.3719
    10.6248  10.6485  10.7054  10.7338  11.2670  12.3347  12.4610  12.5587
    12.8211  12.9532  13.2881  13.4152  13.4981  13.5689  13.7101  13.8192
    13.9264  14.1296  14.1438  14.2224  14.2418  14.3278  14.3458  14.7111
    14.8798  14.9805  15.0212  15.0320  15.2409  15.2905  15.3555  15.4191
    15.5094  15.5158  15.5574  15.5987  15.6707  15.7310  15.8400  15.9555
    16.0357  16.1594  16.2658  16.3186  16.3429  16.4204  16.5166  16.5197
    16.6290  16.9033  17.0783

          k = 0.1667 0.1667-0.3194 ( 29224 PWs)   bands (ev):

   -35.3834 -35.3834 -35.3833 -35.3833 -35.3821 -35.3820 -35.3820 -35.3819
   -35.3714 -35.3714 -35.3714 -35.3713 -35.3709 -35.3709 -35.3709 -35.3708
   -35.3704 -35.3703 -35.3703 -35.3702 -35.3692 -35.3692 -35.3692 -35.3691
   -35.3659 -35.3658 -35.3657 -35.3657 -35.3638 -35.3638 -35.3638 -35.3637
   -35.3626 -35.3625 -35.3625 -35.3624 -35.3603 -35.3602 -35.3602 -35.3601
   -12.0087 -12.0028 -11.9919 -11.9711 -11.9683 -11.9668 -11.9637 -11.9454
   -11.9301 -11.9148 -11.9118 -11.9056 -11.8680 -11.8151 -11.8067 -11.8065
   -11.8048 -11.8007 -11.7996 -11.7979 -11.7925 -11.7893 -11.7883 -11.7882
   -11.7845 -11.7820 -11.7774 -11.7761 -11.7684 -11.7670 -11.7624 -11.7600
   -11.7594 -11.7592 -11.7556 -11.7546 -11.7531 -11.7524 -11.7480 -11.7470
   -11.7462 -11.7350 -11.7345 -11.7342 -11.7323 -11.7319 -11.7305 -11.7297
   -11.7294 -11.7263 -11.7244 -11.7227 -11.7218 -11.7207 -11.7198 -11.7192
   -11.7179 -11.7129 -11.7117 -11.7098 -11.7077 -11.7064 -11.7047 -11.6963
   -11.6941 -11.6940 -11.6900 -11.6893 -11.6861 -11.6857 -11.6853 -11.6848
   -11.6833 -11.6736 -11.6691 -11.6651 -11.6640 -11.6604 -11.6582 -11.6571
    -8.4898  -8.3198  -7.4770  -7.4749  -7.4406  -7.2873  -6.9317  -6.8973
    -6.7831  -6.7797  -6.7437  -6.7251  -6.7238  -6.1161  -6.0005  -1.8059
    -1.7629  -0.8085  -0.7673  -0.7597  -0.7570  -0.2969  -0.2891  -0.0804
     0.0158   0.1271   0.3594   0.3917   0.3998   0.4934   0.5312   0.6011
     0.7617   0.9428   1.1873   1.1990   1.3147   2.5711   2.7767   5.2253
     5.3072   5.3199   5.4205   5.4717   5.5239   5.5589   5.5838   5.5959
     5.7041   5.8992   5.9361   6.2546   6.3469   6.3707   6.3972   6.4652
     6.5411   6.6043   6.7131   6.7195   6.7531   6.8887   6.9293   7.2046
     7.2881   7.4833   7.5392   7.5408   7.6070   7.7302   7.7927   7.8617
     8.0825   8.0836   8.1302   8.2249   8.3587   8.4490   8.5034   8.5139
     8.5350   8.5516   8.5655   8.5946   8.8372   8.9444   9.0185   9.1753
     9.4655   9.7235   9.7356   9.7359   9.8730   9.8789   9.9192   9.9345
     9.9672   9.9815  10.1316  10.1689  10.1955  10.2693  10.2793  10.3135
    10.6382  10.6722  10.7019  10.7022  11.3073  12.3242  12.4791  12.7364
    12.9421  12.9514  13.2894  13.2932  13.4305  13.5598  13.6838  13.8505
    13.8621  13.9221  14.0916  14.1139  14.2659  14.2886  14.5376  14.5859
    14.8612  14.8963  15.0601  15.1010  15.2251  15.3135  15.4512  15.4603
    15.5053  15.5156  15.6240  15.6337  15.6507  15.7273  15.7945  15.9670
    16.2615  16.2833  16.3097  16.3263  16.3710  16.4663  16.4831  16.5325
    16.5474  16.5745  17.0634

          k = 0.1667 0.3333 0.0000 ( 29163 PWs)   bands (ev):

   -35.3834 -35.3833 -35.3832 -35.3832 -35.3820 -35.3820 -35.3819 -35.3818
   -35.3714 -35.3714 -35.3713 -35.3712 -35.3709 -35.3708 -35.3708 -35.3707
   -35.3703 -35.3703 -35.3702 -35.3701 -35.3692 -35.3691 -35.3691 -35.3690
   -35.3659 -35.3658 -35.3657 -35.3655 -35.3638 -35.3638 -35.3637 -35.3636
   -35.3625 -35.3625 -35.3624 -35.3623 -35.3603 -35.3602 -35.3601 -35.3599
   -12.0029 -11.9983 -11.9846 -11.9788 -11.9710 -11.9604 -11.9582 -11.9395
   -11.9368 -11.9299 -11.9044 -11.8763 -11.8478 -11.8178 -11.8119 -11.8051
   -11.8021 -11.8011 -11.7948 -11.7938 -11.7919 -11.7910 -11.7861 -11.7833
   -11.7810 -11.7806 -11.7773 -11.7726 -11.7697 -11.7689 -11.7671 -11.7613
   -11.7593 -11.7567 -11.7543 -11.7524 -11.7512 -11.7503 -11.7485 -11.7466
   -11.7446 -11.7429 -11.7400 -11.7370 -11.7360 -11.7356 -11.7328 -11.7319
   -11.7307 -11.7289 -11.7273 -11.7262 -11.7248 -11.7238 -11.7226 -11.7203
   -11.7185 -11.7137 -11.7116 -11.7109 -11.7099 -11.7080 -11.7038 -11.7021
   -11.6965 -11.6938 -11.6929 -11.6924 -11.6913 -11.6863 -11.6854 -11.6844
   -11.6825 -11.6748 -11.6716 -11.6692 -11.6650 -11.6627 -11.6596 -11.6586
    -8.3439  -8.2042  -7.8158  -7.6612  -7.3867  -7.2789  -7.0904  -6.9828
    -6.7506  -6.7056  -6.6980  -6.5252  -6.4846  -6.1727  -6.0919  -1.8545
    -1.3505  -1.2498  -0.9145  -0.7586  -0.6161  -0.4299  -0.4055  -0.0383
     0.1170   0.1653   0.2812   0.3553   0.4320   0.4771   0.6194   0.6932
     0.7803   1.0814   1.1270   1.4057   1.7054   2.2481   2.5544   5.0911
     5.1919   5.2367   5.2726   5.3527   5.4062   5.4887   5.5049   5.6472
     5.7528   5.8031   6.0260   6.1358   6.2226   6.2386   6.3849   6.4195
     6.6577   6.7589   6.8266   6.9021   7.0055   7.1167   7.2597   7.3421
     7.4209   7.4459   7.4976   7.5385   7.6480   7.7096   7.7632   7.8768
     7.9202   8.0536   8.1240   8.2179   8.3097   8.4018   8.4370   8.5726
     8.7173   8.7303   8.8401   8.8802   9.0217   9.0656   9.1390   9.2557
     9.3102   9.4812   9.5872   9.6342   9.6537   9.7040   9.8046   9.8631
     9.8860   9.9405  10.0053  10.0304  10.0709  10.0947  10.1195  10.1729
    10.3886  10.5011  10.6444  10.7132  11.3932  12.4162  12.7578  12.8292
    12.9990  13.2148  13.2465  13.3584  13.5633  13.6596  13.8775  14.0289
    14.0998  14.2125  14.2498  14.3225  14.4606  14.5320  14.6006  14.6325
    14.6738  14.6909  14.7759  14.8622  14.9279  15.0433  15.0626  15.2382
    15.3450  15.3966  15.5366  15.6642  15.7592  15.8240  15.8715  15.9591
    15.9976  16.0281  16.0991  16.2319  16.2729  16.4749  16.6051  16.7335
    16.7879  16.8642  16.9896

          k = 0.1667 0.3333 0.1065 ( 29165 PWs)   bands (ev):

   -35.3834 -35.3833 -35.3833 -35.3832 -35.3820 -35.3820 -35.3819 -35.3818
   -35.3714 -35.3713 -35.3713 -35.3712 -35.3709 -35.3708 -35.3708 -35.3707
   -35.3703 -35.3703 -35.3702 -35.3702 -35.3692 -35.3691 -35.3691 -35.3690
   -35.3659 -35.3658 -35.3657 -35.3656 -35.3638 -35.3638 -35.3637 -35.3637
   -35.3625 -35.3625 -35.3624 -35.3624 -35.3603 -35.3602 -35.3601 -35.3600
   -12.0029 -11.9979 -11.9844 -11.9785 -11.9707 -11.9606 -11.9589 -11.9399
   -11.9374 -11.9293 -11.9050 -11.8760 -11.8485 -11.8171 -11.8111 -11.8048
   -11.8023 -11.8008 -11.7949 -11.7936 -11.7923 -11.7909 -11.7860 -11.7832
   -11.7811 -11.7808 -11.7778 -11.7731 -11.7704 -11.7693 -11.7671 -11.7621
   -11.7592 -11.7569 -11.7548 -11.7540 -11.7523 -11.7500 -11.7486 -11.7456
   -11.7439 -11.7425 -11.7400 -11.7369 -11.7353 -11.7346 -11.7324 -11.7315
   -11.7299 -11.7286 -11.7270 -11.7258 -11.7244 -11.7235 -11.7225 -11.7201
   -11.7186 -11.7137 -11.7116 -11.7108 -11.7099 -11.7078 -11.7036 -11.7022
   -11.6966 -11.6939 -11.6930 -11.6926 -11.6916 -11.6864 -11.6857 -11.6848
   -11.6827 -11.6749 -11.6718 -11.6694 -11.6652 -11.6629 -11.6597 -11.6586
    -8.3437  -8.2044  -7.8157  -7.6613  -7.3866  -7.2791  -7.0904  -6.9828
    -6.7506  -6.7055  -6.6982  -6.5251  -6.4847  -6.1727  -6.0919  -1.8287
    -1.3969  -1.2304  -0.9422  -0.7493  -0.6260  -0.4289  -0.4066  -0.0292
     0.1210   0.2155   0.2626   0.3521   0.4443   0.4907   0.5864   0.7257
     0.7998   1.0291   1.1161   1.4207   1.6867   2.2687   2.5408   5.0864
     5.2025   5.2372   5.2580   5.3106   5.3715   5.4962   5.5463   5.6547
     5.7913   5.8115   6.0301   6.1445   6.2200   6.2544   6.3735   6.4313
     6.6576   6.7770   6.7966   6.8837   6.9973   7.0847   7.2471   7.3251
     7.3823   7.4716   7.4987   7.5845   7.7042   7.7588   7.7840   7.8670
     7.9189   8.0500   8.1322   8.2046   8.2887   8.4113   8.4325   8.5696
     8.6869   8.7421   8.8111   8.8757   8.9419   9.0382   9.0769   9.1460
     9.4057   9.5306   9.5930   9.6330   9.6981   9.7364   9.8106   9.8705
     9.8938   9.9434   9.9986  10.0211  10.0694  10.1032  10.1412  10.1946
    10.3889  10.5014  10.6542  10.7179  11.4019  12.4615  12.7729  12.8663
    12.9604  13.1959  13.2623  13.3869  13.5659  13.6432  13.8513  13.9957
    14.0705  14.1714  14.2026  14.2720  14.3519  14.3779  14.4496  14.6091
    14.6900  14.7372  14.7947  14.8809  15.0011  15.0879  15.1894  15.3355
    15.3620  15.4911  15.5761  15.6428  15.7358  15.8523  15.8983  15.9537
    16.0182  16.0573  16.1141  16.2255  16.2863  16.4726  16.5761  16.7032
    16.7741  16.8534  16.9521

          k = 0.1667 0.3333 0.2129 ( 29179 PWs)   bands (ev):

   -35.3834 -35.3833 -35.3833 -35.3832 -35.3820 -35.3820 -35.3819 -35.3818
   -35.3714 -35.3714 -35.3713 -35.3712 -35.3709 -35.3709 -35.3708 -35.3708
   -35.3703 -35.3703 -35.3702 -35.3702 -35.3692 -35.3691 -35.3691 -35.3690
   -35.3658 -35.3657 -35.3657 -35.3656 -35.3638 -35.3638 -35.3638 -35.3637
   -35.3625 -35.3625 -35.3625 -35.3624 -35.3603 -35.3602 -35.3601 -35.3601
   -12.0028 -11.9972 -11.9839 -11.9779 -11.9700 -11.9612 -11.9601 -11.9407
   -11.9385 -11.9281 -11.9061 -11.8752 -11.8500 -11.8155 -11.8093 -11.8042
   -11.8030 -11.8001 -11.7951 -11.7934 -11.7930 -11.7904 -11.7861 -11.7832
   -11.7821 -11.7809 -11.7784 -11.7738 -11.7715 -11.7699 -11.7671 -11.7633
   -11.7612 -11.7571 -11.7552 -11.7548 -11.7540 -11.7512 -11.7487 -11.7448
   -11.7436 -11.7411 -11.7394 -11.7366 -11.7344 -11.7334 -11.7311 -11.7301
   -11.7287 -11.7277 -11.7261 -11.7248 -11.7237 -11.7230 -11.7222 -11.7199
   -11.7187 -11.7138 -11.7116 -11.7105 -11.7103 -11.7075 -11.7036 -11.7017
   -11.6967 -11.6942 -11.6932 -11.6930 -11.6922 -11.6867 -11.6863 -11.6855
   -11.6830 -11.6751 -11.6721 -11.6697 -11.6654 -11.6631 -11.6599 -11.6587
    -8.3433  -8.2048  -7.8154  -7.6616  -7.3864  -7.2793  -7.0902  -6.9830
    -6.7505  -6.7052  -6.6987  -6.5251  -6.4847  -6.1727  -6.0919  -1.7550
    -1.5079  -1.1779  -1.0110  -0.7252  -0.6510  -0.4276  -0.4081  -0.0045
     0.1101   0.2093   0.3252   0.3955   0.4647   0.5075   0.5778   0.7266
     0.8271   0.9331   1.0832   1.4687   1.6325   2.3168   2.5064   5.0764
     5.1926   5.2086   5.2634   5.3144   5.3331   5.4762   5.5279   5.7279
     5.7950   5.9130   6.0097   6.1326   6.2221   6.3240   6.3660   6.4701
     6.6524   6.7191   6.7808   6.8518   6.9475   7.0534   7.2260   7.2773
     7.3989   7.4851   7.5680   7.6688   7.7288   7.7798   7.8410   7.8815
     7.9423   8.0584   8.1140   8.1942   8.2744   8.4055   8.4548   8.5487
     8.6201   8.7132   8.7520   8.7968   8.8931   8.9756   8.9970   9.1152
     9.3774   9.5427   9.6303   9.7228   9.7685   9.8029   9.8255   9.8560
     9.8934   9.9587   9.9856  10.0181  10.0554  10.0762  10.2352  10.2622
    10.3796  10.4843  10.6711  10.7273  11.4179  12.5634  12.7878  12.8755
    13.0199  13.1802  13.2906  13.4412  13.5545  13.6231  13.7560  13.8631
    13.9168  14.0108  14.0784  14.1527  14.2419  14.3399  14.4158  14.6058
    14.6593  14.7238  14.7912  14.9176  15.1232  15.1991  15.3192  15.3700
    15.4412  15.5059  15.6150  15.7279  15.8357  15.8438  15.9383  15.9824
    16.0542  16.1400  16.1958  16.2268  16.3220  16.4639  16.5223  16.6259
    16.6799  16.8110  16.8602

          k = 0.1667 0.3333-0.3194 ( 29206 PWs)   bands (ev):

   -35.3835 -35.3834 -35.3833 -35.3832 -35.3820 -35.3820 -35.3820 -35.3819
   -35.3715 -35.3714 -35.3713 -35.3713 -35.3710 -35.3709 -35.3708 -35.3708
   -35.3704 -35.3703 -35.3703 -35.3702 -35.3692 -35.3692 -35.3691 -35.3691
   -35.3659 -35.3658 -35.3657 -35.3657 -35.3639 -35.3638 -35.3638 -35.3637
   -35.3626 -35.3625 -35.3625 -35.3624 -35.3603 -35.3602 -35.3602 -35.3601
   -12.0028 -11.9968 -11.9838 -11.9776 -11.9695 -11.9618 -11.9605 -11.9411
   -11.9389 -11.9275 -11.9068 -11.8748 -11.8508 -11.8145 -11.8084 -11.8039
   -11.8033 -11.7996 -11.7953 -11.7939 -11.7929 -11.7900 -11.7864 -11.7836
   -11.7824 -11.7809 -11.7785 -11.7739 -11.7720 -11.7702 -11.7670 -11.7636
   -11.7627 -11.7572 -11.7554 -11.7547 -11.7547 -11.7520 -11.7487 -11.7446
   -11.7434 -11.7407 -11.7390 -11.7364 -11.7337 -11.7332 -11.7301 -11.7294
   -11.7286 -11.7268 -11.7256 -11.7243 -11.7234 -11.7229 -11.7219 -11.7199
   -11.7186 -11.7139 -11.7116 -11.7108 -11.7103 -11.7073 -11.7039 -11.7012
   -11.6969 -11.6943 -11.6935 -11.6932 -11.6926 -11.6870 -11.6865 -11.6858
   -11.6832 -11.6752 -11.6723 -11.6699 -11.6655 -11.6632 -11.6600 -11.6587
    -8.3431  -8.2051  -7.8153  -7.6617  -7.3863  -7.2794  -7.0902  -6.9830
    -6.7504  -6.7050  -6.6989  -6.5250  -6.4848  -6.1727  -6.0919  -1.6629
    -1.6173  -1.1176  -1.0791  -0.7032  -0.6734  -0.4273  -0.4084   0.0156
     0.0919   0.2012   0.3144   0.4676   0.4850   0.5682   0.5819   0.7022
     0.7406   0.9537   1.0520   1.5244   1.5740   2.3485   2.4813   5.0713
     5.1693   5.2018   5.2749   5.3050   5.3713   5.4304   5.5094   5.7860
     5.7941   5.9170   6.0641   6.1251   6.1754   6.3362   6.3951   6.5505
     6.6503   6.6583   6.7283   6.8627   6.8929   7.0588   7.2096   7.2620
     7.4238   7.4882   7.6425   7.6915   7.7407   7.7691   7.8145   7.9049
     7.9837   8.0540   8.0924   8.2157   8.2862   8.4301   8.4488   8.5122
     8.5728   8.6400   8.7467   8.7698   8.8927   8.9389   8.9836   9.1095
     9.3636   9.5309   9.6359   9.7474   9.7987   9.8309   9.8377   9.8654
     9.9332   9.9498   9.9780  10.0174  10.0422  10.0554  10.2930  10.2984
    10.3903  10.4465  10.6783  10.7318  11.4249  12.6262  12.8115  12.8140
    13.1271  13.2390  13.3245  13.3930  13.5150  13.6154  13.7448  13.7616
    13.7866  13.9142  14.0149  14.1114  14.2150  14.3261  14.5408  14.5920
    14.6241  14.6629  14.8012  14.9175  15.1418  15.3063  15.3288  15.4318
    15.4460  15.5348  15.5971  15.7143  15.8221  15.8692  15.9573  16.0515
    16.1396  16.1992  16.2179  16.2735  16.3662  16.4696  16.5460  16.5676
    16.5849  16.6278  16.8507

          k = 0.1667-0.5000 0.0000 ( 29174 PWs)   bands (ev):

   -35.3835 -35.3833 -35.3833 -35.3833 -35.3821 -35.3819 -35.3819 -35.3818
   -35.3714 -35.3714 -35.3713 -35.3713 -35.3710 -35.3709 -35.3708 -35.3708
   -35.3703 -35.3703 -35.3702 -35.3702 -35.3692 -35.3691 -35.3691 -35.3690
   -35.3659 -35.3658 -35.3657 -35.3656 -35.3638 -35.3638 -35.3638 -35.3637
   -35.3625 -35.3625 -35.3624 -35.3624 -35.3603 -35.3602 -35.3601 -35.3600
   -11.9970 -11.9927 -11.9880 -11.9855 -11.9594 -11.9540 -11.9523 -11.9477
   -11.9450 -11.9341 -11.9078 -11.8410 -11.8320 -11.8284 -11.8168 -11.8138
   -11.8034 -11.7979 -11.7951 -11.7928 -11.7918 -11.7888 -11.7845 -11.7836
   -11.7821 -11.7815 -11.7793 -11.7704 -11.7684 -11.7671 -11.7661 -11.7603
   -11.7601 -11.7577 -11.7576 -11.7546 -11.7530 -11.7518 -11.7514 -11.7501
   -11.7455 -11.7408 -11.7404 -11.7388 -11.7360 -11.7336 -11.7328 -11.7295
   -11.7291 -11.7284 -11.7264 -11.7247 -11.7232 -11.7228 -11.7224 -11.7219
   -11.7202 -11.7175 -11.7146 -11.7128 -11.7125 -11.7105 -11.7024 -11.7015
   -11.7004 -11.6989 -11.6937 -11.6934 -11.6900 -11.6867 -11.6854 -11.6829
   -11.6817 -11.6810 -11.6746 -11.6706 -11.6663 -11.6621 -11.6600 -11.6597
    -8.1270  -8.1024  -8.0975  -7.8142  -7.2607  -7.2444  -7.2402  -7.0351
    -6.7195  -6.7119  -6.6948  -6.4142  -6.2528  -6.2518  -6.2272  -1.6064
    -1.5862  -1.2097  -1.0977  -0.6200  -0.5993  -0.5407  -0.4851   0.0495
     0.1035   0.2207   0.2342   0.3840   0.4254   0.5756   0.5881   0.8055
     0.8254   0.9544   1.0170   1.7292   2.0404   2.0628   2.1905   5.1204
     5.1218   5.1362   5.1758   5.2761   5.3304   5.4387   5.4625   5.6228
     5.6668   6.0522   6.0591   6.0955   6.1824   6.2948   6.3089   6.4927
     6.6201   6.8898   6.9032   7.0678   7.0779   7.1657   7.2353   7.3986
     7.4184   7.4464   7.5333   7.6182   7.6416   7.7357   7.7396   7.7471
     7.8398   8.0971   8.1223   8.3454   8.4022   8.4509   8.5605   8.5957
     8.6419   8.6552   8.7239   8.9998   9.0849   9.1237   9.2505   9.2893
     9.3333   9.3990   9.5947   9.6034   9.6376   9.6749   9.6981   9.7759
     9.7951   9.8655   9.8902   9.9166   9.9546   9.9757  10.1055  10.1646
    10.2719  10.3991  10.5991  10.6910  11.4735  12.6388  12.8165  13.0876
    13.1386  13.4757  13.4931  13.5687  13.6294  13.7377  13.7513  13.9232
    13.9426  14.0732  14.0737  14.2263  14.3253  14.3546  14.3918  14.5006
    14.5167  14.8097  14.8100  14.9404  14.9952  15.0683  15.0986  15.2274
    15.2892  15.4636  15.4697  15.5938  15.6307  15.6843  15.8838  15.9384
    16.1606  16.2160  16.2726  16.3430  16.3481  16.5025  16.5456  16.5553
    16.7357  16.7951  16.9531

          k = 0.1667-0.5000 0.1065 ( 29142 PWs)   bands (ev):

   -35.3834 -35.3833 -35.3832 -35.3832 -35.3820 -35.3819 -35.3818 -35.3818
   -35.3714 -35.3713 -35.3713 -35.3712 -35.3709 -35.3708 -35.3708 -35.3707
   -35.3703 -35.3703 -35.3702 -35.3701 -35.3691 -35.3691 -35.3690 -35.3690
   -35.3658 -35.3657 -35.3656 -35.3656 -35.3638 -35.3638 -35.3637 -35.3637
   -35.3625 -35.3625 -35.3624 -35.3623 -35.3602 -35.3602 -35.3601 -35.3600
   -11.9969 -11.9926 -11.9877 -11.9852 -11.9596 -11.9537 -11.9520 -11.9479
   -11.9452 -11.9347 -11.9083 -11.8404 -11.8319 -11.8297 -11.8163 -11.8125
   -11.8032 -11.7977 -11.7949 -11.7927 -11.7925 -11.7891 -11.7845 -11.7843
   -11.7816 -11.7807 -11.7792 -11.7717 -11.7689 -11.7671 -11.7665 -11.7614
   -11.7614 -11.7583 -11.7579 -11.7532 -11.7528 -11.7522 -11.7502 -11.7490
   -11.7457 -11.7413 -11.7403 -11.7392 -11.7357 -11.7325 -11.7324 -11.7296
   -11.7294 -11.7275 -11.7261 -11.7242 -11.7228 -11.7226 -11.7218 -11.7218
   -11.7194 -11.7173 -11.7147 -11.7131 -11.7123 -11.7106 -11.7021 -11.7012
   -11.7008 -11.6992 -11.6937 -11.6936 -11.6901 -11.6869 -11.6858 -11.6832
   -11.6818 -11.6811 -11.6747 -11.6707 -11.6665 -11.6623 -11.6601 -11.6598
    -8.1259  -8.1023  -8.0985  -7.8143  -7.2599  -7.2443  -7.2410  -7.0351
    -6.7193  -6.7119  -6.6950  -6.4142  -6.2528  -6.2518  -6.2272  -1.5856
    -1.5611  -1.2416  -1.1431  -0.6167  -0.5915  -0.5446  -0.4924   0.0549
     0.1132   0.2394   0.2661   0.3769   0.3929   0.6048   0.6326   0.7810
     0.8182   0.9390   1.0018   1.7281   2.0417   2.0616   2.1827   5.0978
     5.1098   5.1611   5.1625   5.2635   5.2676   5.4864   5.5018   5.6499
     5.6881   6.0464   6.0583   6.0849   6.1727   6.2894   6.3085   6.5160
     6.6325   6.8764   6.9098   7.0740   7.0801   7.1733   7.2451   7.3713
     7.3781   7.4451   7.4590   7.5724   7.6535   7.7356   7.7880   7.8349
     7.8963   8.0936   8.1414   8.3342   8.4009   8.4031   8.5446   8.6069
     8.6379   8.6630   8.7073   8.9627   9.0669   9.0796   9.2196   9.2534
     9.3279   9.3817   9.5664   9.5930   9.6373   9.7149   9.7467   9.7961
     9.8268   9.8745   9.9033   9.9527   9.9666  10.0178  10.0874  10.1116
    10.3368  10.4486  10.5914  10.6901  11.4645  12.6327  12.8327  13.0739
    13.1488  13.4967  13.5172  13.5589  13.6434  13.7263  13.7420  13.7762
    13.8952  14.0682  14.1045  14.1440  14.2617  14.3573  14.4055  14.4922
    14.5053  14.7056  14.7995  14.9219  14.9707  15.0915  15.1866  15.3048
    15.3788  15.4832  15.5357  15.5959  15.6198  15.7257  15.8848  15.9602
    16.1700  16.2163  16.2966  16.3561  16.3688  16.4997  16.5380  16.5484
    16.7105  16.7593  16.9042

          k = 0.1667-0.5000 0.2129 ( 29174 PWs)   bands (ev):

   -35.3834 -35.3833 -35.3833 -35.3832 -35.3820 -35.3819 -35.3819 -35.3818
   -35.3715 -35.3714 -35.3713 -35.3713 -35.3710 -35.3709 -35.3708 -35.3707
   -35.3704 -35.3703 -35.3702 -35.3702 -35.3692 -35.3691 -35.3691 -35.3690
   -35.3658 -35.3657 -35.3657 -35.3656 -35.3639 -35.3638 -35.3638 -35.3637
   -35.3626 -35.3625 -35.3624 -35.3624 -35.3602 -35.3602 -35.3601 -35.3601
   -11.9968 -11.9925 -11.9871 -11.9847 -11.9601 -11.9530 -11.9515 -11.9481
   -11.9457 -11.9360 -11.9095 -11.8389 -11.8328 -11.8316 -11.8152 -11.8101
   -11.8029 -11.7974 -11.7944 -11.7939 -11.7925 -11.7893 -11.7856 -11.7845
   -11.7811 -11.7796 -11.7791 -11.7741 -11.7701 -11.7672 -11.7668 -11.7636
   -11.7627 -11.7592 -11.7583 -11.7531 -11.7519 -11.7511 -11.7501 -11.7473
   -11.7460 -11.7415 -11.7402 -11.7398 -11.7352 -11.7325 -11.7307 -11.7296
   -11.7289 -11.7268 -11.7259 -11.7229 -11.7227 -11.7213 -11.7212 -11.7206
   -11.7179 -11.7169 -11.7151 -11.7140 -11.7120 -11.7109 -11.7016 -11.7015
   -11.7006 -11.6997 -11.6940 -11.6938 -11.6903 -11.6873 -11.6866 -11.6841
   -11.6821 -11.6814 -11.6748 -11.6710 -11.6669 -11.6625 -11.6604 -11.6599
    -8.1236  -8.1022  -8.1010  -7.8145  -7.2582  -7.2442  -7.2427  -7.0352
    -6.7190  -6.7119  -6.6954  -6.4142  -6.2528  -6.2518  -6.2272  -1.5283
    -1.4889  -1.3204  -1.2526  -0.6109  -0.5705  -0.5511  -0.5126   0.0704
     0.1397   0.2228   0.2763   0.4104   0.4487   0.6252   0.6756   0.7527
     0.8044   0.9033   0.9613   1.7259   2.0451   2.0592   2.1664   5.0623
     5.0720   5.1490   5.1973   5.2352   5.2683   5.4466   5.5126   5.7723
     5.7864   6.0234   6.0551   6.0576   6.1358   6.2776   6.3061   6.5843
     6.6604   6.8135   6.9186   7.0856   7.0907   7.1789   7.2508   7.3271
     7.3293   7.4043   7.4268   7.5475   7.6050   7.7577   7.8490   8.0006
     8.0041   8.1011   8.1579   8.2696   8.3302   8.4024   8.5068   8.6188
     8.6385   8.6753   8.6827   8.7998   9.0440   9.0555   9.1610   9.1780
     9.3306   9.4013   9.5046   9.5401   9.6392   9.7989   9.8302   9.8729
     9.8874   9.9256   9.9270   9.9493  10.0167  10.0205  10.0473  10.0963
    10.4319  10.5374  10.5659  10.6833  11.4471  12.6284  12.8692  13.0490
    13.1966  13.4781  13.5220  13.5953  13.6120  13.6938  13.7062  13.7564
    13.7926  13.9623  13.9890  14.0917  14.1186  14.3303  14.4235  14.4802
    14.5046  14.6924  14.7295  14.8778  15.0551  15.1536  15.2244  15.3533
    15.3713  15.5709  15.5951  15.6890  15.7079  15.8259  15.8898  15.9973
    16.1951  16.2075  16.3014  16.4459  16.4607  16.4985  16.5252  16.5358
    16.6415  16.6650  16.7765

          k = 0.1667-0.5000-0.3194 ( 29164 PWs)   bands (ev):

   -35.3834 -35.3833 -35.3832 -35.3832 -35.3820 -35.3819 -35.3819 -35.3818
   -35.3714 -35.3714 -35.3713 -35.3712 -35.3709 -35.3708 -35.3708 -35.3707
   -35.3703 -35.3703 -35.3703 -35.3702 -35.3691 -35.3691 -35.3691 -35.3690
   -35.3658 -35.3657 -35.3657 -35.3656 -35.3638 -35.3638 -35.3638 -35.3637
   -35.3625 -35.3625 -35.3624 -35.3624 -35.3602 -35.3602 -35.3601 -35.3601
   -11.9967 -11.9924 -11.9869 -11.9844 -11.9603 -11.9527 -11.9514 -11.9481
   -11.9460 -11.9367 -11.9101 -11.8371 -11.8351 -11.8314 -11.8146 -11.8088
   -11.8027 -11.7976 -11.7944 -11.7941 -11.7926 -11.7894 -11.7862 -11.7844
   -11.7810 -11.7793 -11.7790 -11.7751 -11.7708 -11.7671 -11.7668 -11.7646
   -11.7631 -11.7596 -11.7584 -11.7533 -11.7516 -11.7510 -11.7497 -11.7470
   -11.7461 -11.7413 -11.7402 -11.7401 -11.7349 -11.7326 -11.7304 -11.7293
   -11.7279 -11.7265 -11.7260 -11.7229 -11.7217 -11.7211 -11.7206 -11.7196
   -11.7174 -11.7164 -11.7152 -11.7150 -11.7120 -11.7110 -11.7019 -11.7012
   -11.7004 -11.6997 -11.6941 -11.6938 -11.6904 -11.6875 -11.6870 -11.6845
   -11.6823 -11.6816 -11.6749 -11.6712 -11.6671 -11.6626 -11.6605 -11.6599
    -8.1222  -8.1024  -8.1021  -7.8146  -7.2572  -7.2442  -7.2437  -7.0353
    -6.7188  -6.7119  -6.6956  -6.4142  -6.2528  -6.2518  -6.2272  -1.4710
    -1.3880  -1.3848  -1.3741  -0.6084  -0.5538  -0.5464  -0.5362   0.0817
     0.1645   0.2056   0.2363   0.4963   0.5146   0.6004   0.6211   0.7924
     0.8011   0.8812   0.9288   1.7249   2.0472   2.0579   2.1579   5.0464
     5.0539   5.1422   5.1799   5.2817   5.2893   5.3870   5.4990   5.8555
     5.8825   5.9692   6.0447   6.0585   6.0972   6.2711   6.3036   6.6665
     6.6770   6.7262   6.9172   7.0910   7.1037   7.1718   7.2356   7.3122
     7.3181   7.4107   7.4321   7.5385   7.5643   7.7733   7.8614   8.0666
     8.1301   8.1400   8.1609   8.1784   8.2725   8.3975   8.4931   8.6306
     8.6363   8.6771   8.6790   8.6979   9.0345   9.0438   9.1360   9.1380
     9.3354   9.4557   9.4809   9.4814   9.6476   9.8183   9.8497   9.9058
     9.9195   9.9428   9.9725   9.9804  10.0027  10.0268  10.0513  10.0634
    10.4968  10.5285  10.5839  10.6734  11.4387  12.6310  12.8897  13.0376
    13.3046  13.3323  13.4421  13.6857  13.7025  13.7108  13.7380  13.7516
    13.7526  13.8564  13.8609  13.9389  14.1557  14.3098  14.4276  14.4776
    14.5102  14.7006  14.7242  14.8497  15.1111  15.2131  15.2139  15.3043
    15.3689  15.5898  15.6048  15.7523  15.7950  15.8947  15.8990  15.9995
    16.2101  16.2182  16.2935  16.5023  16.5158  16.5297  16.5685  16.5793
    16.6054  16.6219  16.6318

          k = 0.3333 0.3333 0.0000 ( 29195 PWs)   bands (ev):

   -35.3834 -35.3834 -35.3833 -35.3832 -35.3820 -35.3820 -35.3819 -35.3818
   -35.3715 -35.3714 -35.3714 -35.3713 -35.3709 -35.3709 -35.3708 -35.3707
   -35.3704 -35.3703 -35.3703 -35.3702 -35.3692 -35.3692 -35.3691 -35.3690
   -35.3659 -35.3658 -35.3657 -35.3656 -35.3639 -35.3638 -35.3638 -35.3637
   -35.3625 -35.3625 -35.3625 -35.3624 -35.3604 -35.3602 -35.3602 -35.3600
   -11.9994 -11.9973 -11.9867 -11.9863 -11.9603 -11.9561 -11.9495 -11.9437
   -11.9300 -11.8968 -11.8957 -11.8828 -11.8467 -11.8202 -11.8147 -11.8072
   -11.8063 -11.8003 -11.7955 -11.7916 -11.7914 -11.7895 -11.7860 -11.7843
   -11.7834 -11.7787 -11.7785 -11.7747 -11.7674 -11.7661 -11.7641 -11.7641
   -11.7583 -11.7581 -11.7555 -11.7532 -11.7498 -11.7487 -11.7473 -11.7465
   -11.7463 -11.7415 -11.7410 -11.7406 -11.7382 -11.7371 -11.7348 -11.7324
   -11.7315 -11.7311 -11.7291 -11.7275 -11.7254 -11.7250 -11.7217 -11.7217
   -11.7206 -11.7141 -11.7137 -11.7112 -11.7081 -11.7059 -11.7049 -11.7016
   -11.7011 -11.6974 -11.6944 -11.6940 -11.6924 -11.6899 -11.6868 -11.6862
   -11.6840 -11.6778 -11.6729 -11.6700 -11.6687 -11.6684 -11.6617 -11.6606
    -8.2049  -8.0882  -7.7059  -7.7056  -7.6616  -7.4929  -7.3192  -7.0790
    -6.5797  -6.5313  -6.4914  -6.4880  -6.4583  -6.2157  -6.1630  -1.7041
    -1.2389  -1.1348  -1.1254  -0.8534  -0.8019  -0.6960  -0.5437   0.0847
     0.1706   0.2778   0.3027   0.3606   0.3700   0.5068   0.7289   0.8896
     0.9176   1.1515   1.3084   1.4429   1.7017   2.1292   2.2731   5.0092
     5.0370   5.0445   5.0520   5.2019   5.3501   5.4200   5.4579   5.9083
     5.9097   6.0153   6.0909   6.1882   6.3566   6.4303   6.5733   6.6530
     6.7102   6.7434   6.8411   6.8731   6.9490   7.1001   7.1827   7.2575
     7.2794   7.2829   7.3044   7.3475   7.4100   7.4958   7.6466   7.7553
     7.9688   7.9909   8.1158   8.5251   8.5596   8.5609   8.6501   8.7704
     8.7715   8.8735   8.9569   9.0118   9.0567   9.0686   9.1906   9.3969
     9.3971   9.4552   9.4790   9.4847   9.4914   9.5322   9.5518   9.5837
     9.6486   9.8321   9.9909  10.0373  10.1279  10.1530  10.2040  10.4518
    10.4682  10.5994  10.6900  10.6904  11.2269  12.5057  12.5408  12.7814
    12.9944  13.1007  13.3457  13.5217  13.5992  13.8594  13.8895  14.0244
    14.0371  14.0930  14.1928  14.2947  14.3855  14.4494  14.5674  14.5737
    14.6422  14.6733  14.8427  14.8482  14.9095  14.9380  15.0342  15.1664
    15.4015  15.4900  15.5603  15.7053  15.8249  15.8537  16.0395  16.0512
    16.1673  16.1774  16.2391  16.2625  16.3516  16.3561  16.5229  16.5262
    16.5712  16.5910  16.9813

          k = 0.3333 0.3333 0.1065 ( 29175 PWs)   bands (ev):

   -35.3834 -35.3833 -35.3833 -35.3832 -35.3821 -35.3820 -35.3819 -35.3818
   -35.3714 -35.3714 -35.3713 -35.3713 -35.3709 -35.3709 -35.3708 -35.3707
   -35.3703 -35.3703 -35.3702 -35.3702 -35.3692 -35.3691 -35.3691 -35.3690
   -35.3658 -35.3657 -35.3657 -35.3656 -35.3638 -35.3638 -35.3637 -35.3637
   -35.3625 -35.3625 -35.3625 -35.3624 -35.3603 -35.3602 -35.3601 -35.3600
   -11.9994 -11.9971 -11.9866 -11.9862 -11.9605 -11.9561 -11.9494 -11.9439
   -11.9304 -11.8963 -11.8953 -11.8838 -11.8474 -11.8199 -11.8142 -11.8064
   -11.8056 -11.8001 -11.7951 -11.7940 -11.7906 -11.7897 -11.7852 -11.7841
   -11.7833 -11.7794 -11.7787 -11.7759 -11.7676 -11.7660 -11.7641 -11.7640
   -11.7590 -11.7580 -11.7554 -11.7535 -11.7514 -11.7500 -11.7488 -11.7462
   -11.7442 -11.7413 -11.7406 -11.7399 -11.7375 -11.7368 -11.7346 -11.7324
   -11.7314 -11.7301 -11.7282 -11.7268 -11.7252 -11.7241 -11.7220 -11.7212
   -11.7206 -11.7141 -11.7136 -11.7116 -11.7081 -11.7059 -11.7049 -11.7017
   -11.7007 -11.6974 -11.6946 -11.6940 -11.6926 -11.6900 -11.6872 -11.6865
   -11.6842 -11.6779 -11.6731 -11.6702 -11.6688 -11.6685 -11.6619 -11.6607
    -8.2046  -8.0884  -7.7055  -7.7053  -7.6622  -7.4930  -7.3192  -7.0791
    -6.5797  -6.5313  -6.4914  -6.4879  -6.4583  -6.2157  -6.1631  -1.6799
    -1.2809  -1.1174  -1.1075  -0.8761  -0.8284  -0.6861  -0.5549   0.0898
     0.2185   0.2627   0.3124   0.3604   0.3774   0.5056   0.7482   0.8630
     0.9043   1.1555   1.3298   1.4380   1.6806   2.1352   2.2655   5.0210
     5.0311   5.0546   5.0737   5.1875   5.3290   5.4014   5.4380   5.9217
     5.9717   6.0509   6.0951   6.2041   6.3485   6.3825   6.5549   6.6247
     6.7118   6.7563   6.8374   6.8743   6.9391   7.0406   7.0688   7.1020
     7.2447   7.3075   7.3592   7.4412   7.5070   7.5780   7.6963   7.8438
     7.9316   8.0040   8.1644   8.5061   8.5230   8.5602   8.6495   8.7712
     8.7739   8.8376   8.9305   8.9531   9.0570   9.0642   9.1418   9.3551
     9.3918   9.4324   9.4699   9.5004   9.5441   9.5542   9.5627   9.6309
     9.6753   9.8403   9.9554  10.0185  10.0647  10.1732  10.2575  10.4643
    10.4801  10.5939  10.6783  10.6859  11.2571  12.5574  12.6281  12.8102
    12.9188  13.1814  13.3259  13.5211  13.6213  13.7807  13.8532  13.8987
    14.0169  14.1282  14.1996  14.3018  14.3575  14.3826  14.4466  14.5472
    14.5863  14.6067  14.7624  14.9212  14.9522  14.9996  15.1108  15.1501
    15.4010  15.5461  15.6079  15.7651  15.8178  15.9044  16.0200  16.1296
    16.1612  16.2230  16.2361  16.2734  16.3159  16.3808  16.5057  16.5141
    16.5473  16.5800  16.9238

          k = 0.3333 0.3333 0.2129 ( 29182 PWs)   bands (ev):

   -35.3834 -35.3833 -35.3833 -35.3832 -35.3820 -35.3819 -35.3819 -35.3818
   -35.3714 -35.3714 -35.3713 -35.3713 -35.3709 -35.3709 -35.3708 -35.3708
   -35.3703 -35.3703 -35.3702 -35.3702 -35.3691 -35.3691 -35.3691 -35.3690
   -35.3659 -35.3658 -35.3657 -35.3656 -35.3638 -35.3638 -35.3638 -35.3637
   -35.3625 -35.3625 -35.3625 -35.3624 -35.3603 -35.3602 -35.3602 -35.3601
   -11.9992 -11.9965 -11.9863 -11.9859 -11.9610 -11.9562 -11.9490 -11.9444
   -11.9315 -11.8949 -11.8945 -11.8861 -11.8490 -11.8193 -11.8132 -11.8049
   -11.8042 -11.7999 -11.7957 -11.7944 -11.7926 -11.7892 -11.7843 -11.7839
   -11.7830 -11.7815 -11.7790 -11.7775 -11.7678 -11.7663 -11.7639 -11.7637
   -11.7598 -11.7579 -11.7562 -11.7542 -11.7535 -11.7511 -11.7501 -11.7458
   -11.7428 -11.7414 -11.7404 -11.7392 -11.7358 -11.7348 -11.7342 -11.7329
   -11.7307 -11.7280 -11.7270 -11.7253 -11.7241 -11.7230 -11.7221 -11.7209
   -11.7204 -11.7139 -11.7132 -11.7123 -11.7085 -11.7058 -11.7049 -11.7015
   -11.6999 -11.6975 -11.6950 -11.6942 -11.6928 -11.6902 -11.6883 -11.6872
   -11.6846 -11.6782 -11.6735 -11.6704 -11.6690 -11.6687 -11.6623 -11.6608
    -8.2042  -8.0889  -7.7054  -7.7042  -7.6634  -7.4931  -7.3192  -7.0792
    -6.5796  -6.5313  -6.4915  -6.4878  -6.4585  -6.2157  -6.1631  -1.6110
    -1.3813  -1.0732  -1.0580  -0.9291  -0.8965  -0.6610  -0.5830   0.1021
     0.2325   0.2870   0.3527   0.3683   0.4080   0.5052   0.7525   0.8112
     0.8843   1.1650   1.3838   1.4266   1.6276   2.1501   2.2475   5.0061
     5.0681   5.0929   5.1138   5.1564   5.2821   5.3577   5.3894   5.9755
     6.0778   6.1188   6.1535   6.2339   6.2887   6.3585   6.4761   6.5528
     6.6927   6.7735   6.8118   6.8403   6.8819   6.9400   6.9452   7.0718
     7.2121   7.3178   7.4583   7.5313   7.5485   7.6628   7.7859   7.9446
     8.0385   8.0930   8.2289   8.4327   8.4502   8.5376   8.6506   8.7048
     8.7419   8.7709   8.8470   8.9362   9.0163   9.0850   9.1032   9.3168
     9.3463   9.4097   9.4498   9.5146   9.5320   9.6061   9.6376   9.6743
     9.8233   9.8439   9.9013   9.9370  10.0107  10.1303  10.3711  10.4970
    10.5098  10.5742  10.6589  10.6637  11.3128  12.6190  12.7605  12.9268
    12.9936  13.2577  13.3488  13.4441  13.5205  13.7102  13.7678  13.7758
    13.8470  14.0845  14.1239  14.1935  14.2629  14.3548  14.4346  14.5444
    14.6017  14.6145  14.6995  14.8203  14.9677  15.0612  15.1314  15.2428
    15.4529  15.5265  15.7015  15.8410  15.9108  15.9942  16.0480  16.1397
    16.2227  16.2281  16.2869  16.3244  16.3385  16.4439  16.4452  16.4523
    16.5413  16.5713  16.7563

          k = 0.3333 0.3333-0.3194 ( 29178 PWs)   bands (ev):

   -35.3834 -35.3833 -35.3833 -35.3832 -35.3820 -35.3819 -35.3819 -35.3818
   -35.3714 -35.3714 -35.3713 -35.3713 -35.3709 -35.3709 -35.3708 -35.3708
   -35.3703 -35.3703 -35.3702 -35.3702 -35.3691 -35.3691 -35.3691 -35.3690
   -35.3658 -35.3658 -35.3657 -35.3656 -35.3638 -35.3638 -35.3638 -35.3637
   -35.3625 -35.3625 -35.3624 -35.3623 -35.3602 -35.3602 -35.3601 -35.3601
   -11.9991 -11.9963 -11.9861 -11.9858 -11.9612 -11.9563 -11.9488 -11.9446
   -11.9321 -11.8943 -11.8936 -11.8876 -11.8497 -11.8190 -11.8127 -11.8041
   -11.8033 -11.7998 -11.7961 -11.7940 -11.7940 -11.7891 -11.7843 -11.7839
   -11.7827 -11.7826 -11.7789 -11.7783 -11.7679 -11.7666 -11.7637 -11.7635
   -11.7601 -11.7574 -11.7572 -11.7546 -11.7545 -11.7513 -11.7504 -11.7457
   -11.7424 -11.7418 -11.7398 -11.7394 -11.7355 -11.7341 -11.7331 -11.7330
   -11.7304 -11.7272 -11.7266 -11.7244 -11.7236 -11.7225 -11.7222 -11.7208
   -11.7204 -11.7137 -11.7130 -11.7127 -11.7090 -11.7058 -11.7048 -11.7014
   -11.6995 -11.6976 -11.6952 -11.6944 -11.6929 -11.6904 -11.6890 -11.6876
   -11.6849 -11.6783 -11.6737 -11.6705 -11.6691 -11.6688 -11.6625 -11.6608
    -8.2040  -8.0892  -7.7053  -7.7035  -7.6640  -7.4931  -7.3192  -7.0792
    -6.5796  -6.5314  -6.4915  -6.4877  -6.4585  -6.2157  -6.1631  -1.5275
    -1.4794  -1.0350  -0.9896  -0.9747  -0.9705  -0.6373  -0.6082   0.1101
     0.2187   0.2914   0.3721   0.3732   0.4779   0.5116   0.6765   0.8440
     0.8571   1.1705   1.4199   1.4230   1.5890   2.1603   2.2358   4.9979
     5.1129   5.1171   5.1257   5.1367   5.2537   5.3340   5.3552   6.0260
     6.0950   6.1543   6.1740   6.2996   6.3142   6.3533   6.3967   6.5435
     6.5618   6.7209   6.8364   6.8548   6.8587   6.8930   6.9380   7.0643
     7.2126   7.3172   7.4893   7.5483   7.6052   7.6932   7.7431   8.0452
     8.1381   8.2124   8.3060   8.3221   8.4161   8.4572   8.6096   8.6567
     8.6783   8.7708   8.8870   8.9048   8.9757   9.0795   9.1935   9.2271
     9.3090   9.4302   9.4582   9.4831   9.5636   9.5733   9.7228   9.7362
     9.7851   9.8204   9.9134   9.9681  10.0211  10.0379  10.4246  10.5224
    10.5414  10.5461  10.6443  10.6471  11.3389  12.5919  12.8739  13.0134
    13.2156  13.2203  13.3258  13.4314  13.4961  13.5823  13.5872  13.6923
    13.8196  14.0700  14.0938  14.1379  14.2681  14.2986  14.4987  14.5254
    14.6497  14.6551  14.6652  14.7318  14.9819  15.0305  15.1649  15.2975
    15.3895  15.5706  15.7769  15.8981  15.9062  16.0073  16.0678  16.1412
    16.1863  16.2869  16.3448  16.3469  16.3893  16.4052  16.4891  16.5191
    16.5493  16.5553  16.6668

          k = 0.3333-0.5000 0.0000 ( 29156 PWs)   bands (ev):

   -35.3834 -35.3834 -35.3833 -35.3832 -35.3820 -35.3819 -35.3818 -35.3818
   -35.3714 -35.3714 -35.3713 -35.3713 -35.3709 -35.3708 -35.3708 -35.3708
   -35.3703 -35.3703 -35.3702 -35.3701 -35.3691 -35.3691 -35.3690 -35.3690
   -35.3658 -35.3658 -35.3657 -35.3656 -35.3638 -35.3638 -35.3638 -35.3637
   -35.3625 -35.3625 -35.3624 -35.3624 -35.3603 -35.3602 -35.3601 -35.3600
   -11.9969 -11.9927 -11.9923 -11.9892 -11.9601 -11.9498 -11.9492 -11.9294
   -11.9230 -11.9175 -11.8784 -11.8585 -11.8548 -11.8361 -11.8126 -11.8096
   -11.8091 -11.8032 -11.7973 -11.7963 -11.7899 -11.7880 -11.7815 -11.7807
   -11.7783 -11.7765 -11.7743 -11.7741 -11.7708 -11.7690 -11.7657 -11.7637
   -11.7568 -11.7555 -11.7555 -11.7548 -11.7532 -11.7499 -11.7481 -11.7475
   -11.7468 -11.7420 -11.7419 -11.7397 -11.7389 -11.7380 -11.7339 -11.7328
   -11.7316 -11.7290 -11.7288 -11.7276 -11.7257 -11.7242 -11.7229 -11.7203
   -11.7199 -11.7179 -11.7154 -11.7122 -11.7103 -11.7083 -11.7038 -11.7033
   -11.7004 -11.6972 -11.6964 -11.6954 -11.6936 -11.6908 -11.6865 -11.6841
   -11.6829 -11.6821 -11.6768 -11.6713 -11.6711 -11.6682 -11.6622 -11.6618
    -7.9995  -7.9757  -7.9715  -7.7696  -7.5441  -7.5248  -7.5180  -7.1297
    -6.5170  -6.5128  -6.4953  -6.3672  -6.2931  -6.2930  -6.2694  -1.4673
    -1.4498  -1.1112  -0.9971  -0.9480  -0.9325  -0.7273  -0.6597   0.1995
     0.2243   0.2384   0.2485   0.3266   0.3811   0.6588   0.6786   0.8403
     1.0572   1.1576   1.3728   1.7396   1.8404   1.8765   2.0172   4.9376
     4.9625   4.9850   4.9871   5.1945   5.2548   5.4167   5.4269   5.9001
     5.9315   6.2798   6.3624   6.3954   6.4093   6.4780   6.5237   6.5610
     6.6508   6.6947   6.7778   6.9300   6.9668   7.0400   7.0545   7.0908
     7.2470   7.3733   7.3995   7.4149   7.4176   7.4558   7.4758   7.4970
     7.8987   8.0038   8.1106   8.6902   8.7428   8.7540   8.8055   8.8568
     8.8588   8.8815   8.8961   8.9522   8.9676   9.0431   9.1580   9.2273
     9.2601   9.3185   9.3252   9.3989   9.4829   9.5662   9.5677   9.5847
    10.0055  10.0122  10.0811  10.1195  10.2006  10.2098  10.2431  10.2570
    10.3341  10.5828  10.5973  10.6958  11.1874  12.5120  12.5530  12.7561
    12.9292  13.0468  13.1278  13.6352  13.7201  13.7629  13.9637  14.0662
    14.0778  14.1955  14.2492  14.2732  14.4202  14.4272  14.4274  14.5338
    14.6041  14.6334  14.7321  14.7920  14.8756  14.9219  15.2232  15.2320
    15.2818  15.6048  15.6599  15.7103  15.7893  16.0386  16.0775  16.1104
    16.1886  16.2100  16.2234  16.2562  16.2720  16.3139  16.3212  16.3414
    16.6819  16.7649  16.9808

          k = 0.3333-0.5000 0.1065 ( 29140 PWs)   bands (ev):

   -35.3834 -35.3833 -35.3832 -35.3831 -35.3819 -35.3819 -35.3818 -35.3818
   -35.3714 -35.3713 -35.3713 -35.3712 -35.3709 -35.3708 -35.3708 -35.3707
   -35.3703 -35.3702 -35.3702 -35.3701 -35.3691 -35.3691 -35.3690 -35.3690
   -35.3658 -35.3657 -35.3656 -35.3655 -35.3638 -35.3638 -35.3637 -35.3637
   -35.3625 -35.3624 -35.3624 -35.3623 -35.3602 -35.3601 -35.3601 -35.3600
   -11.9968 -11.9926 -11.9922 -11.9891 -11.9603 -11.9500 -11.9494 -11.9289
   -11.9225 -11.9181 -11.8792 -11.8582 -11.8545 -11.8373 -11.8140 -11.8084
   -11.8081 -11.8025 -11.7968 -11.7961 -11.7899 -11.7890 -11.7819 -11.7812
   -11.7777 -11.7764 -11.7750 -11.7745 -11.7706 -11.7693 -11.7659 -11.7634
   -11.7570 -11.7562 -11.7562 -11.7548 -11.7536 -11.7491 -11.7487 -11.7475
   -11.7467 -11.7421 -11.7414 -11.7389 -11.7384 -11.7373 -11.7346 -11.7332
   -11.7317 -11.7283 -11.7280 -11.7264 -11.7250 -11.7235 -11.7228 -11.7201
   -11.7195 -11.7175 -11.7154 -11.7125 -11.7104 -11.7087 -11.7036 -11.7031
   -11.7005 -11.6973 -11.6966 -11.6952 -11.6937 -11.6911 -11.6869 -11.6843
   -11.6830 -11.6826 -11.6769 -11.6715 -11.6713 -11.6683 -11.6624 -11.6619
    -7.9984  -7.9756  -7.9726  -7.7697  -7.5433  -7.5248  -7.5189  -7.1297
    -6.5169  -6.5128  -6.4954  -6.3672  -6.2931  -6.2930  -6.2694  -1.4485
    -1.4262  -1.1390  -1.0384  -0.9348  -0.9167  -0.7443  -0.6812   0.2193
     0.2400   0.2422   0.2673   0.3312   0.3856   0.6407   0.6652   0.8433
     1.0772   1.1622   1.3570   1.7356   1.8437   1.8739   2.0077   4.9538
     4.9774   4.9946   4.9965   5.1779   5.2410   5.3961   5.4010   5.9383
     5.9664   6.2827   6.3826   6.3995   6.4107   6.4751   6.4770   6.5518
     6.6200   6.7175   6.7817   6.9354   6.9698   7.0227   7.0367   7.0505
     7.1623   7.2164   7.3070   7.3241   7.4469   7.5504   7.6094   7.7509
     7.9416   8.0318   8.1575   8.6370   8.7343   8.7402   8.7671   8.8525
     8.8529   8.8834   8.8939   8.9539   8.9800   8.9913   9.1876   9.2404
     9.2639   9.2960   9.3345   9.4059   9.4753   9.5667   9.6004   9.6233
     9.9379   9.9802  10.0469  10.0635  10.1326  10.1430  10.2946  10.3192
    10.3936  10.5975  10.6054  10.7070  11.2112  12.5781  12.5812  12.8272
    12.8642  13.1059  13.1745  13.6183  13.7087  13.8294  13.8378  14.0118
    14.0514  14.1390  14.2490  14.2613  14.3189  14.3605  14.3901  14.4434
    14.5273  14.6511  14.7665  14.8161  14.9286  14.9779  15.2151  15.2243
    15.3152  15.6674  15.6693  15.7549  15.7851  16.0457  16.0584  16.1250
    16.2120  16.2376  16.2404  16.2572  16.2854  16.3263  16.3309  16.3589
    16.6535  16.7267  16.9311

          k = 0.3333-0.5000 0.2129 ( 29158 PWs)   bands (ev):

   -35.3834 -35.3833 -35.3833 -35.3832 -35.3820 -35.3819 -35.3818 -35.3818
   -35.3714 -35.3714 -35.3713 -35.3712 -35.3709 -35.3709 -35.3708 -35.3708
   -35.3703 -35.3702 -35.3702 -35.3702 -35.3691 -35.3691 -35.3690 -35.3690
   -35.3658 -35.3657 -35.3657 -35.3656 -35.3638 -35.3638 -35.3638 -35.3637
   -35.3625 -35.3625 -35.3624 -35.3623 -35.3602 -35.3601 -35.3601 -35.3600
   -11.9965 -11.9924 -11.9918 -11.9889 -11.9608 -11.9505 -11.9499 -11.9278
   -11.9217 -11.9196 -11.8807 -11.8573 -11.8539 -11.8396 -11.8163 -11.8062
   -11.8062 -11.8011 -11.7959 -11.7956 -11.7913 -11.7898 -11.7827 -11.7827
   -11.7770 -11.7766 -11.7756 -11.7753 -11.7702 -11.7697 -11.7662 -11.7628
   -11.7579 -11.7574 -11.7562 -11.7552 -11.7544 -11.7496 -11.7492 -11.7475
   -11.7454 -11.7428 -11.7406 -11.7389 -11.7374 -11.7358 -11.7350 -11.7335
   -11.7318 -11.7268 -11.7265 -11.7248 -11.7244 -11.7227 -11.7223 -11.7192
   -11.7184 -11.7165 -11.7156 -11.7131 -11.7105 -11.7097 -11.7031 -11.7029
   -11.7009 -11.6975 -11.6970 -11.6947 -11.6939 -11.6917 -11.6877 -11.6846
   -11.6835 -11.6832 -11.6771 -11.6718 -11.6716 -11.6685 -11.6629 -11.6620
    -7.9960  -7.9754  -7.9751  -7.7699  -7.5414  -7.5248  -7.5208  -7.1298
    -6.5167  -6.5127  -6.4956  -6.3672  -6.2931  -6.2929  -6.2695  -1.3971
    -1.3585  -1.2065  -1.1389  -0.9037  -0.8721  -0.7836  -0.7367   0.2249
     0.2410   0.2940   0.2981   0.3711   0.4100   0.5884   0.6309   0.8498
     1.1265   1.1713   1.3159   1.7270   1.8517   1.8688   1.9871   4.9863
     4.9901   5.0288   5.0458   5.1359   5.2110   5.3377   5.3485   6.0388
     6.0628   6.2843   6.3478   6.3857   6.4037   6.4677   6.4727   6.5382
     6.5833   6.7579   6.7940   6.8269   6.8791   6.9725   7.0082   7.0295
     7.0929   7.1615   7.2616   7.2751   7.4777   7.6096   7.7373   8.0447
     8.0840   8.1486   8.2500   8.4979   8.6173   8.6482   8.7484   8.8003
     8.8330   8.8817   8.8938   8.8951   9.0094   9.0309   9.1565   9.2104
     9.3152   9.3765   9.3987   9.4377   9.4456   9.5402   9.6884   9.7225
     9.7503   9.7976   9.9692   9.9873  10.1387  10.1667  10.2999  10.3281
    10.4814  10.5946  10.6339  10.7288  11.2609  12.5375  12.7776  12.9026
    13.0083  13.2408  13.2822  13.4880  13.5427  13.7449  13.7913  13.9018
    13.9690  14.0944  14.1526  14.1917  14.2010  14.2476  14.2978  14.3864
    14.5627  14.6858  14.7458  14.8535  15.0108  15.0381  15.1587  15.2073
    15.3521  15.6634  15.7338  15.8408  15.8784  16.0170  16.0554  16.1582
    16.1932  16.2594  16.2862  16.3144  16.3280  16.3342  16.4334  16.4504
    16.5754  16.6201  16.8007

          k = 0.3333-0.5000-0.3194 ( 29148 PWs)   bands (ev):

   -35.3833 -35.3833 -35.3832 -35.3831 -35.3820 -35.3819 -35.3818 -35.3818
   -35.3714 -35.3714 -35.3713 -35.3712 -35.3708 -35.3708 -35.3708 -35.3707
   -35.3703 -35.3702 -35.3702 -35.3701 -35.3691 -35.3691 -35.3690 -35.3690
   -35.3658 -35.3657 -35.3657 -35.3656 -35.3638 -35.3638 -35.3637 -35.3637
   -35.3625 -35.3625 -35.3624 -35.3623 -35.3602 -35.3601 -35.3601 -35.3600
   -11.9964 -11.9922 -11.9916 -11.9888 -11.9610 -11.9507 -11.9501 -11.9271
   -11.9211 -11.9204 -11.8814 -11.8568 -11.8535 -11.8407 -11.8173 -11.8051
   -11.8049 -11.8004 -11.7959 -11.7949 -11.7925 -11.7897 -11.7836 -11.7833
   -11.7777 -11.7764 -11.7756 -11.7755 -11.7701 -11.7698 -11.7663 -11.7625
   -11.7583 -11.7579 -11.7561 -11.7554 -11.7548 -11.7501 -11.7494 -11.7474
   -11.7448 -11.7431 -11.7402 -11.7391 -11.7373 -11.7357 -11.7337 -11.7337
   -11.7317 -11.7263 -11.7256 -11.7242 -11.7241 -11.7226 -11.7220 -11.7185
   -11.7177 -11.7161 -11.7157 -11.7134 -11.7105 -11.7103 -11.7029 -11.7028
   -11.7010 -11.6976 -11.6973 -11.6944 -11.6939 -11.6920 -11.6881 -11.6847
   -11.6841 -11.6834 -11.6772 -11.6720 -11.6717 -11.6686 -11.6631 -11.6620
    -7.9945  -7.9766  -7.9753  -7.7700  -7.5404  -7.5248  -7.5218  -7.1298
    -6.5167  -6.5127  -6.4957  -6.3672  -6.2931  -6.2929  -6.2695  -1.3488
    -1.2623  -1.2620  -1.2507  -0.8796  -0.8130  -0.8118  -0.8011   0.2266
     0.2414   0.3034   0.3072   0.4333   0.4350   0.5366   0.6066   0.8532
     1.1623   1.1758   1.2841   1.7224   1.8570   1.8664   1.9756   4.9952
     5.0023   5.0800   5.0856   5.0860   5.1925   5.2953   5.3198   6.1235
     6.1675   6.2425   6.2611   6.3624   6.4002   6.4461   6.5190   6.5893
     6.6083   6.6428   6.7867   6.8225   6.8233   6.9174   7.0145   7.0370
     7.0672   7.1572   7.2561   7.2727   7.4791   7.6279   7.7721   8.1884
     8.2688   8.3133   8.3180   8.3801   8.4210   8.5022   8.7389   8.7810
     8.8184   8.8806   8.8928   8.8980   9.0321   9.0888   9.1224   9.1384
     9.3767   9.3975   9.4859   9.4895   9.5081   9.5665   9.5799   9.5912
     9.7995   9.8284   9.8591   9.8867  10.1867  10.2325  10.2707  10.2893
    10.5233  10.5885  10.6436  10.7384  11.2873  12.4806  12.9991  13.0285
    13.1134  13.2194  13.2793  13.4152  13.5381  13.6190  13.6267  13.8865
    13.9724  13.9958  14.1282  14.1490  14.1737  14.1951  14.3264  14.3495
    14.6438  14.6927  14.6953  14.8727  15.0470  15.0553  15.1229  15.1980
    15.3488  15.6580  15.7561  15.8908  15.9404  15.9902  16.0598  16.1688
    16.1779  16.2756  16.2845  16.3319  16.4054  16.4332  16.4409  16.4959
    16.5981  16.6007  16.6576

          k =-0.5000-0.5000 0.0000 ( 29128 PWs)   bands (ev):

   -35.3834 -35.3833 -35.3833 -35.3832 -35.3818 -35.3818 -35.3817 -35.3816
   -35.3714 -35.3714 -35.3713 -35.3713 -35.3709 -35.3709 -35.3708 -35.3708
   -35.3703 -35.3702 -35.3702 -35.3701 -35.3690 -35.3689 -35.3689 -35.3689
   -35.3658 -35.3657 -35.3657 -35.3656 -35.3638 -35.3638 -35.3638 -35.3637
   -35.3624 -35.3624 -35.3624 -35.3623 -35.3602 -35.3602 -35.3602 -35.3601
   -11.9970 -11.9929 -11.9929 -11.9897 -11.9604 -11.9496 -11.9495 -11.9222
   -11.8889 -11.8889 -11.8876 -11.8869 -11.8470 -11.8395 -11.8395 -11.8092
   -11.8061 -11.8061 -11.7996 -11.7858 -11.7853 -11.7853 -11.7845 -11.7769
   -11.7769 -11.7753 -11.7740 -11.7708 -11.7695 -11.7694 -11.7692 -11.7692
   -11.7589 -11.7588 -11.7531 -11.7518 -11.7497 -11.7497 -11.7480 -11.7463
   -11.7463 -11.7459 -11.7456 -11.7383 -11.7360 -11.7360 -11.7356 -11.7346
   -11.7334 -11.7302 -11.7298 -11.7298 -11.7268 -11.7258 -11.7221 -11.7221
   -11.7173 -11.7148 -11.7148 -11.7138 -11.7087 -11.7082 -11.7075 -11.7075
   -11.7013 -11.7013 -11.6978 -11.6942 -11.6909 -11.6875 -11.6869 -11.6869
   -11.6857 -11.6799 -11.6778 -11.6777 -11.6709 -11.6709 -11.6630 -11.6628
    -7.8161  -7.7957  -7.7871  -7.7871  -7.7688  -7.7412  -7.7411  -7.1778
    -6.3795  -6.3763  -6.3739  -6.3738  -6.3624  -6.3467  -6.3467  -1.2475
    -1.2388  -1.2388  -1.2176  -1.0116  -0.8592  -0.8592  -0.8255   0.1847
     0.2473   0.2474   0.2960   0.4227   0.5063   0.5063   0.5639   0.8279
     1.4822   1.5161   1.5161   1.5547   1.6837   1.7799   1.7799   4.8516
     4.8977   4.9075   4.9075   5.2048   5.2901   5.3583   5.3583   6.2568
     6.3579   6.3853   6.3853   6.4127   6.4665   6.4665   6.5094   6.5204
     6.6966   6.7931   6.7931   6.8392   6.8556   6.8557   6.9205   6.9786
     7.1422   7.2063   7.2063   7.3550   7.4102   7.4513   7.4513   7.4555
     7.9533   7.9534   8.1329   8.8986   8.8986   8.9029   8.9236   8.9283
     8.9283   8.9336   8.9451   8.9720   8.9913   9.0202   9.0202   9.0535
     9.2193   9.2802   9.2802   9.3016   9.3116   9.4091   9.4091   9.4345
    10.1432  10.1432  10.2187  10.2832  10.3453  10.4003  10.4003  10.4051
    10.4731  10.6271  10.6271  10.7167  10.9699  12.2509  12.2509  12.3001
    12.8343  13.2211  13.2962  13.2963  13.7991  13.9020  13.9020  13.9448
    14.0962  14.1721  14.3084  14.3084  14.4342  14.4623  14.4623  14.5981
    14.6210  14.7116  14.7116  14.7117  15.0779  15.0779  15.2686  15.4598
    15.5480  15.5480  15.5887  15.6093  15.8620  15.8621  15.8659  16.1313
    16.1485  16.1680  16.1948  16.1949  16.2009  16.5777  16.5777  16.6007
    16.6738  16.7087  16.7087

          k =-0.5000-0.5000 0.1065 ( 29144 PWs)   bands (ev):

   -35.3834 -35.3833 -35.3833 -35.3832 -35.3819 -35.3818 -35.3818 -35.3817
   -35.3714 -35.3714 -35.3714 -35.3713 -35.3709 -35.3709 -35.3709 -35.3708
   -35.3703 -35.3703 -35.3702 -35.3701 -35.3691 -35.3690 -35.3690 -35.3689
   -35.3657 -35.3657 -35.3656 -35.3655 -35.3639 -35.3638 -35.3638 -35.3637
   -35.3625 -35.3624 -35.3624 -35.3624 -35.3602 -35.3601 -35.3601 -35.3600
   -11.9969 -11.9928 -11.9928 -11.9897 -11.9606 -11.9498 -11.9497 -11.9222
   -11.8886 -11.8886 -11.8872 -11.8872 -11.8481 -11.8404 -11.8404 -11.8082
   -11.8053 -11.8053 -11.7988 -11.7870 -11.7853 -11.7853 -11.7846 -11.7778
   -11.7778 -11.7755 -11.7733 -11.7721 -11.7695 -11.7688 -11.7688 -11.7686
   -11.7589 -11.7589 -11.7536 -11.7528 -11.7503 -11.7503 -11.7472 -11.7461
   -11.7458 -11.7458 -11.7453 -11.7376 -11.7376 -11.7363 -11.7363 -11.7345
   -11.7326 -11.7295 -11.7285 -11.7285 -11.7266 -11.7242 -11.7221 -11.7220
   -11.7173 -11.7146 -11.7146 -11.7138 -11.7090 -11.7080 -11.7074 -11.7074
   -11.7016 -11.7016 -11.6979 -11.6943 -11.6905 -11.6880 -11.6872 -11.6872
   -11.6857 -11.6803 -11.6779 -11.6779 -11.6711 -11.6710 -11.6631 -11.6631
    -7.8148  -7.7970  -7.7865  -7.7865  -7.7688  -7.7418  -7.7417  -7.1778
    -6.3795  -6.3763  -6.3738  -6.3738  -6.3624  -6.3468  -6.3467  -1.2383
    -1.2183  -1.2183  -1.1967  -1.0228  -0.8918  -0.8918  -0.8602   0.2100
     0.2688   0.2688   0.2997   0.4144   0.5003   0.5003   0.5606   0.8286
     1.4921   1.5237   1.5238   1.5559   1.6701   1.7684   1.7684   4.8728
     4.9157   4.9248   4.9248   5.1799   5.2673   5.3374   5.3374   6.2786
     6.3883   6.4014   6.4014   6.4263   6.4807   6.4896   6.4897   6.5750
     6.6619   6.7290   6.7290   6.8640   6.8978   6.8979   6.9019   6.9701
     7.0336   7.0697   7.0697   7.1335   7.4098   7.5600   7.5600   7.7608
     8.0147   8.0147   8.1627   8.8417   8.8424   8.8424   8.9224   8.9231
     8.9272   8.9272   8.9373   8.9685   9.0173   9.0430   9.0430   9.0804
     9.2703   9.2834   9.3317   9.3317   9.3672   9.3814   9.3814   9.4088
    10.0778  10.0778  10.1000  10.1966  10.4000  10.4001  10.4021  10.4170
    10.4888  10.6150  10.6150  10.7011  11.0120  12.3667  12.3667  12.4192
    12.6921  13.3101  13.3148  13.3148  13.8273  13.8359  13.8359  13.8374
    14.0767  14.2263  14.2263  14.2484  14.3840  14.4323  14.4323  14.6042
    14.6235  14.6628  14.6628  14.6819  15.1578  15.1578  15.2255  15.4925
    15.5001  15.5460  15.5460  15.5984  15.8977  15.8977  15.9747  16.0519
    16.1558  16.2352  16.2352  16.2414  16.2622  16.5395  16.5395  16.6333
    16.6748  16.6796  16.6799

          k =-0.5000-0.5000 0.2129 ( 29112 PWs)   bands (ev):

   -35.3833 -35.3833 -35.3832 -35.3831 -35.3819 -35.3818 -35.3817 -35.3816
   -35.3714 -35.3714 -35.3713 -35.3712 -35.3709 -35.3708 -35.3708 -35.3707
   -35.3702 -35.3702 -35.3702 -35.3701 -35.3690 -35.3690 -35.3689 -35.3689
   -35.3657 -35.3657 -35.3656 -35.3655 -35.3638 -35.3638 -35.3637 -35.3637
   -35.3624 -35.3624 -35.3624 -35.3623 -35.3601 -35.3601 -35.3600 -35.3600
   -11.9966 -11.9925 -11.9925 -11.9895 -11.9610 -11.9501 -11.9501 -11.9222
   -11.8879 -11.8879 -11.8878 -11.8863 -11.8501 -11.8423 -11.8423 -11.8059
   -11.8035 -11.8035 -11.7972 -11.7899 -11.7854 -11.7854 -11.7845 -11.7796
   -11.7795 -11.7763 -11.7736 -11.7720 -11.7696 -11.7680 -11.7680 -11.7678
   -11.7590 -11.7589 -11.7550 -11.7531 -11.7509 -11.7509 -11.7490 -11.7455
   -11.7455 -11.7452 -11.7434 -11.7400 -11.7361 -11.7361 -11.7360 -11.7353
   -11.7319 -11.7276 -11.7265 -11.7265 -11.7261 -11.7219 -11.7219 -11.7217
   -11.7174 -11.7143 -11.7143 -11.7132 -11.7101 -11.7076 -11.7070 -11.7070
   -11.7023 -11.7023 -11.6980 -11.6944 -11.6898 -11.6889 -11.6878 -11.6878
   -11.6858 -11.6812 -11.6782 -11.6782 -11.6713 -11.6713 -11.6635 -11.6632
    -7.8113  -7.8006  -7.7853  -7.7853  -7.7688  -7.7430  -7.7430  -7.1779
    -6.3793  -6.3763  -6.3738  -6.3737  -6.3625  -6.3468  -6.3468  -1.2162
    -1.1602  -1.1602  -1.1370  -1.0488  -0.9729  -0.9728  -0.9458   0.2673
     0.3074   0.3143   0.3144   0.3895   0.4844   0.4844   0.5538   0.8298
     1.5190   1.5420   1.5420   1.5584   1.6358   1.7423   1.7423   4.9309
     4.9606   4.9659   4.9659   5.1146   5.2129   5.2890   5.2890   6.3198
     6.4491   6.4491   6.4576   6.4850   6.5020   6.5505   6.5505   6.5969
     6.6364   6.6383   6.6384   6.8337   6.8472   6.8764   6.8764   6.8817
     6.9094   6.9401   6.9402   6.9758   7.4539   7.6560   7.6560   8.0925
     8.1972   8.1972   8.2335   8.6659   8.6844   8.6844   8.8854   8.9222
     8.9260   8.9261   8.9350   8.9654   9.0709   9.1074   9.1074   9.1506
     9.2209   9.3045   9.3045   9.3391   9.4295   9.4781   9.4781   9.5217
     9.8925   9.9041   9.9041   9.9888  10.4095  10.4095  10.4196  10.4683
    10.5326  10.5912  10.5912  10.6563  11.1075  12.4590  12.6598  12.6598
    12.7227  13.3036  13.3037  13.4736  13.5180  13.6456  13.6457  13.9429
    13.9590  14.1193  14.1193  14.2558  14.3637  14.3637  14.4503  14.6169
    14.6263  14.6299  14.6299  14.6494  15.1608  15.2345  15.2345  15.3265
    15.5433  15.5433  15.5461  15.5765  15.9548  15.9902  15.9902  16.1751
    16.2371  16.3327  16.3408  16.3408  16.3426  16.4497  16.4497  16.4744
    16.5739  16.5752  16.5996

          k =-0.5000-0.5000-0.3194 ( 29216 PWs)   bands (ev):

   -35.3834 -35.3834 -35.3833 -35.3832 -35.3820 -35.3820 -35.3819 -35.3818
   -35.3715 -35.3715 -35.3714 -35.3714 -35.3709 -35.3709 -35.3709 -35.3708
   -35.3704 -35.3704 -35.3703 -35.3703 -35.3691 -35.3691 -35.3691 -35.3691
   -35.3658 -35.3658 -35.3658 -35.3657 -35.3639 -35.3639 -35.3639 -35.3638
   -35.3626 -35.3625 -35.3625 -35.3624 -35.3603 -35.3602 -35.3602 -35.3601
   -11.9964 -11.9924 -11.9924 -11.9894 -11.9613 -11.9504 -11.9503 -11.9222
   -11.8881 -11.8876 -11.8876 -11.8858 -11.8512 -11.8433 -11.8433 -11.8046
   -11.8027 -11.8027 -11.7963 -11.7917 -11.7857 -11.7856 -11.7845 -11.7805
   -11.7805 -11.7772 -11.7740 -11.7714 -11.7696 -11.7676 -11.7676 -11.7675
   -11.7590 -11.7590 -11.7555 -11.7532 -11.7511 -11.7511 -11.7498 -11.7456
   -11.7456 -11.7451 -11.7421 -11.7409 -11.7360 -11.7358 -11.7358 -11.7352
   -11.7319 -11.7268 -11.7259 -11.7257 -11.7257 -11.7220 -11.7219 -11.7206
   -11.7175 -11.7141 -11.7141 -11.7122 -11.7113 -11.7074 -11.7067 -11.7067
   -11.7028 -11.7028 -11.6982 -11.6946 -11.6894 -11.6894 -11.6881 -11.6881
   -11.6859 -11.6817 -11.6784 -11.6784 -11.6715 -11.6715 -11.6638 -11.6634
    -7.8079  -7.8040  -7.7847  -7.7847  -7.7688  -7.7437  -7.7436  -7.1779
    -6.3793  -6.3763  -6.3737  -6.3737  -6.3626  -6.3469  -6.3469  -1.2022
    -1.0863  -1.0863  -1.0648  -1.0577  -1.0576  -1.0526  -1.0423   0.3098
     0.3113   0.3402   0.3402   0.3623   0.4728   0.4728   0.5503   0.8304
     1.5421   1.5534   1.5534   1.5596   1.6091   1.7270   1.7270   4.9905
     4.9918   4.9918   4.9921   5.0514   5.1767   5.2595   5.2595   6.3348
     6.5045   6.5119   6.5119   6.5286   6.5355   6.5355   6.5956   6.6020
     6.6413   6.6418   6.6418   6.6502   6.7646   6.7646   6.7766   6.8280
     6.9363   6.9511   6.9511   6.9520   7.4637   7.6828   7.6828   8.2751
     8.3949   8.3949   8.3985   8.4107   8.5027   8.5027   8.8620   8.9219
     8.9257   8.9257   8.9346   8.9645   9.1114   9.1789   9.1826   9.1826
     9.2242   9.2242   9.2411   9.2484   9.5963   9.6639   9.6639   9.7039
     9.7039   9.7072   9.7392   9.7483  10.4177  10.4178  10.4262  10.4866
    10.5785  10.5785  10.5891  10.5989  11.1642  12.3475  12.9713  12.9713
    13.0910  13.0977  13.0978  13.1441  13.5760  13.5760  13.5919  13.8526
    14.0789  14.0789  14.0822  14.1059  14.3301  14.3301  14.5814  14.6121
    14.6241  14.6247  14.6247  14.6401  15.1465  15.2206  15.2525  15.2525
    15.5414  15.5414  15.5603  15.5623  15.9265  16.0560  16.0560  16.2694
    16.3531  16.3579  16.3855  16.3893  16.4011  16.4545  16.4613  16.4634
    16.4651  16.4696  16.5028

     the Fermi energy is    11.6344 ev

!    total energy              =  -18126.65305179 Ry
     total all-electron energy =   -729913.056029 Ry
     estimated scf accuracy    <          1.1E-11 Ry
     smearing contrib. (-TS)   =       0.00295370 Ry
     internal energy E=F+TS    =  -18126.65600549 Ry

     The total energy is F=E-TS. E is the sum of the following terms:
     one-electron contribution =   -2224.36042306 Ry
     hartree contribution      =    1419.48545619 Ry
     xc contribution           =    -851.76714744 Ry
     ewald contribution        =   -3300.85352583 Ry
     one-center paw contrib.   =  -13169.16036536 Ry

     convergence has been achieved in  12 iterations

     Forces acting on atoms (cartesian axes, Ry/au):

     atom    1 type  1   force =     0.00000000   -0.00044650   -0.00078321
     atom    2 type  1   force =     0.00000000    0.00061696   -0.00021234
     atom    3 type  1   force =    -0.00061696    0.00000000    0.00021234
     atom    4 type  1   force =     0.00044650    0.00000000    0.00078321
     atom    5 type  1   force =     0.00000000    0.00044650   -0.00078321
     atom    6 type  1   force =     0.00000000   -0.00061696   -0.00021234
     atom    7 type  1   force =     0.00000000    0.00165163    0.00045537
     atom    8 type  1   force =     0.00000000    0.00037907   -0.00002858
     atom    9 type  1   force =    -0.00037907    0.00000000    0.00002858
     atom   10 type  1   force =    -0.00165163    0.00000000   -0.00045537
     atom   11 type  1   force =     0.00061696    0.00000000    0.00021234
     atom   12 type  1   force =    -0.00044650    0.00000000    0.00078321
     atom   13 type  1   force =     0.00000000   -0.00165163    0.00045537
     atom   14 type  1   force =     0.00000000   -0.00037907   -0.00002858
     atom   15 type  1   force =     0.00037907    0.00000000    0.00002858
     atom   16 type  1   force =     0.00165163    0.00000000   -0.00045537
     atom   17 type  3   force =     0.00000000   -0.00067631    0.00099903
     atom   18 type  3   force =     0.00067631    0.00000000   -0.00099903
     atom   19 type  3   force =     0.00000000    0.00067631    0.00099903
     atom   20 type  3   force =     0.00000000   -0.00033217   -0.00029659
     atom   21 type  3   force =     0.00033217    0.00000000    0.00029659
     atom   22 type  3   force =    -0.00067631    0.00000000   -0.00099903
     atom   23 type  3   force =     0.00000000    0.00033217   -0.00029659
     atom   24 type  3   force =    -0.00033217    0.00000000    0.00029659
     atom   25 type  2   force =     0.00000000    0.00000000    0.00000000
     atom   26 type  2   force =     0.00000000    0.00000000   -0.00024180
     atom   27 type  2   force =     0.00000000    0.00000000    0.00023831
     atom   28 type  2   force =     0.00000000    0.00000000    0.00000000
     atom   29 type  2   force =    -0.00085604   -0.00085604    0.00000000
     atom   30 type  2   force =    -0.00006021    0.00006021    0.00000000
     atom   31 type  2   force =     0.00085604   -0.00085604    0.00000000
     atom   32 type  2   force =     0.00006021    0.00006021    0.00000000
     atom   33 type  2   force =    -0.00006021   -0.00006021    0.00000000
     atom   34 type  2   force =     0.00085604    0.00085604    0.00000000
     atom   35 type  2   force =     0.00000000    0.00000000   -0.00023831
     atom   36 type  2   force =     0.00000000    0.00000000    0.00024180
     atom   37 type  2   force =     0.00000000    0.00000000    0.00000000
     atom   38 type  2   force =     0.00006021   -0.00006021    0.00000000
     atom   39 type  2   force =    -0.00085604    0.00085604    0.00000000

     Total force =     0.005478     Total SCF correction =     0.000020


     Computing stress (Cartesian axis) and pressure

          total   stress  (Ry/bohr**3)                   (kbar)     P=       -3.44
  -0.00002249   0.00000000   0.00000000           -3.31        0.00        0.00
   0.00000000  -0.00002249   0.00000000            0.00       -3.31        0.00
   0.00000000   0.00000000  -0.00002512            0.00        0.00       -3.70

     Energy error            =      8.8E-05 Ry
     Gradient error          =      1.7E-03 Ry/Bohr

     bfgs converged in   7 scf cycles and   6 bfgs steps
     (criteria: energy <  1.0E-04 Ry, force <  1.0E-02 Ry/Bohr)

     End of BFGS Geometry Optimization

     Final energy             =  -18126.6530517898 Ry

     File ./out/voxy.bfgs deleted, as requested
Begin final coordinates

ATOMIC_POSITIONS (crystal)
Bi               0.0000000000       -0.0005870936        0.3543542897
Bi               0.0000000000       -0.0005027515        0.6453341658
Bi               0.2505028298        0.2500000783        0.8546657813
Bi               0.2505871719        0.2500000783        0.1456457477
Bi               0.0000000000        0.5005871209        0.3543542897
Bi               0.0000000000        0.5005027788        0.6453341658
Bi               0.5000000273       -0.0052177400        0.3543074582
Bi               0.5000000273       -0.0003419342        0.6445806122
Bi               0.2503420125        0.7499999763        0.8554193349
Bi               0.2552178183        0.7499999763        0.1456925792
Bi               0.7494972248        0.2500000783        0.8546657813
Bi               0.7494128827        0.2500000783        0.1456457477
Bi               0.5000000273        0.5052177673        0.3543074582
Bi               0.5000000273        0.5003419615        0.6445806122
Bi               0.7496580421        0.7499999763        0.8554193349
Bi               0.7447822363        0.7499999763        0.1456925792
Se               0.0000000000       -0.0022799733        0.0024680162
Se               0.2522800516        0.2500000783        0.4975320212
Se               0.0000000000        0.5022800006        0.0024680162
Se               0.5000000273       -0.0006326848       -0.0002494917
Se               0.2506327631        0.7499999763        0.5002495291
Se               0.7477200030        0.2500000783        0.4975320212
Se               0.5000000273        0.5006327121       -0.0002494917
Se               0.7493672915        0.7499999763        0.5002495291
O                0.0000000000        0.2500000783        0.2499999774
O                0.0000000000        0.7499999763        0.7499249142
O                0.0000000000        0.7499999763        0.2478489029
O                0.0000000000        0.2500000783        0.7500000148
O                0.7511200018        0.0011200255        0.2499999774
O                0.2495259213        0.0004741570        0.7500000148
O                0.2488800528        0.0011200255        0.2499999774
O                0.7504741333        0.0004741570        0.7500000148
O                0.2495259213        0.4995258703        0.7500000148
O                0.2488800528        0.4988800018        0.2499999774
O                0.5000000273        0.2500000783        0.2521510519
O                0.5000000273        0.2500000783        0.7500751154
O                0.5000000273        0.7499999763        0.7500000148
O                0.7504741333        0.4995258703        0.7500000148
O                0.7511200018        0.4988800018        0.2499999774
End final coordinates



     Writing all to output data dir ./out/voxy.save/ :
     XML data file, charge density, pseudopotentials, collected wavefunctions
 
     init_run     :      8.09s CPU      8.77s WALL (       1 calls)
     electrons    :   2767.74s CPU   2791.92s WALL (       7 calls)
     update_pot   :      0.85s CPU      0.89s WALL (       6 calls)
     forces       :     30.12s CPU     30.31s WALL (       7 calls)
     stress       :   1181.03s CPU   1182.48s WALL (       7 calls)

     Called by init_run:
     wfcinit      :      7.43s CPU      7.71s WALL (       1 calls)
     potinit      :      0.28s CPU      0.31s WALL (       1 calls)
     hinit0       :      0.09s CPU      0.35s WALL (       1 calls)

     Called by electrons:
     c_bands      :   2505.95s CPU   2522.44s WALL (      90 calls)
     sum_band     :    243.35s CPU    248.01s WALL (      90 calls)
     v_of_rho     :      2.93s CPU      3.01s WALL (      92 calls)
     newd         :      6.92s CPU      8.21s WALL (      92 calls)
     PAW_pot      :      9.51s CPU      9.85s WALL (      98 calls)
     mix_rho      :      0.54s CPU      0.62s WALL (      90 calls)

     Called by c_bands:
     init_us_2    :     29.00s CPU     29.09s WALL (    4020 calls)
     cegterg      :   2383.16s CPU   2397.35s WALL (    1800 calls)

     Called by *egterg:
     cdiaghg      :    533.88s CPU    534.75s WALL (    8055 calls)
     h_psi        :   1039.95s CPU   1052.54s WALL (    8295 calls)
     s_psi        :    163.52s CPU    163.62s WALL (    8295 calls)
     g_psi        :      7.19s CPU      7.23s WALL (    6475 calls)

     Called by h_psi:
     h_psi:calbec :    163.81s CPU    164.00s WALL (    8295 calls)
     vloc_psi     :    700.14s CPU    712.04s WALL (    8295 calls)
     add_vuspsi   :    164.50s CPU    164.96s WALL (    8295 calls)

     General routines
     calbec       :    272.26s CPU    272.72s WALL (   10915 calls)
     fft          :      1.61s CPU      1.74s WALL (    1368 calls)
     ffts         :      0.12s CPU      0.12s WALL (     182 calls)
     fftw         :    705.75s CPU    717.18s WALL ( 3009298 calls)
     interpolate  :      0.20s CPU      0.21s WALL (      92 calls)
 
     Parallel routines
 
     PWSCF        :      1h 6m CPU      1h 7m WALL

 
   This run was terminated on:   1:50: 2  14Aug2026            

=------------------------------------------------------------------------------=
   JOB DONE.
=------------------------------------------------------------------------------=
