ANIMSTEPS  117
CRYSTAL
PRIMVEC
    7.733817461    0.000000000    0.000000000
    0.000000000    7.733817461    0.000000000
    0.000000000    0.000000000   12.107832603
PRIMCOORD    1
     39   1
   Bi     0.00000   7.72928   4.29046  -0.00511   0.00053  -0.00083
   Bi     0.00000   7.72993   7.81360  -0.00006  -0.00315   0.00014
   Bi     1.93734   1.93345  10.34815   0.00528   0.00004  -0.00023
   Bi     1.93800   1.93345   1.76345  -0.00090   0.00305   0.00139
   Bi     0.00000   3.87145   4.29046  -0.00511   0.00053   0.00083
   Bi     0.00000   3.87080   7.81360  -0.00006  -0.00315  -0.00014
   Bi     3.86691   7.69346   4.28990  -0.00298  -0.02094  -0.00798
   Bi     3.86691   7.73117   7.80447  -0.00322  -0.00090  -0.00284
   Bi     1.93610   5.80036  10.35727   0.00151   0.00192   0.00475
   Bi     1.97381   5.80036   1.76402   0.03511   0.00178   0.01338
   Bi     5.79647   1.93345  10.34815   0.00528   0.00004   0.00023
   Bi     5.79582   1.93345   1.76345  -0.00090   0.00305  -0.00139
   Bi     3.86691   3.90726   4.28990  -0.00298  -0.02094   0.00798
   Bi     3.86691   3.86955   7.80447  -0.00322  -0.00090   0.00284
   Bi     5.79772   5.80036  10.35727   0.00151   0.00192  -0.00475
   Bi     5.76001   5.80036   1.76402   0.03511   0.00178  -0.01338
   Se     0.00000   7.71618   0.02988  -0.02747   0.00576  -0.00541
   Se     1.95109   1.93345   6.02403  -0.00966   0.01638   0.00908
   Se     0.00000   3.88454   0.02988  -0.02747   0.00576   0.00541
   Se     3.86691   7.72892  12.10481  -0.02320   0.00512  -0.00165
   Se     1.93835   5.80036   6.05694  -0.00859   0.01384   0.00277
   Se     5.78273   1.93345   6.02403  -0.00966   0.01638  -0.00908
   Se     3.86691   3.87180  12.10481  -0.02320   0.00512   0.00165
   Se     5.79547   5.80036   6.05694  -0.00859   0.01384  -0.00277
   O      0.00000   1.93345   3.02696  -0.01472   0.00878   0.00000
   O      0.00000   5.80036   9.07997  -0.00547   0.00447   0.00000
   O      0.00000   5.80036   3.00091   0.00301   0.00220   0.00000
   O      0.00000   1.93345   9.08087  -0.00576   0.00344  -0.00000
   O      5.80902   0.00866   3.02696  -0.00206  -0.00540  -0.00538
   O      1.92979   0.00367   9.08087  -0.00482   0.00274   0.00058
   O      1.92479   0.00866   3.02696  -0.01431   0.01516   0.00136
   O      5.80403   0.00367   9.08087  -0.00507   0.00316  -0.00229
   O      1.92979   3.86324   9.08087  -0.00507   0.00316   0.00229
   O      1.92479   3.85825   3.02696  -0.00206  -0.00540   0.00538
   O      3.86691   1.93345   3.05300  -0.00369  -0.00179   0.00000
   O      3.86691   1.93345   9.08178  -0.00749   0.00326  -0.00000
   O      3.86691   5.80036   9.08087  -0.00715   0.00426  -0.00000
   O      5.80403   3.86324   9.08087  -0.00482   0.00274  -0.00058
   O      5.80902   3.85825   3.02696  -0.01431   0.01516  -0.00136
PRIMCOORD    2
     39   1
   Bi     0.00000   7.72928   4.29046   0.00305   0.00090  -0.00139
   Bi     0.00000   7.72993   7.81360   0.00004  -0.00528   0.00023
   Bi     1.93734   1.93345  10.34815  -0.00315   0.00006   0.00014
   Bi     1.93800   1.93345   1.76345   0.00053   0.00511  -0.00083
   Bi     0.00000   3.87145   4.29046   0.00305   0.00090   0.00139
   Bi     0.00000   3.87080   7.81360   0.00004  -0.00528  -0.00023
   Bi     3.86691   7.69346   4.28990   0.00178  -0.03511  -0.01338
   Bi     3.86691   7.73117   7.80447   0.00192  -0.00151  -0.00475
   Bi     1.93610   5.80036  10.35727  -0.00090   0.00322  -0.00284
   Bi     1.97381   5.80036   1.76402  -0.02094   0.00298  -0.00798
   Bi     5.79647   1.93345  10.34815  -0.00315   0.00006  -0.00014
   Bi     5.79582   1.93345   1.76345   0.00053   0.00511   0.00083
   Bi     3.86691   3.90726   4.28990   0.00178  -0.03511   0.01338
   Bi     3.86691   3.86955   7.80447   0.00192  -0.00151   0.00475
   Bi     5.79772   5.80036  10.35727  -0.00090   0.00322   0.00284
   Bi     5.76001   5.80036   1.76402  -0.02094   0.00298   0.00798
   Se     0.00000   7.71618   0.02988   0.01638   0.00966  -0.00908
   Se     1.95109   1.93345   6.02403   0.00576   0.02747  -0.00541
   Se     0.00000   3.88454   0.02988   0.01638   0.00966   0.00908
   Se     3.86691   7.72892  12.10481   0.01384   0.00859  -0.00277
   Se     1.93835   5.80036   6.05694   0.00512   0.02320  -0.00165
   Se     5.78273   1.93345   6.02403   0.00576   0.02747   0.00541
   Se     3.86691   3.87180  12.10481   0.01384   0.00859   0.00277
   Se     5.79547   5.80036   6.05694   0.00512   0.02320   0.00165
   O      0.00000   1.93345   3.02696   0.00878   0.01472   0.00000
   O      0.00000   5.80036   9.07997   0.00326   0.00749   0.00000
   O      0.00000   5.80036   3.00091  -0.00179   0.00369   0.00000
   O      0.00000   1.93345   9.08087   0.00344   0.00576   0.00000
   O      5.80902   0.00866   3.02696   0.01516   0.01431  -0.00136
   O      1.92979   0.00367   9.08087   0.00316   0.00507  -0.00229
   O      1.92479   0.00866   3.02696  -0.00540   0.00206  -0.00538
   O      5.80403   0.00367   9.08087   0.00274   0.00482  -0.00058
   O      1.92979   3.86324   9.08087   0.00274   0.00482   0.00058
   O      1.92479   3.85825   3.02696   0.01516   0.01431   0.00136
   O      3.86691   1.93345   3.05300   0.00220  -0.00301   0.00000
   O      3.86691   1.93345   9.08178   0.00447   0.00547   0.00000
   O      3.86691   5.80036   9.08087   0.00426   0.00715   0.00000
   O      5.80403   3.86324   9.08087   0.00316   0.00507   0.00229
   O      5.80902   3.85825   3.02696  -0.00540   0.00206   0.00538
PRIMCOORD    3
     39   1
   Bi     0.00000   7.72928   4.29046  -0.01353   0.01416   0.00146
   Bi     0.00000   7.72993   7.81360   0.01129  -0.01596   0.00145
   Bi     1.93734   1.93345  10.34815   0.01800  -0.01001  -0.00164
   Bi     1.93800   1.93345   1.76345  -0.01596   0.01200  -0.00164
   Bi     0.00000   3.87145   4.29046  -0.01353   0.01416  -0.00146
   Bi     0.00000   3.87080   7.81360   0.01129  -0.01596  -0.00145
   Bi     3.86691   7.69346   4.28990  -0.01635   0.00803  -0.00063
   Bi     3.86691   7.73117   7.80447   0.01401  -0.01459   0.00085
   Bi     1.93610   5.80036  10.35727   0.01645  -0.01242  -0.00096
   Bi     1.97381   5.80036   1.76402  -0.00905   0.01450   0.00072
   Bi     5.79647   1.93345  10.34815   0.01800  -0.01001   0.00164
   Bi     5.79582   1.93345   1.76345  -0.01596   0.01200   0.00164
   Bi     3.86691   3.90726   4.28990  -0.01635   0.00803   0.00063
   Bi     3.86691   3.86955   7.80447   0.01401  -0.01459  -0.00085
   Bi     5.79772   5.80036  10.35727   0.01645  -0.01242   0.00096
   Bi     5.76001   5.80036   1.76402  -0.00905   0.01450  -0.00072
   Se     0.00000   7.71618   0.02988  -0.00655  -0.00229   0.00587
   Se     1.95109   1.93345   6.02403   0.00259   0.00581  -0.00661
   Se     0.00000   3.88454   0.02988  -0.00655  -0.00229  -0.00587
   Se     3.86691   7.72892  12.10481  -0.00786   0.00097   0.00386
   Se     1.93835   5.80036   6.05694  -0.00109   0.00697  -0.00436
   Se     5.78273   1.93345   6.02403   0.00259   0.00581   0.00661
   Se     3.86691   3.87180  12.10481  -0.00786   0.00097  -0.00386
   Se     5.79547   5.80036   6.05694  -0.00109   0.00697   0.00436
   O      0.00000   1.93345   3.02696  -0.01269   0.01125  -0.00000
   O      0.00000   5.80036   9.07997   0.00930  -0.00949  -0.00000
   O      0.00000   5.80036   3.00091  -0.01061   0.01066  -0.00000
   O      0.00000   1.93345   9.08087   0.00995  -0.00882  -0.00000
   O      5.80902   0.00866   3.02696  -0.01128   0.00991   0.00030
   O      1.92979   0.00367   9.08087   0.01059  -0.00938  -0.00009
   O      1.92479   0.00866   3.02696  -0.01204   0.01077  -0.00002
   O      5.80403   0.00367   9.08087   0.01068  -0.00948   0.00153
   O      1.92979   3.86324   9.08087   0.01068  -0.00948  -0.00153
   O      1.92479   3.85825   3.02696  -0.01128   0.00991  -0.00030
   O      3.86691   1.93345   3.05300  -0.01202   0.00941  -0.00000
   O      3.86691   1.93345   9.08178   0.01070  -0.00825  -0.00000
   O      3.86691   5.80036   9.08087   0.01024  -0.00909  -0.00000
   O      5.80403   3.86324   9.08087   0.01059  -0.00938   0.00009
   O      5.80902   3.85825   3.02696  -0.01204   0.01077   0.00002
PRIMCOORD    4
     39   1
   Bi     0.00000   7.72928   4.29046   0.01200   0.01596   0.00164
   Bi     0.00000   7.72993   7.81360  -0.01001  -0.01800   0.00164
   Bi     1.93734   1.93345  10.34815  -0.01596  -0.01129   0.00145
   Bi     1.93800   1.93345   1.76345   0.01416   0.01353   0.00146
   Bi     0.00000   3.87145   4.29046   0.01200   0.01596  -0.00164
   Bi     0.00000   3.87080   7.81360  -0.01001  -0.01800  -0.00164
   Bi     3.86691   7.69346   4.28990   0.01450   0.00905  -0.00072
   Bi     3.86691   7.73117   7.80447  -0.01242  -0.01645   0.00096
   Bi     1.93610   5.80036  10.35727  -0.01459  -0.01401   0.00085
   Bi     1.97381   5.80036   1.76402   0.00803   0.01635  -0.00063
   Bi     5.79647   1.93345  10.34815  -0.01596  -0.01129  -0.00145
   Bi     5.79582   1.93345   1.76345   0.01416   0.01353  -0.00146
   Bi     3.86691   3.90726   4.28990   0.01450   0.00905   0.00072
   Bi     3.86691   3.86955   7.80447  -0.01242  -0.01645  -0.00096
   Bi     5.79772   5.80036  10.35727  -0.01459  -0.01401  -0.00085
   Bi     5.76001   5.80036   1.76402   0.00803   0.01635   0.00063
   Se     0.00000   7.71618   0.02988   0.00581  -0.00259   0.00661
   Se     1.95109   1.93345   6.02403  -0.00229   0.00655   0.00587
   Se     0.00000   3.88454   0.02988   0.00581  -0.00259  -0.00661
   Se     3.86691   7.72892  12.10481   0.00697   0.00109   0.00436
   Se     1.93835   5.80036   6.05694   0.00097   0.00786   0.00386
   Se     5.78273   1.93345   6.02403  -0.00229   0.00655  -0.00587
   Se     3.86691   3.87180  12.10481   0.00697   0.00109  -0.00436
   Se     5.79547   5.80036   6.05694   0.00097   0.00786  -0.00386
   O      0.00000   1.93345   3.02696   0.01125   0.01269   0.00000
   O      0.00000   5.80036   9.07997  -0.00825  -0.01070   0.00000
   O      0.00000   5.80036   3.00091   0.00941   0.01202   0.00000
   O      0.00000   1.93345   9.08087  -0.00882  -0.00995   0.00000
   O      5.80902   0.00866   3.02696   0.01077   0.01204   0.00002
   O      1.92979   0.00367   9.08087  -0.00948  -0.01068   0.00153
   O      1.92479   0.00866   3.02696   0.00991   0.01128   0.00030
   O      5.80403   0.00367   9.08087  -0.00938  -0.01059   0.00009
   O      1.92979   3.86324   9.08087  -0.00938  -0.01059  -0.00009
   O      1.92479   3.85825   3.02696   0.01077   0.01204  -0.00002
   O      3.86691   1.93345   3.05300   0.01066   0.01061   0.00000
   O      3.86691   1.93345   9.08178  -0.00949  -0.00930   0.00000
   O      3.86691   5.80036   9.08087  -0.00909  -0.01024   0.00000
   O      5.80403   3.86324   9.08087  -0.00948  -0.01068  -0.00153
   O      5.80902   3.85825   3.02696   0.00991   0.01128  -0.00030
PRIMCOORD    5
     39   1
   Bi     0.00000   7.72928   4.29046  -0.01576   0.00278  -0.00049
   Bi     0.00000   7.72993   7.81360  -0.01576   0.00278  -0.00049
   Bi     1.93734   1.93345  10.34815  -0.01576   0.00278  -0.00049
   Bi     1.93800   1.93345   1.76345  -0.01576   0.00278  -0.00049
   Bi     0.00000   3.87145   4.29046  -0.01576   0.00278  -0.00049
   Bi     0.00000   3.87080   7.81360  -0.01576   0.00278  -0.00049
   Bi     3.86691   7.69346   4.28990  -0.01576   0.00278  -0.00049
   Bi     3.86691   7.73117   7.80447  -0.01576   0.00278  -0.00049
   Bi     1.93610   5.80036  10.35727  -0.01576   0.00278  -0.00049
   Bi     1.97381   5.80036   1.76402  -0.01576   0.00278  -0.00049
   Bi     5.79647   1.93345  10.34815  -0.01576   0.00278  -0.00049
   Bi     5.79582   1.93345   1.76345  -0.01576   0.00278  -0.00049
   Bi     3.86691   3.90726   4.28990  -0.01576   0.00278  -0.00049
   Bi     3.86691   3.86955   7.80447  -0.01576   0.00278  -0.00049
   Bi     5.79772   5.80036  10.35727  -0.01576   0.00278  -0.00049
   Bi     5.76001   5.80036   1.76402  -0.01576   0.00278  -0.00049
   Se     0.00000   7.71618   0.02988  -0.01576   0.00278  -0.00049
   Se     1.95109   1.93345   6.02403  -0.01576   0.00278  -0.00049
   Se     0.00000   3.88454   0.02988  -0.01576   0.00278  -0.00049
   Se     3.86691   7.72892  12.10481  -0.01576   0.00278  -0.00049
   Se     1.93835   5.80036   6.05694  -0.01576   0.00278  -0.00049
   Se     5.78273   1.93345   6.02403  -0.01576   0.00278  -0.00049
   Se     3.86691   3.87180  12.10481  -0.01576   0.00278  -0.00049
   Se     5.79547   5.80036   6.05694  -0.01576   0.00278  -0.00049
   O      0.00000   1.93345   3.02696  -0.01576   0.00278  -0.00049
   O      0.00000   5.80036   9.07997  -0.01576   0.00278  -0.00049
   O      0.00000   5.80036   3.00091  -0.01576   0.00278  -0.00049
   O      0.00000   1.93345   9.08087  -0.01576   0.00278  -0.00049
   O      5.80902   0.00866   3.02696  -0.01576   0.00278  -0.00049
   O      1.92979   0.00367   9.08087  -0.01576   0.00278  -0.00049
   O      1.92479   0.00866   3.02696  -0.01576   0.00278  -0.00049
   O      5.80403   0.00367   9.08087  -0.01576   0.00278  -0.00049
   O      1.92979   3.86324   9.08087  -0.01576   0.00278  -0.00049
   O      1.92479   3.85825   3.02696  -0.01576   0.00278  -0.00049
   O      3.86691   1.93345   3.05300  -0.01576   0.00278  -0.00049
   O      3.86691   1.93345   9.08178  -0.01576   0.00278  -0.00049
   O      3.86691   5.80036   9.08087  -0.01576   0.00278  -0.00049
   O      5.80403   3.86324   9.08087  -0.01576   0.00278  -0.00049
   O      5.80902   3.85825   3.02696  -0.01576   0.00278  -0.00049
PRIMCOORD    6
     39   1
   Bi     0.00000   7.72928   4.29046  -0.00277  -0.01577  -0.00039
   Bi     0.00000   7.72993   7.81360  -0.00277  -0.01577  -0.00039
   Bi     1.93734   1.93345  10.34815  -0.00277  -0.01577  -0.00039
   Bi     1.93800   1.93345   1.76345  -0.00277  -0.01577  -0.00039
   Bi     0.00000   3.87145   4.29046  -0.00277  -0.01577  -0.00039
   Bi     0.00000   3.87080   7.81360  -0.00277  -0.01577  -0.00039
   Bi     3.86691   7.69346   4.28990  -0.00277  -0.01577  -0.00039
   Bi     3.86691   7.73117   7.80447  -0.00277  -0.01577  -0.00039
   Bi     1.93610   5.80036  10.35727  -0.00277  -0.01577  -0.00039
   Bi     1.97381   5.80036   1.76402  -0.00277  -0.01577  -0.00039
   Bi     5.79647   1.93345  10.34815  -0.00277  -0.01577  -0.00039
   Bi     5.79582   1.93345   1.76345  -0.00277  -0.01577  -0.00039
   Bi     3.86691   3.90726   4.28990  -0.00277  -0.01577  -0.00039
   Bi     3.86691   3.86955   7.80447  -0.00277  -0.01577  -0.00039
   Bi     5.79772   5.80036  10.35727  -0.00277  -0.01577  -0.00039
   Bi     5.76001   5.80036   1.76402  -0.00277  -0.01577  -0.00039
   Se     0.00000   7.71618   0.02988  -0.00277  -0.01577  -0.00039
   Se     1.95109   1.93345   6.02403  -0.00277  -0.01577  -0.00039
   Se     0.00000   3.88454   0.02988  -0.00277  -0.01577  -0.00039
   Se     3.86691   7.72892  12.10481  -0.00277  -0.01577  -0.00039
   Se     1.93835   5.80036   6.05694  -0.00277  -0.01577  -0.00039
   Se     5.78273   1.93345   6.02403  -0.00277  -0.01577  -0.00039
   Se     3.86691   3.87180  12.10481  -0.00277  -0.01577  -0.00039
   Se     5.79547   5.80036   6.05694  -0.00277  -0.01577  -0.00039
   O      0.00000   1.93345   3.02696  -0.00277  -0.01577  -0.00039
   O      0.00000   5.80036   9.07997  -0.00277  -0.01577  -0.00039
   O      0.00000   5.80036   3.00091  -0.00277  -0.01577  -0.00039
   O      0.00000   1.93345   9.08087  -0.00277  -0.01577  -0.00039
   O      5.80902   0.00866   3.02696  -0.00277  -0.01577  -0.00039
   O      1.92979   0.00367   9.08087  -0.00277  -0.01577  -0.00039
   O      1.92479   0.00866   3.02696  -0.00277  -0.01577  -0.00039
   O      5.80403   0.00367   9.08087  -0.00277  -0.01577  -0.00039
   O      1.92979   3.86324   9.08087  -0.00277  -0.01577  -0.00039
   O      1.92479   3.85825   3.02696  -0.00277  -0.01577  -0.00039
   O      3.86691   1.93345   3.05300  -0.00277  -0.01577  -0.00039
   O      3.86691   1.93345   9.08178  -0.00277  -0.01577  -0.00039
   O      3.86691   5.80036   9.08087  -0.00277  -0.01577  -0.00039
   O      5.80403   3.86324   9.08087  -0.00277  -0.01577  -0.00039
   O      5.80902   3.85825   3.02696  -0.00277  -0.01577  -0.00039
PRIMCOORD    7
     39   1
   Bi     0.00000   7.72928   4.29046   0.00055   0.00030  -0.01600
   Bi     0.00000   7.72993   7.81360   0.00055   0.00030  -0.01600
   Bi     1.93734   1.93345  10.34815   0.00055   0.00030  -0.01600
   Bi     1.93800   1.93345   1.76345   0.00055   0.00030  -0.01600
   Bi     0.00000   3.87145   4.29046   0.00055   0.00030  -0.01600
   Bi     0.00000   3.87080   7.81360   0.00055   0.00030  -0.01600
   Bi     3.86691   7.69346   4.28990   0.00055   0.00030  -0.01600
   Bi     3.86691   7.73117   7.80447   0.00055   0.00030  -0.01600
   Bi     1.93610   5.80036  10.35727   0.00055   0.00030  -0.01600
   Bi     1.97381   5.80036   1.76402   0.00055   0.00030  -0.01600
   Bi     5.79647   1.93345  10.34815   0.00055   0.00030  -0.01600
   Bi     5.79582   1.93345   1.76345   0.00055   0.00030  -0.01600
   Bi     3.86691   3.90726   4.28990   0.00055   0.00030  -0.01600
   Bi     3.86691   3.86955   7.80447   0.00055   0.00030  -0.01600
   Bi     5.79772   5.80036  10.35727   0.00055   0.00030  -0.01600
   Bi     5.76001   5.80036   1.76402   0.00055   0.00030  -0.01600
   Se     0.00000   7.71618   0.02988   0.00055   0.00030  -0.01600
   Se     1.95109   1.93345   6.02403   0.00055   0.00030  -0.01600
   Se     0.00000   3.88454   0.02988   0.00055   0.00030  -0.01600
   Se     3.86691   7.72892  12.10481   0.00055   0.00030  -0.01600
   Se     1.93835   5.80036   6.05694   0.00055   0.00030  -0.01600
   Se     5.78273   1.93345   6.02403   0.00055   0.00030  -0.01600
   Se     3.86691   3.87180  12.10481   0.00055   0.00030  -0.01600
   Se     5.79547   5.80036   6.05694   0.00055   0.00030  -0.01600
   O      0.00000   1.93345   3.02696   0.00055   0.00030  -0.01600
   O      0.00000   5.80036   9.07997   0.00055   0.00030  -0.01600
   O      0.00000   5.80036   3.00091   0.00055   0.00030  -0.01600
   O      0.00000   1.93345   9.08087   0.00055   0.00030  -0.01600
   O      5.80902   0.00866   3.02696   0.00055   0.00030  -0.01600
   O      1.92979   0.00367   9.08087   0.00055   0.00030  -0.01600
   O      1.92479   0.00866   3.02696   0.00055   0.00030  -0.01600
   O      5.80403   0.00367   9.08087   0.00055   0.00030  -0.01600
   O      1.92979   3.86324   9.08087   0.00055   0.00030  -0.01600
   O      1.92479   3.85825   3.02696   0.00055   0.00030  -0.01600
   O      3.86691   1.93345   3.05300   0.00055   0.00030  -0.01600
   O      3.86691   1.93345   9.08178   0.00055   0.00030  -0.01600
   O      3.86691   5.80036   9.08087   0.00055   0.00030  -0.01600
   O      5.80403   3.86324   9.08087   0.00055   0.00030  -0.01600
   O      5.80902   3.85825   3.02696   0.00055   0.00030  -0.01600
PRIMCOORD    8
     39   1
   Bi     0.00000   7.72928   4.29046  -0.00000   0.00905   0.00933
   Bi     0.00000   7.72993   7.81360  -0.00000   0.01177   0.00249
   Bi     1.93734   1.93345  10.34815   0.01177  -0.00000   0.00249
   Bi     1.93800   1.93345   1.76345   0.00905  -0.00000   0.00933
   Bi     0.00000   3.87145   4.29046  -0.00000  -0.00905   0.00933
   Bi     0.00000   3.87080   7.81360  -0.00000  -0.01177   0.00249
   Bi     3.86691   7.69346   4.28990   0.00000  -0.03294  -0.01039
   Bi     3.86691   7.73117   7.80447  -0.00000   0.00206  -0.01052
   Bi     1.93610   5.80036  10.35727   0.00206  -0.00000  -0.01052
   Bi     1.97381   5.80036   1.76402  -0.03294  -0.00000  -0.01039
   Bi     5.79647   1.93345  10.34815  -0.01177  -0.00000   0.00249
   Bi     5.79582   1.93345   1.76345  -0.00905  -0.00000   0.00933
   Bi     3.86691   3.90726   4.28990   0.00000   0.03294  -0.01039
   Bi     3.86691   3.86955   7.80447  -0.00000  -0.00206  -0.01052
   Bi     5.79772   5.80036  10.35727  -0.00206  -0.00000  -0.01052
   Bi     5.76001   5.80036   1.76402   0.03294  -0.00000  -0.01039
   Se     0.00000   7.71618   0.02988   0.00000  -0.01536   0.02171
   Se     1.95109   1.93345   6.02403  -0.01536   0.00000   0.02171
   Se     0.00000   3.88454   0.02988  -0.00000   0.01536   0.02171
   Se     3.86691   7.72892  12.10481  -0.00000   0.00453  -0.00010
   Se     1.93835   5.80036   6.05694   0.00453   0.00000  -0.00010
   Se     5.78273   1.93345   6.02403   0.01536   0.00000   0.02171
   Se     3.86691   3.87180  12.10481  -0.00000  -0.00453  -0.00010
   Se     5.79547   5.80036   6.05694  -0.00453   0.00000  -0.00010
   O      0.00000   1.93345   3.02696  -0.00000   0.00000   0.00987
   O      0.00000   5.80036   9.07997  -0.00000  -0.00000   0.00353
   O      0.00000   5.80036   3.00091  -0.00000   0.00000   0.00452
   O      0.00000   1.93345   9.08087  -0.00000  -0.00000   0.01095
   O      5.80902   0.00866   3.02696   0.00408  -0.00408   0.00224
   O      1.92979   0.00367   9.08087   0.00290   0.00290   0.00277
   O      1.92479   0.00866   3.02696  -0.00408  -0.00408   0.00224
   O      5.80403   0.00367   9.08087  -0.00290   0.00290   0.00277
   O      1.92979   3.86324   9.08087   0.00290  -0.00290   0.00277
   O      1.92479   3.85825   3.02696  -0.00408   0.00408   0.00224
   O      3.86691   1.93345   3.05300   0.00000   0.00000   0.00452
   O      3.86691   1.93345   9.08178  -0.00000  -0.00000   0.00353
   O      3.86691   5.80036   9.08087  -0.00000  -0.00000  -0.00835
   O      5.80403   3.86324   9.08087  -0.00290  -0.00290   0.00277
   O      5.80902   3.85825   3.02696   0.00408   0.00408   0.00224
PRIMCOORD    9
     39   1
   Bi     0.00000   7.72928   4.29046   0.00063   0.00286   0.00190
   Bi     0.00000   7.72993   7.81360   0.01247   0.00154   0.00251
   Bi     1.93734   1.93345  10.34815   0.00551   0.00348   0.00898
   Bi     1.93800   1.93345   1.76345   0.01024   0.00018   0.00680
   Bi     0.00000   3.87145   4.29046   0.00063   0.00286  -0.00190
   Bi     0.00000   3.87080   7.81360   0.01247   0.00154  -0.00251
   Bi     3.86691   7.69346   4.28990   0.01321  -0.00465  -0.00028
   Bi     3.86691   7.73117   7.80447  -0.00324   0.00248   0.00132
   Bi     1.93610   5.80036  10.35727   0.00889  -0.00091   0.00472
   Bi     1.97381   5.80036   1.76402  -0.01664   0.00369  -0.00100
   Bi     5.79647   1.93345  10.34815   0.00551   0.00348  -0.00898
   Bi     5.79582   1.93345   1.76345   0.01024   0.00018  -0.00680
   Bi     3.86691   3.90726   4.28990   0.01321  -0.00465   0.00028
   Bi     3.86691   3.86955   7.80447  -0.00324   0.00248  -0.00132
   Bi     5.79772   5.80036  10.35727   0.00889  -0.00091  -0.00472
   Bi     5.76001   5.80036   1.76402  -0.01664   0.00369   0.00100
   Se     0.00000   7.71618   0.02988  -0.00860  -0.00964   0.00992
   Se     1.95109   1.93345   6.02403  -0.03453  -0.00240   0.03554
   Se     0.00000   3.88454   0.02988  -0.00860  -0.00964  -0.00992
   Se     3.86691   7.72892  12.10481  -0.01609  -0.00529   0.00553
   Se     1.93835   5.80036   6.05694  -0.01896  -0.00449   0.01980
   Se     5.78273   1.93345   6.02403  -0.03453  -0.00240  -0.03554
   Se     3.86691   3.87180  12.10481  -0.01609  -0.00529  -0.00553
   Se     5.79547   5.80036   6.05694  -0.01896  -0.00449  -0.01980
   O      0.00000   1.93345   3.02696  -0.00213  -0.00059  -0.00000
   O      0.00000   5.80036   9.07997   0.00117  -0.00051  -0.00000
   O      0.00000   5.80036   3.00091  -0.00889  -0.00060  -0.00000
   O      0.00000   1.93345   9.08087  -0.00107  -0.00030  -0.00000
   O      5.80902   0.00866   3.02696  -0.00304   0.00072  -0.00178
   O      1.92979   0.00367   9.08087  -0.00227  -0.00066   0.00329
   O      1.92479   0.00866   3.02696  -0.00399  -0.00269   0.00315
   O      5.80403   0.00367   9.08087  -0.00226  -0.00061  -0.00185
   O      1.92979   3.86324   9.08087  -0.00226  -0.00061   0.00185
   O      1.92479   3.85825   3.02696  -0.00304   0.00072   0.00178
   O      3.86691   1.93345   3.05300  -0.00215  -0.00248  -0.00000
   O      3.86691   1.93345   9.08178  -0.00183   0.00033  -0.00000
   O      3.86691   5.80036   9.08087  -0.00247  -0.00069  -0.00000
   O      5.80403   3.86324   9.08087  -0.00227  -0.00066  -0.00329
   O      5.80902   3.85825   3.02696  -0.00399  -0.00269  -0.00315
PRIMCOORD   10
     39   1
   Bi     0.00000   7.72928   4.29046   0.00018  -0.01024  -0.00680
   Bi     0.00000   7.72993   7.81360   0.00348  -0.00551  -0.00898
   Bi     1.93734   1.93345  10.34815   0.00154  -0.01247   0.00251
   Bi     1.93800   1.93345   1.76345   0.00286  -0.00063   0.00190
   Bi     0.00000   3.87145   4.29046   0.00018  -0.01024   0.00680
   Bi     0.00000   3.87080   7.81360   0.00348  -0.00551   0.00898
   Bi     3.86691   7.69346   4.28990   0.00369   0.01664   0.00100
   Bi     3.86691   7.73117   7.80447  -0.00091  -0.00889  -0.00472
   Bi     1.93610   5.80036  10.35727   0.00248   0.00324   0.00132
   Bi     1.97381   5.80036   1.76402  -0.00465  -0.01321  -0.00028
   Bi     5.79647   1.93345  10.34815   0.00154  -0.01247  -0.00251
   Bi     5.79582   1.93345   1.76345   0.00286  -0.00063  -0.00190
   Bi     3.86691   3.90726   4.28990   0.00369   0.01664  -0.00100
   Bi     3.86691   3.86955   7.80447  -0.00091  -0.00889   0.00472
   Bi     5.79772   5.80036  10.35727   0.00248   0.00324  -0.00132
   Bi     5.76001   5.80036   1.76402  -0.00465  -0.01321   0.00028
   Se     0.00000   7.71618   0.02988  -0.00240   0.03453  -0.03554
   Se     1.95109   1.93345   6.02403  -0.00964   0.00860   0.00992
   Se     0.00000   3.88454   0.02988  -0.00240   0.03453   0.03554
   Se     3.86691   7.72892  12.10481  -0.00449   0.01896  -0.01980
   Se     1.93835   5.80036   6.05694  -0.00529   0.01609   0.00553
   Se     5.78273   1.93345   6.02403  -0.00964   0.00860  -0.00992
   Se     3.86691   3.87180  12.10481  -0.00449   0.01896   0.01980
   Se     5.79547   5.80036   6.05694  -0.00529   0.01609  -0.00553
   O      0.00000   1.93345   3.02696  -0.00059   0.00213  -0.00000
   O      0.00000   5.80036   9.07997   0.00033   0.00183  -0.00000
   O      0.00000   5.80036   3.00091  -0.00248   0.00215  -0.00000
   O      0.00000   1.93345   9.08087  -0.00030   0.00107  -0.00000
   O      5.80902   0.00866   3.02696  -0.00269   0.00399  -0.00315
   O      1.92979   0.00367   9.08087  -0.00061   0.00226  -0.00185
   O      1.92479   0.00866   3.02696   0.00072   0.00304  -0.00178
   O      5.80403   0.00367   9.08087  -0.00066   0.00227  -0.00329
   O      1.92979   3.86324   9.08087  -0.00066   0.00227   0.00329
   O      1.92479   3.85825   3.02696  -0.00269   0.00399   0.00315
   O      3.86691   1.93345   3.05300  -0.00060   0.00889  -0.00000
   O      3.86691   1.93345   9.08178  -0.00051  -0.00117  -0.00000
   O      3.86691   5.80036   9.08087  -0.00069   0.00247   0.00000
   O      5.80403   3.86324   9.08087  -0.00061   0.00226   0.00185
   O      5.80902   3.85825   3.02696   0.00072   0.00304   0.00178
PRIMCOORD   11
     39   1
   Bi     0.00000   7.72928   4.29046   0.00112  -0.02424   0.00022
   Bi     0.00000   7.72993   7.81360  -0.00295   0.00131   0.00517
   Bi     1.93734   1.93345  10.34815  -0.00029   0.01351  -0.00113
   Bi     1.93800   1.93345   1.76345   0.00529  -0.00512  -0.00005
   Bi     0.00000   3.87145   4.29046   0.00112  -0.02424  -0.00022
   Bi     0.00000   3.87080   7.81360  -0.00295   0.00131  -0.00517
   Bi     3.86691   7.69346   4.28990  -0.00089   0.00875   0.01083
   Bi     3.86691   7.73117   7.80447  -0.00093  -0.01837   0.00877
   Bi     1.93610   5.80036  10.35727   0.00401   0.00424  -0.00192
   Bi     1.97381   5.80036   1.76402  -0.00191   0.00406  -0.00236
   Bi     5.79647   1.93345  10.34815  -0.00029   0.01351   0.00113
   Bi     5.79582   1.93345   1.76345   0.00529  -0.00512   0.00005
   Bi     3.86691   3.90726   4.28990  -0.00089   0.00875  -0.01083
   Bi     3.86691   3.86955   7.80447  -0.00093  -0.01837  -0.00877
   Bi     5.79772   5.80036  10.35727   0.00401   0.00424   0.00192
   Bi     5.76001   5.80036   1.76402  -0.00191   0.00406   0.00236
   Se     0.00000   7.71618   0.02988  -0.00818  -0.01650   0.01378
   Se     1.95109   1.93345   6.02403   0.00360   0.03747  -0.00301
   Se     0.00000   3.88454   0.02988  -0.00818  -0.01650  -0.01378
   Se     3.86691   7.72892  12.10481  -0.00677  -0.01147   0.01252
   Se     1.93835   5.80036   6.05694   0.00251   0.03101  -0.00273
   Se     5.78273   1.93345   6.02403   0.00360   0.03747   0.00301
   Se     3.86691   3.87180  12.10481  -0.00677  -0.01147  -0.01252
   Se     5.79547   5.80036   6.05694   0.00251   0.03101   0.00273
   O      0.00000   1.93345   3.02696   0.00126  -0.00575   0.00000
   O      0.00000   5.80036   9.07997  -0.00084   0.00665  -0.00000
   O      0.00000   5.80036   3.00091  -0.00116   0.00119   0.00000
   O      0.00000   1.93345   9.08087  -0.00157   0.00718  -0.00000
   O      5.80902   0.00866   3.02696  -0.00275  -0.00267   0.00441
   O      1.92979   0.00367   9.08087  -0.00081   0.00180   0.00233
   O      1.92479   0.00866   3.02696   0.00425  -0.00420   0.00283
   O      5.80403   0.00367   9.08087   0.00006   0.00161   0.00363
   O      1.92979   3.86324   9.08087   0.00006   0.00161  -0.00363
   O      1.92479   3.85825   3.02696  -0.00275  -0.00267  -0.00441
   O      3.86691   1.93345   3.05300  -0.00026   0.00532   0.00000
   O      3.86691   1.93345   9.08178  -0.00145   0.00384  -0.00000
   O      3.86691   5.80036   9.08087  -0.00065   0.00295  -0.00000
   O      5.80403   3.86324   9.08087  -0.00081   0.00180  -0.00233
   O      5.80902   3.85825   3.02696   0.00425  -0.00420  -0.00283
PRIMCOORD   12
     39   1
   Bi     0.00000   7.72928   4.29046   0.00512   0.00529  -0.00005
   Bi     0.00000   7.72993   7.81360  -0.01351  -0.00029  -0.00113
   Bi     1.93734   1.93345  10.34815  -0.00131  -0.00295  -0.00517
   Bi     1.93800   1.93345   1.76345   0.02424   0.00112  -0.00022
   Bi     0.00000   3.87145   4.29046   0.00512   0.00529   0.00005
   Bi     0.00000   3.87080   7.81360  -0.01351  -0.00029   0.00113
   Bi     3.86691   7.69346   4.28990  -0.00406  -0.00191  -0.00236
   Bi     3.86691   7.73117   7.80447  -0.00424   0.00401  -0.00192
   Bi     1.93610   5.80036  10.35727   0.01837  -0.00093  -0.00877
   Bi     1.97381   5.80036   1.76402  -0.00875  -0.00089  -0.01083
   Bi     5.79647   1.93345  10.34815  -0.00131  -0.00295   0.00517
   Bi     5.79582   1.93345   1.76345   0.02424   0.00112   0.00022
   Bi     3.86691   3.90726   4.28990  -0.00406  -0.00191   0.00236
   Bi     3.86691   3.86955   7.80447  -0.00424   0.00401   0.00192
   Bi     5.79772   5.80036  10.35727   0.01837  -0.00093   0.00877
   Bi     5.76001   5.80036   1.76402  -0.00875  -0.00089   0.01083
   Se     0.00000   7.71618   0.02988  -0.03747   0.00360  -0.00301
   Se     1.95109   1.93345   6.02403   0.01650  -0.00818  -0.01378
   Se     0.00000   3.88454   0.02988  -0.03747   0.00360   0.00301
   Se     3.86691   7.72892  12.10481  -0.03101   0.00251  -0.00273
   Se     1.93835   5.80036   6.05694   0.01147  -0.00677  -0.01252
   Se     5.78273   1.93345   6.02403   0.01650  -0.00818   0.01378
   Se     3.86691   3.87180  12.10481  -0.03101   0.00251   0.00273
   Se     5.79547   5.80036   6.05694   0.01147  -0.00677   0.01252
   O      0.00000   1.93345   3.02696   0.00575   0.00126  -0.00000
   O      0.00000   5.80036   9.07997  -0.00384  -0.00145  -0.00000
   O      0.00000   5.80036   3.00091  -0.00532  -0.00026  -0.00000
   O      0.00000   1.93345   9.08087  -0.00718  -0.00157  -0.00000
   O      5.80902   0.00866   3.02696   0.00420   0.00425   0.00283
   O      1.92979   0.00367   9.08087  -0.00161   0.00006  -0.00363
   O      1.92479   0.00866   3.02696   0.00267  -0.00275  -0.00441
   O      5.80403   0.00367   9.08087  -0.00180  -0.00081   0.00233
   O      1.92979   3.86324   9.08087  -0.00180  -0.00081  -0.00233
   O      1.92479   3.85825   3.02696   0.00420   0.00425  -0.00283
   O      3.86691   1.93345   3.05300  -0.00119  -0.00116  -0.00000
   O      3.86691   1.93345   9.08178  -0.00665  -0.00084  -0.00000
   O      3.86691   5.80036   9.08087  -0.00295  -0.00065  -0.00000
   O      5.80403   3.86324   9.08087  -0.00161   0.00006   0.00363
   O      5.80902   3.85825   3.02696   0.00267  -0.00275   0.00441
PRIMCOORD   13
     39   1
   Bi     0.00000   7.72928   4.29046  -0.01331   0.00194   0.00541
   Bi     0.00000   7.72993   7.81360  -0.00130   0.00105   0.00666
   Bi     1.93734   1.93345  10.34815   0.00116  -0.00118   0.00736
   Bi     1.93800   1.93345   1.76345   0.00215  -0.01205   0.00598
   Bi     0.00000   3.87145   4.29046  -0.01331   0.00194  -0.00541
   Bi     0.00000   3.87080   7.81360  -0.00130   0.00105  -0.00666
   Bi     3.86691   7.69346   4.28990  -0.00176  -0.00260   0.00802
   Bi     3.86691   7.73117   7.80447  -0.01436   0.00464   0.00752
   Bi     1.93610   5.80036  10.35727   0.00513  -0.01300   0.00831
   Bi     1.97381   5.80036   1.76402  -0.00287  -0.00160   0.00886
   Bi     5.79647   1.93345  10.34815   0.00116  -0.00118  -0.00736
   Bi     5.79582   1.93345   1.76345   0.00215  -0.01205  -0.00598
   Bi     3.86691   3.90726   4.28990  -0.00176  -0.00260  -0.00802
   Bi     3.86691   3.86955   7.80447  -0.01436   0.00464  -0.00752
   Bi     5.79772   5.80036  10.35727   0.00513  -0.01300  -0.00831
   Bi     5.76001   5.80036   1.76402  -0.00287  -0.00160  -0.00886
   Se     0.00000   7.71618   0.02988   0.00359   0.02536   0.01792
   Se     1.95109   1.93345   6.02403   0.02802   0.00325   0.01980
   Se     0.00000   3.88454   0.02988   0.00359   0.02536  -0.01792
   Se     3.86691   7.72892  12.10481   0.00514   0.02263   0.00791
   Se     1.93835   5.80036   6.05694   0.02500   0.00466   0.00874
   Se     5.78273   1.93345   6.02403   0.02802   0.00325  -0.01980
   Se     3.86691   3.87180  12.10481   0.00514   0.02263  -0.00791
   Se     5.79547   5.80036   6.05694   0.02500   0.00466  -0.00874
   O      0.00000   1.93345   3.02696   0.00109   0.00099  -0.00000
   O      0.00000   5.80036   9.07997   0.00583   0.00115   0.00000
   O      0.00000   5.80036   3.00091   0.00054   0.00310   0.00000
   O      0.00000   1.93345   9.08087   0.00422   0.00382   0.00000
   O      5.80902   0.00866   3.02696   0.00200   0.00162  -0.00037
   O      1.92979   0.00367   9.08087   0.00487   0.00444   0.00789
   O      1.92479   0.00866   3.02696   0.00390   0.00372   0.00749
   O      5.80403   0.00367   9.08087   0.00462   0.00416  -0.00039
   O      1.92979   3.86324   9.08087   0.00462   0.00416   0.00039
   O      1.92479   3.85825   3.02696   0.00200   0.00162   0.00037
   O      3.86691   1.93345   3.05300   0.00343   0.00049  -0.00000
   O      3.86691   1.93345   9.08178   0.00127   0.00528   0.00000
   O      3.86691   5.80036   9.08087   0.00097   0.00088   0.00000
   O      5.80403   3.86324   9.08087   0.00487   0.00444  -0.00789
   O      5.80902   3.85825   3.02696   0.00390   0.00372  -0.00749
PRIMCOORD   14
     39   1
   Bi     0.00000   7.72928   4.29046   0.01205   0.00215   0.00598
   Bi     0.00000   7.72993   7.81360   0.00118   0.00116   0.00736
   Bi     1.93734   1.93345  10.34815  -0.00105  -0.00130  -0.00666
   Bi     1.93800   1.93345   1.76345  -0.00194  -0.01331  -0.00541
   Bi     0.00000   3.87145   4.29046   0.01205   0.00215  -0.00598
   Bi     0.00000   3.87080   7.81360   0.00118   0.00116  -0.00736
   Bi     3.86691   7.69346   4.28990   0.00160  -0.00287   0.00886
   Bi     3.86691   7.73117   7.80447   0.01300   0.00513   0.00831
   Bi     1.93610   5.80036  10.35727  -0.00464  -0.01436  -0.00752
   Bi     1.97381   5.80036   1.76402   0.00260  -0.00176  -0.00802
   Bi     5.79647   1.93345  10.34815  -0.00105  -0.00130   0.00666
   Bi     5.79582   1.93345   1.76345  -0.00194  -0.01331   0.00541
   Bi     3.86691   3.90726   4.28990   0.00160  -0.00287  -0.00886
   Bi     3.86691   3.86955   7.80447   0.01300   0.00513  -0.00831
   Bi     5.79772   5.80036  10.35727  -0.00464  -0.01436   0.00752
   Bi     5.76001   5.80036   1.76402   0.00260  -0.00176   0.00802
   Se     0.00000   7.71618   0.02988  -0.00325   0.02802   0.01980
   Se     1.95109   1.93345   6.02403  -0.02536   0.00359  -0.01792
   Se     0.00000   3.88454   0.02988  -0.00325   0.02802  -0.01980
   Se     3.86691   7.72892  12.10481  -0.00466   0.02500   0.00874
   Se     1.93835   5.80036   6.05694  -0.02263   0.00514  -0.00791
   Se     5.78273   1.93345   6.02403  -0.02536   0.00359   0.01792
   Se     3.86691   3.87180  12.10481  -0.00466   0.02500  -0.00874
   Se     5.79547   5.80036   6.05694  -0.02263   0.00514   0.00791
   O      0.00000   1.93345   3.02696  -0.00099   0.00109  -0.00000
   O      0.00000   5.80036   9.07997  -0.00528   0.00127   0.00000
   O      0.00000   5.80036   3.00091  -0.00049   0.00343   0.00000
   O      0.00000   1.93345   9.08087  -0.00382   0.00422   0.00000
   O      5.80902   0.00866   3.02696  -0.00372   0.00390   0.00749
   O      1.92979   0.00367   9.08087  -0.00416   0.00462   0.00039
   O      1.92479   0.00866   3.02696  -0.00162   0.00200   0.00037
   O      5.80403   0.00367   9.08087  -0.00444   0.00487   0.00789
   O      1.92979   3.86324   9.08087  -0.00444   0.00487  -0.00789
   O      1.92479   3.85825   3.02696  -0.00372   0.00390  -0.00749
   O      3.86691   1.93345   3.05300  -0.00310   0.00054  -0.00000
   O      3.86691   1.93345   9.08178  -0.00115   0.00583  -0.00000
   O      3.86691   5.80036   9.08087  -0.00088   0.00097  -0.00000
   O      5.80403   3.86324   9.08087  -0.00416   0.00462  -0.00039
   O      5.80902   3.85825   3.02696  -0.00162   0.00200  -0.00037
PRIMCOORD   15
     39   1
   Bi     0.00000   7.72928   4.29046  -0.00000  -0.01322  -0.01561
   Bi     0.00000   7.72993   7.81360   0.00000   0.01225  -0.01424
   Bi     1.93734   1.93345  10.34815  -0.01225   0.00000   0.01424
   Bi     1.93800   1.93345   1.76345   0.01322  -0.00000   0.01561
   Bi     0.00000   3.87145   4.29046  -0.00000   0.01322  -0.01561
   Bi     0.00000   3.87080   7.81360   0.00000  -0.01225  -0.01424
   Bi     3.86691   7.69346   4.28990  -0.00000  -0.01541   0.01607
   Bi     3.86691   7.73117   7.80447   0.00000   0.01288   0.01497
   Bi     1.93610   5.80036  10.35727  -0.01288   0.00000  -0.01497
   Bi     1.97381   5.80036   1.76402   0.01541  -0.00000  -0.01607
   Bi     5.79647   1.93345  10.34815   0.01225  -0.00000   0.01424
   Bi     5.79582   1.93345   1.76345  -0.01322   0.00000   0.01561
   Bi     3.86691   3.90726   4.28990   0.00000   0.01541   0.01607
   Bi     3.86691   3.86955   7.80447   0.00000  -0.01288   0.01497
   Bi     5.79772   5.80036  10.35727   0.01288  -0.00000  -0.01497
   Bi     5.76001   5.80036   1.76402  -0.01541   0.00000  -0.01607
   Se     0.00000   7.71618   0.02988   0.00000  -0.00089  -0.01743
   Se     1.95109   1.93345   6.02403   0.00089   0.00000   0.01743
   Se     0.00000   3.88454   0.02988   0.00000   0.00089  -0.01743
   Se     3.86691   7.72892  12.10481   0.00000   0.00417   0.01290
   Se     1.93835   5.80036   6.05694  -0.00417   0.00000  -0.01290
   Se     5.78273   1.93345   6.02403  -0.00089  -0.00000   0.01743
   Se     3.86691   3.87180  12.10481   0.00000  -0.00417   0.01290
   Se     5.79547   5.80036   6.05694   0.00417  -0.00000  -0.01290
   O      0.00000   1.93345   3.02696  -0.00000   0.00000  -0.00000
   O      0.00000   5.80036   9.07997   0.00000  -0.00000  -0.01463
   O      0.00000   5.80036   3.00091   0.00000  -0.00000  -0.01674
   O      0.00000   1.93345   9.08087  -0.00000  -0.00000  -0.00000
   O      5.80902   0.00866   3.02696  -0.00615  -0.00615  -0.00000
   O      1.92979   0.00367   9.08087  -0.00397   0.00397   0.00000
   O      1.92479   0.00866   3.02696   0.00615  -0.00615   0.00000
   O      5.80403   0.00367   9.08087   0.00397   0.00397  -0.00000
   O      1.92979   3.86324   9.08087  -0.00397  -0.00397   0.00000
   O      1.92479   3.85825   3.02696   0.00615   0.00615   0.00000
   O      3.86691   1.93345   3.05300  -0.00000   0.00000   0.01674
   O      3.86691   1.93345   9.08178  -0.00000   0.00000   0.01463
   O      3.86691   5.80036   9.08087   0.00000  -0.00000   0.00000
   O      5.80403   3.86324   9.08087   0.00397  -0.00397  -0.00000
   O      5.80902   3.85825   3.02696  -0.00615   0.00615  -0.00000
PRIMCOORD   16
     39   1
   Bi     0.00000   7.72928   4.29046  -0.00495  -0.00044   0.00066
   Bi     0.00000   7.72993   7.81360   0.00580  -0.03342  -0.00137
   Bi     1.93734   1.93345  10.34815  -0.03548   0.00546  -0.00145
   Bi     1.93800   1.93345   1.76345  -0.00047  -0.00466   0.00071
   Bi     0.00000   3.87145   4.29046  -0.00495  -0.00044  -0.00066
   Bi     0.00000   3.87080   7.81360   0.00580  -0.03342   0.00137
   Bi     3.86691   7.69346   4.28990  -0.00152   0.00307   0.00864
   Bi     3.86691   7.73117   7.80447   0.00590   0.02553   0.00261
   Bi     1.93610   5.80036  10.35727   0.02711   0.00555   0.00277
   Bi     1.97381   5.80036   1.76402   0.00326  -0.00143   0.00918
   Bi     5.79647   1.93345  10.34815  -0.03548   0.00546   0.00145
   Bi     5.79582   1.93345   1.76345  -0.00047  -0.00466  -0.00071
   Bi     3.86691   3.90726   4.28990  -0.00152   0.00307  -0.00864
   Bi     3.86691   3.86955   7.80447   0.00590   0.02553  -0.00261
   Bi     5.79772   5.80036  10.35727   0.02711   0.00555  -0.00277
   Bi     5.76001   5.80036   1.76402   0.00326  -0.00143  -0.00918
   Se     0.00000   7.71618   0.02988   0.00628  -0.00673  -0.00454
   Se     1.95109   1.93345   6.02403  -0.00715   0.00592  -0.00482
   Se     0.00000   3.88454   0.02988   0.00628  -0.00673   0.00454
   Se     3.86691   7.72892  12.10481   0.01084  -0.00748  -0.00167
   Se     1.93835   5.80036   6.05694  -0.00795   0.01021  -0.00178
   Se     5.78273   1.93345   6.02403  -0.00715   0.00592   0.00482
   Se     3.86691   3.87180  12.10481   0.01084  -0.00748   0.00167
   Se     5.79547   5.80036   6.05694  -0.00795   0.01021   0.00178
   O      0.00000   1.93345   3.02696  -0.00292  -0.00275  -0.00000
   O      0.00000   5.80036   9.07997   0.00836  -0.00702   0.00000
   O      0.00000   5.80036   3.00091   0.00215   0.00018   0.00000
   O      0.00000   1.93345   9.08087  -0.00589  -0.00555  -0.00000
   O      5.80902   0.00866   3.02696  -0.00536  -0.00534  -0.00011
   O      1.92979   0.00367   9.08087  -0.00043  -0.00043   0.00225
   O      1.92479   0.00866   3.02696  -0.00059  -0.00027   0.00375
   O      5.80403   0.00367   9.08087  -0.00002   0.00001  -0.00007
   O      1.92979   3.86324   9.08087  -0.00002   0.00001   0.00007
   O      1.92479   3.85825   3.02696  -0.00536  -0.00534   0.00011
   O      3.86691   1.93345   3.05300   0.00019   0.00202  -0.00000
   O      3.86691   1.93345   9.08178  -0.00746   0.00787  -0.00000
   O      3.86691   5.80036   9.08087   0.00777   0.00731   0.00000
   O      5.80403   3.86324   9.08087  -0.00043  -0.00043  -0.00225
   O      5.80902   3.85825   3.02696  -0.00059  -0.00027  -0.00375
PRIMCOORD   17
     39   1
   Bi     0.00000   7.72928   4.29046   0.00466  -0.00047   0.00071
   Bi     0.00000   7.72993   7.81360  -0.00546  -0.03548  -0.00145
   Bi     1.93734   1.93345  10.34815   0.03342   0.00580   0.00137
   Bi     1.93800   1.93345   1.76345   0.00044  -0.00495  -0.00066
   Bi     0.00000   3.87145   4.29046   0.00466  -0.00047  -0.00071
   Bi     0.00000   3.87080   7.81360  -0.00546  -0.03548   0.00145
   Bi     3.86691   7.69346   4.28990   0.00143   0.00326   0.00918
   Bi     3.86691   7.73117   7.80447  -0.00555   0.02711   0.00277
   Bi     1.93610   5.80036  10.35727  -0.02553   0.00590  -0.00261
   Bi     1.97381   5.80036   1.76402  -0.00307  -0.00152  -0.00864
   Bi     5.79647   1.93345  10.34815   0.03342   0.00580  -0.00137
   Bi     5.79582   1.93345   1.76345   0.00044  -0.00495   0.00066
   Bi     3.86691   3.90726   4.28990   0.00143   0.00326  -0.00918
   Bi     3.86691   3.86955   7.80447  -0.00555   0.02711  -0.00277
   Bi     5.79772   5.80036  10.35727  -0.02553   0.00590   0.00261
   Bi     5.76001   5.80036   1.76402  -0.00307  -0.00152   0.00864
   Se     0.00000   7.71618   0.02988  -0.00592  -0.00715  -0.00482
   Se     1.95109   1.93345   6.02403   0.00673   0.00628   0.00454
   Se     0.00000   3.88454   0.02988  -0.00592  -0.00715   0.00482
   Se     3.86691   7.72892  12.10481  -0.01021  -0.00795  -0.00178
   Se     1.93835   5.80036   6.05694   0.00748   0.01084   0.00167
   Se     5.78273   1.93345   6.02403   0.00673   0.00628  -0.00454
   Se     3.86691   3.87180  12.10481  -0.01021  -0.00795   0.00178
   Se     5.79547   5.80036   6.05694   0.00748   0.01084  -0.00167
   O      0.00000   1.93345   3.02696   0.00275  -0.00292  -0.00000
   O      0.00000   5.80036   9.07997  -0.00787  -0.00746  -0.00000
   O      0.00000   5.80036   3.00091  -0.00202   0.00019  -0.00000
   O      0.00000   1.93345   9.08087   0.00555  -0.00589  -0.00000
   O      5.80902   0.00866   3.02696   0.00027  -0.00059   0.00375
   O      1.92979   0.00367   9.08087  -0.00001  -0.00002   0.00007
   O      1.92479   0.00866   3.02696   0.00534  -0.00536   0.00011
   O      5.80403   0.00367   9.08087   0.00043  -0.00043   0.00225
   O      1.92979   3.86324   9.08087   0.00043  -0.00043  -0.00225
   O      1.92479   3.85825   3.02696   0.00027  -0.00059  -0.00375
   O      3.86691   1.93345   3.05300  -0.00018   0.00215   0.00000
   O      3.86691   1.93345   9.08178   0.00702   0.00836   0.00000
   O      3.86691   5.80036   9.08087  -0.00731   0.00777   0.00000
   O      5.80403   3.86324   9.08087  -0.00001  -0.00002  -0.00007
   O      5.80902   3.85825   3.02696   0.00534  -0.00536  -0.00011
PRIMCOORD   18
     39   1
   Bi     0.00000   7.72928   4.29046  -0.02205   0.00000  -0.00000
   Bi     0.00000   7.72993   7.81360   0.02505   0.00000   0.00000
   Bi     1.93734   1.93345  10.34815   0.00000   0.02505   0.00000
   Bi     1.93800   1.93345   1.76345   0.00000  -0.02205  -0.00000
   Bi     0.00000   3.87145   4.29046   0.02205  -0.00000   0.00000
   Bi     0.00000   3.87080   7.81360  -0.02505   0.00000  -0.00000
   Bi     3.86691   7.69346   4.28990  -0.02621  -0.00000  -0.00000
   Bi     3.86691   7.73117   7.80447   0.02487  -0.00000  -0.00000
   Bi     1.93610   5.80036  10.35727  -0.00000   0.02487  -0.00000
   Bi     1.97381   5.80036   1.76402  -0.00000  -0.02621  -0.00000
   Bi     5.79647   1.93345  10.34815   0.00000  -0.02505  -0.00000
   Bi     5.79582   1.93345   1.76345   0.00000   0.02205  -0.00000
   Bi     3.86691   3.90726   4.28990   0.02621  -0.00000   0.00000
   Bi     3.86691   3.86955   7.80447  -0.02487  -0.00000   0.00000
   Bi     5.79772   5.80036  10.35727  -0.00000  -0.02487   0.00000
   Bi     5.76001   5.80036   1.76402  -0.00000   0.02621   0.00000
   Se     0.00000   7.71618   0.02988  -0.00272   0.00000   0.00000
   Se     1.95109   1.93345   6.02403   0.00000  -0.00272   0.00000
   Se     0.00000   3.88454   0.02988   0.00272   0.00000  -0.00000
   Se     3.86691   7.72892  12.10481  -0.00193   0.00000   0.00000
   Se     1.93835   5.80036   6.05694   0.00000  -0.00193   0.00000
   Se     5.78273   1.93345   6.02403   0.00000   0.00272  -0.00000
   Se     3.86691   3.87180  12.10481   0.00193   0.00000  -0.00000
   Se     5.79547   5.80036   6.05694   0.00000   0.00193  -0.00000
   O      0.00000   1.93345   3.02696   0.00000   0.00000  -0.00000
   O      0.00000   5.80036   9.07997  -0.00000   0.00000   0.00000
   O      0.00000   5.80036   3.00091  -0.00000  -0.00000   0.00000
   O      0.00000   1.93345   9.08087   0.00000   0.00000  -0.00000
   O      5.80902   0.00866   3.02696  -0.00448   0.00448   0.00134
   O      1.92979   0.00367   9.08087   0.00367   0.00367   0.00097
   O      1.92479   0.00866   3.02696  -0.00448  -0.00448  -0.00134
   O      5.80403   0.00367   9.08087   0.00367  -0.00367  -0.00097
   O      1.92979   3.86324   9.08087  -0.00367   0.00367  -0.00097
   O      1.92479   3.85825   3.02696   0.00448  -0.00448   0.00134
   O      3.86691   1.93345   3.05300  -0.00000  -0.00000  -0.00000
   O      3.86691   1.93345   9.08178   0.00000  -0.00000  -0.00000
   O      3.86691   5.80036   9.08087  -0.00000  -0.00000   0.00000
   O      5.80403   3.86324   9.08087  -0.00367  -0.00367   0.00097
   O      5.80902   3.85825   3.02696   0.00448   0.00448  -0.00134
PRIMCOORD   19
     39   1
   Bi     0.00000   7.72928   4.29046  -0.02521  -0.00000  -0.00000
   Bi     0.00000   7.72993   7.81360   0.00995   0.00000  -0.00000
   Bi     1.93734   1.93345  10.34815   0.00000  -0.00995   0.00000
   Bi     1.93800   1.93345   1.76345   0.00000   0.02521   0.00000
   Bi     0.00000   3.87145   4.29046   0.02521   0.00000  -0.00000
   Bi     0.00000   3.87080   7.81360  -0.00995   0.00000  -0.00000
   Bi     3.86691   7.69346   4.28990  -0.02802  -0.00000  -0.00000
   Bi     3.86691   7.73117   7.80447   0.00981  -0.00000   0.00000
   Bi     1.93610   5.80036  10.35727  -0.00000  -0.00981  -0.00000
   Bi     1.97381   5.80036   1.76402   0.00000   0.02802  -0.00000
   Bi     5.79647   1.93345  10.34815   0.00000   0.00995   0.00000
   Bi     5.79582   1.93345   1.76345  -0.00000  -0.02521   0.00000
   Bi     3.86691   3.90726   4.28990   0.02802   0.00000   0.00000
   Bi     3.86691   3.86955   7.80447  -0.00981  -0.00000   0.00000
   Bi     5.79772   5.80036  10.35727  -0.00000   0.00981  -0.00000
   Bi     5.76001   5.80036   1.76402  -0.00000  -0.02802  -0.00000
   Se     0.00000   7.71618   0.02988   0.02122   0.00000  -0.00000
   Se     1.95109   1.93345   6.02403   0.00000  -0.02122   0.00000
   Se     0.00000   3.88454   0.02988  -0.02122   0.00000  -0.00000
   Se     3.86691   7.72892  12.10481   0.01618   0.00000   0.00000
   Se     1.93835   5.80036   6.05694   0.00000  -0.01618  -0.00000
   Se     5.78273   1.93345   6.02403  -0.00000   0.02122   0.00000
   Se     3.86691   3.87180  12.10481  -0.01618   0.00000  -0.00000
   Se     5.79547   5.80036   6.05694   0.00000   0.01618  -0.00000
   O      0.00000   1.93345   3.02696   0.00000   0.00000  -0.00000
   O      0.00000   5.80036   9.07997  -0.00000   0.00000  -0.00000
   O      0.00000   5.80036   3.00091  -0.00000  -0.00000  -0.00000
   O      0.00000   1.93345   9.08087   0.00000   0.00000   0.00000
   O      5.80902   0.00866   3.02696  -0.00891  -0.00891  -0.00000
   O      1.92979   0.00367   9.08087   0.00252  -0.00252   0.00000
   O      1.92479   0.00866   3.02696  -0.00891   0.00891  -0.00000
   O      5.80403   0.00367   9.08087   0.00252   0.00252  -0.00000
   O      1.92979   3.86324   9.08087  -0.00252  -0.00252   0.00000
   O      1.92479   3.85825   3.02696   0.00891   0.00891   0.00000
   O      3.86691   1.93345   3.05300   0.00000  -0.00000   0.00000
   O      3.86691   1.93345   9.08178   0.00000  -0.00000   0.00000
   O      3.86691   5.80036   9.08087  -0.00000  -0.00000   0.00000
   O      5.80403   3.86324   9.08087  -0.00252   0.00252   0.00000
   O      5.80902   3.85825   3.02696   0.00891  -0.00891   0.00000
PRIMCOORD   20
     39   1
   Bi     0.00000   7.72928   4.29046   0.00000   0.02406  -0.00879
   Bi     0.00000   7.72993   7.81360  -0.00000  -0.00151  -0.01056
   Bi     1.93734   1.93345  10.34815  -0.00151  -0.00000  -0.01056
   Bi     1.93800   1.93345   1.76345   0.02406   0.00000  -0.00879
   Bi     0.00000   3.87145   4.29046  -0.00000  -0.02406  -0.00879
   Bi     0.00000   3.87080   7.81360  -0.00000   0.00151  -0.01056
   Bi     3.86691   7.69346   4.28990   0.00000  -0.00896   0.00859
   Bi     3.86691   7.73117   7.80447  -0.00000  -0.02003   0.01421
   Bi     1.93610   5.80036  10.35727  -0.02003  -0.00000   0.01421
   Bi     1.97381   5.80036   1.76402  -0.00896   0.00000   0.00859
   Bi     5.79647   1.93345  10.34815   0.00151  -0.00000  -0.01056
   Bi     5.79582   1.93345   1.76345  -0.02406   0.00000  -0.00879
   Bi     3.86691   3.90726   4.28990  -0.00000   0.00896   0.00859
   Bi     3.86691   3.86955   7.80447  -0.00000   0.02003   0.01421
   Bi     5.79772   5.80036  10.35727   0.02003  -0.00000   0.01421
   Bi     5.76001   5.80036   1.76402   0.00896   0.00000   0.00859
   Se     0.00000   7.71618   0.02988  -0.00000  -0.01153  -0.02099
   Se     1.95109   1.93345   6.02403  -0.01153  -0.00000  -0.02099
   Se     0.00000   3.88454   0.02988  -0.00000   0.01153  -0.02099
   Se     3.86691   7.72892  12.10481  -0.00000   0.00620   0.01341
   Se     1.93835   5.80036   6.05694   0.00620  -0.00000   0.01341
   Se     5.78273   1.93345   6.02403   0.01153  -0.00000  -0.02099
   Se     3.86691   3.87180  12.10481   0.00000  -0.00620   0.01341
   Se     5.79547   5.80036   6.05694  -0.00620  -0.00000   0.01341
   O      0.00000   1.93345   3.02696   0.00000   0.00000  -0.01531
   O      0.00000   5.80036   9.07997  -0.00000   0.00000  -0.00060
   O      0.00000   5.80036   3.00091  -0.00000  -0.00000  -0.00155
   O      0.00000   1.93345   9.08087   0.00000   0.00000  -0.01210
   O      5.80902   0.00866   3.02696  -0.00328   0.00328  -0.00271
   O      1.92979   0.00367   9.08087  -0.00281  -0.00281  -0.00010
   O      1.92479   0.00866   3.02696   0.00328   0.00328  -0.00271
   O      5.80403   0.00367   9.08087   0.00281  -0.00281  -0.00010
   O      1.92979   3.86324   9.08087  -0.00281   0.00281  -0.00010
   O      1.92479   3.85825   3.02696   0.00328  -0.00328  -0.00271
   O      3.86691   1.93345   3.05300  -0.00000  -0.00000  -0.00155
   O      3.86691   1.93345   9.08178   0.00000  -0.00000  -0.00060
   O      3.86691   5.80036   9.08087  -0.00000  -0.00000   0.01266
   O      5.80403   3.86324   9.08087   0.00281   0.00281  -0.00010
   O      5.80902   3.85825   3.02696  -0.00328  -0.00328  -0.00271
PRIMCOORD   21
     39   1
   Bi     0.00000   7.72928   4.29046  -0.00162  -0.00000  -0.00000
   Bi     0.00000   7.72993   7.81360   0.01796   0.00000   0.00000
   Bi     1.93734   1.93345  10.34815   0.00000  -0.01796  -0.00000
   Bi     1.93800   1.93345   1.76345  -0.00000   0.00162   0.00000
   Bi     0.00000   3.87145   4.29046   0.00162  -0.00000  -0.00000
   Bi     0.00000   3.87080   7.81360  -0.01796   0.00000  -0.00000
   Bi     3.86691   7.69346   4.28990  -0.00092  -0.00000   0.00000
   Bi     3.86691   7.73117   7.80447   0.01856   0.00000   0.00000
   Bi     1.93610   5.80036  10.35727   0.00000  -0.01856  -0.00000
   Bi     1.97381   5.80036   1.76402   0.00000   0.00092  -0.00000
   Bi     5.79647   1.93345  10.34815  -0.00000   0.01796   0.00000
   Bi     5.79582   1.93345   1.76345  -0.00000  -0.00162   0.00000
   Bi     3.86691   3.90726   4.28990   0.00092  -0.00000  -0.00000
   Bi     3.86691   3.86955   7.80447  -0.01856   0.00000  -0.00000
   Bi     5.79772   5.80036  10.35727  -0.00000   0.01856   0.00000
   Bi     5.76001   5.80036   1.76402   0.00000  -0.00092   0.00000
   Se     0.00000   7.71618   0.02988  -0.03180  -0.00000  -0.00000
   Se     1.95109   1.93345   6.02403  -0.00000   0.03180   0.00000
   Se     0.00000   3.88454   0.02988   0.03180  -0.00000   0.00000
   Se     3.86691   7.72892  12.10481  -0.02831   0.00000  -0.00000
   Se     1.93835   5.80036   6.05694   0.00000   0.02831  -0.00000
   Se     5.78273   1.93345   6.02403   0.00000  -0.03180  -0.00000
   Se     3.86691   3.87180  12.10481   0.02831   0.00000  -0.00000
   Se     5.79547   5.80036   6.05694   0.00000  -0.02831  -0.00000
   O      0.00000   1.93345   3.02696   0.00000  -0.00000  -0.00000
   O      0.00000   5.80036   9.07997   0.00000  -0.00000  -0.00000
   O      0.00000   5.80036   3.00091   0.00000   0.00000  -0.00000
   O      0.00000   1.93345   9.08087   0.00000  -0.00000  -0.00000
   O      5.80902   0.00866   3.02696   0.00023   0.00023   0.00000
   O      1.92979   0.00367   9.08087   0.00285  -0.00285  -0.00000
   O      1.92479   0.00866   3.02696   0.00023  -0.00023   0.00000
   O      5.80403   0.00367   9.08087   0.00285   0.00285  -0.00000
   O      1.92979   3.86324   9.08087  -0.00285  -0.00285  -0.00000
   O      1.92479   3.85825   3.02696  -0.00023  -0.00023  -0.00000
   O      3.86691   1.93345   3.05300  -0.00000  -0.00000   0.00000
   O      3.86691   1.93345   9.08178   0.00000  -0.00000  -0.00000
   O      3.86691   5.80036   9.08087   0.00000  -0.00000  -0.00000
   O      5.80403   3.86324   9.08087  -0.00285   0.00285  -0.00000
   O      5.80902   3.85825   3.02696  -0.00023   0.00023  -0.00000
PRIMCOORD   22
     39   1
   Bi     0.00000   7.72928   4.29046  -0.02155   0.00000   0.00000
   Bi     0.00000   7.72993   7.81360  -0.02360   0.00000   0.00000
   Bi     1.93734   1.93345  10.34815   0.00000  -0.02360   0.00000
   Bi     1.93800   1.93345   1.76345   0.00000  -0.02155   0.00000
   Bi     0.00000   3.87145   4.29046   0.02155   0.00000  -0.00000
   Bi     0.00000   3.87080   7.81360   0.02360   0.00000   0.00000
   Bi     3.86691   7.69346   4.28990  -0.02751  -0.00000   0.00000
   Bi     3.86691   7.73117   7.80447  -0.02418  -0.00000   0.00000
   Bi     1.93610   5.80036  10.35727  -0.00000  -0.02418   0.00000
   Bi     1.97381   5.80036   1.76402  -0.00000  -0.02751  -0.00000
   Bi     5.79647   1.93345  10.34815   0.00000   0.02360   0.00000
   Bi     5.79582   1.93345   1.76345   0.00000   0.02155  -0.00000
   Bi     3.86691   3.90726   4.28990   0.02751  -0.00000  -0.00000
   Bi     3.86691   3.86955   7.80447   0.02418  -0.00000  -0.00000
   Bi     5.79772   5.80036  10.35727  -0.00000   0.02418   0.00000
   Bi     5.76001   5.80036   1.76402   0.00000   0.02751   0.00000
   Se     0.00000   7.71618   0.02988   0.00205   0.00000  -0.00000
   Se     1.95109   1.93345   6.02403   0.00000   0.00205  -0.00000
   Se     0.00000   3.88454   0.02988  -0.00205   0.00000  -0.00000
   Se     3.86691   7.72892  12.10481   0.00386  -0.00000  -0.00000
   Se     1.93835   5.80036   6.05694   0.00000   0.00386  -0.00000
   Se     5.78273   1.93345   6.02403  -0.00000  -0.00205  -0.00000
   Se     3.86691   3.87180  12.10481  -0.00386  -0.00000  -0.00000
   Se     5.79547   5.80036   6.05694  -0.00000  -0.00386  -0.00000
   O      0.00000   1.93345   3.02696   0.00000  -0.00000  -0.00000
   O      0.00000   5.80036   9.07997  -0.00000  -0.00000  -0.00000
   O      0.00000   5.80036   3.00091  -0.00000   0.00000  -0.00000
   O      0.00000   1.93345   9.08087   0.00000   0.00000   0.00000
   O      5.80902   0.00866   3.02696  -0.00575   0.00575   0.00142
   O      1.92979   0.00367   9.08087  -0.00494  -0.00494  -0.00098
   O      1.92479   0.00866   3.02696  -0.00575  -0.00575  -0.00142
   O      5.80403   0.00367   9.08087  -0.00494   0.00494   0.00098
   O      1.92979   3.86324   9.08087   0.00494  -0.00494   0.00098
   O      1.92479   3.85825   3.02696   0.00575  -0.00575   0.00142
   O      3.86691   1.93345   3.05300   0.00000  -0.00000  -0.00000
   O      3.86691   1.93345   9.08178   0.00000  -0.00000  -0.00000
   O      3.86691   5.80036   9.08087  -0.00000  -0.00000  -0.00000
   O      5.80403   3.86324   9.08087   0.00494   0.00494  -0.00098
   O      5.80902   3.85825   3.02696   0.00575   0.00575  -0.00142
PRIMCOORD   23
     39   1
   Bi     0.00000   7.72928   4.29046  -0.00704   0.01020   0.00379
   Bi     0.00000   7.72993   7.81360   0.01657  -0.00218   0.00282
   Bi     1.93734   1.93345  10.34815  -0.00346   0.01043   0.00449
   Bi     1.93800   1.93345   1.76345   0.01622  -0.00443   0.00603
   Bi     0.00000   3.87145   4.29046  -0.00704   0.01020  -0.00379
   Bi     0.00000   3.87080   7.81360   0.01657  -0.00218  -0.00282
   Bi     3.86691   7.69346   4.28990   0.00133  -0.00509   0.00959
   Bi     3.86691   7.73117   7.80447   0.00823  -0.01024   0.00826
   Bi     1.93610   5.80036  10.35727  -0.01627   0.00518   0.01312
   Bi     1.97381   5.80036   1.76402  -0.00810   0.00084   0.01524
   Bi     5.79647   1.93345  10.34815  -0.00346   0.01043  -0.00449
   Bi     5.79582   1.93345   1.76345   0.01622  -0.00443  -0.00603
   Bi     3.86691   3.90726   4.28990   0.00133  -0.00509  -0.00959
   Bi     3.86691   3.86955   7.80447   0.00823  -0.01024  -0.00826
   Bi     5.79772   5.80036  10.35727  -0.01627   0.00518  -0.01312
   Bi     5.76001   5.80036   1.76402  -0.00810   0.00084  -0.01524
   Se     0.00000   7.71618   0.02988  -0.00570   0.01315  -0.01769
   Se     1.95109   1.93345   6.02403   0.02090  -0.00359  -0.02812
   Se     0.00000   3.88454   0.02988  -0.00570   0.01315   0.01769
   Se     3.86691   7.72892  12.10481  -0.01188  -0.01310  -0.00463
   Se     1.93835   5.80036   6.05694  -0.02082  -0.00747  -0.00737
   Se     5.78273   1.93345   6.02403   0.02090  -0.00359   0.02812
   Se     3.86691   3.87180  12.10481  -0.01188  -0.01310   0.00463
   Se     5.79547   5.80036   6.05694  -0.02082  -0.00747   0.00737
   O      0.00000   1.93345   3.02696  -0.00227  -0.00143  -0.00000
   O      0.00000   5.80036   9.07997  -0.00427  -0.00135   0.00000
   O      0.00000   5.80036   3.00091  -0.00571   0.00472  -0.00000
   O      0.00000   1.93345   9.08087   0.00239   0.00150   0.00000
   O      5.80902   0.00866   3.02696  -0.00329  -0.00315  -0.00239
   O      1.92979   0.00367   9.08087  -0.00055  -0.00036   0.00768
   O      1.92479   0.00866   3.02696  -0.00104   0.00043   0.01051
   O      5.80403   0.00367   9.08087  -0.00053  -0.00032  -0.00175
   O      1.92979   3.86324   9.08087  -0.00053  -0.00032   0.00175
   O      1.92479   3.85825   3.02696  -0.00329  -0.00315   0.00239
   O      3.86691   1.93345   3.05300   0.00749  -0.00359  -0.00000
   O      3.86691   1.93345   9.08178  -0.00215  -0.00269   0.00000
   O      3.86691   5.80036   9.08087  -0.00753  -0.00474  -0.00000
   O      5.80403   3.86324   9.08087  -0.00055  -0.00036  -0.00768
   O      5.80902   3.85825   3.02696  -0.00104   0.00043  -0.01051
PRIMCOORD   24
     39   1
   Bi     0.00000   7.72928   4.29046   0.00443   0.01622   0.00603
   Bi     0.00000   7.72993   7.81360  -0.01043  -0.00346   0.00449
   Bi     1.93734   1.93345  10.34815   0.00218   0.01657  -0.00282
   Bi     1.93800   1.93345   1.76345  -0.01020  -0.00704  -0.00379
   Bi     0.00000   3.87145   4.29046   0.00443   0.01622  -0.00603
   Bi     0.00000   3.87080   7.81360  -0.01043  -0.00346  -0.00449
   Bi     3.86691   7.69346   4.28990  -0.00084  -0.00810   0.01524
   Bi     3.86691   7.73117   7.80447  -0.00518  -0.01627   0.01312
   Bi     1.93610   5.80036  10.35727   0.01024   0.00823  -0.00826
   Bi     1.97381   5.80036   1.76402   0.00509   0.00133  -0.00959
   Bi     5.79647   1.93345  10.34815   0.00218   0.01657   0.00282
   Bi     5.79582   1.93345   1.76345  -0.01020  -0.00704   0.00379
   Bi     3.86691   3.90726   4.28990  -0.00084  -0.00810  -0.01524
   Bi     3.86691   3.86955   7.80447  -0.00518  -0.01627  -0.01312
   Bi     5.79772   5.80036  10.35727   0.01024   0.00823   0.00826
   Bi     5.76001   5.80036   1.76402   0.00509   0.00133   0.00959
   Se     0.00000   7.71618   0.02988   0.00359   0.02090  -0.02812
   Se     1.95109   1.93345   6.02403  -0.01315  -0.00570   0.01769
   Se     0.00000   3.88454   0.02988   0.00359   0.02090   0.02812
   Se     3.86691   7.72892  12.10481   0.00747  -0.02082  -0.00737
   Se     1.93835   5.80036   6.05694   0.01310  -0.01188   0.00463
   Se     5.78273   1.93345   6.02403  -0.01315  -0.00570  -0.01769
   Se     3.86691   3.87180  12.10481   0.00747  -0.02082   0.00737
   Se     5.79547   5.80036   6.05694   0.01310  -0.01188  -0.00463
   O      0.00000   1.93345   3.02696   0.00143  -0.00227  -0.00000
   O      0.00000   5.80036   9.07997   0.00269  -0.00215  -0.00000
   O      0.00000   5.80036   3.00091   0.00359   0.00749  -0.00000
   O      0.00000   1.93345   9.08087  -0.00150   0.00239   0.00000
   O      5.80902   0.00866   3.02696  -0.00043  -0.00104   0.01051
   O      1.92979   0.00367   9.08087   0.00032  -0.00053   0.00175
   O      1.92479   0.00866   3.02696   0.00315  -0.00329   0.00239
   O      5.80403   0.00367   9.08087   0.00036  -0.00055   0.00768
   O      1.92979   3.86324   9.08087   0.00036  -0.00055  -0.00768
   O      1.92479   3.85825   3.02696  -0.00043  -0.00104  -0.01051
   O      3.86691   1.93345   3.05300  -0.00472  -0.00571  -0.00000
   O      3.86691   1.93345   9.08178   0.00135  -0.00427  -0.00000
   O      3.86691   5.80036   9.08087   0.00474  -0.00753  -0.00000
   O      5.80403   3.86324   9.08087   0.00032  -0.00053  -0.00175
   O      5.80902   3.85825   3.02696   0.00315  -0.00329  -0.00239
PRIMCOORD   25
     39   1
   Bi     0.00000   7.72928   4.29046   0.00000   0.00023  -0.00420
   Bi     0.00000   7.72993   7.81360  -0.00000  -0.00161  -0.01581
   Bi     1.93734   1.93345  10.34815  -0.00161   0.00000  -0.01581
   Bi     1.93800   1.93345   1.76345   0.00023   0.00000  -0.00420
   Bi     0.00000   3.87145   4.29046   0.00000  -0.00023  -0.00420
   Bi     0.00000   3.87080   7.81360   0.00000   0.00161  -0.01581
   Bi     3.86691   7.69346   4.28990   0.00000   0.00691   0.00504
   Bi     3.86691   7.73117   7.80447  -0.00000  -0.00230  -0.00916
   Bi     1.93610   5.80036  10.35727  -0.00230  -0.00000  -0.00916
   Bi     1.97381   5.80036   1.76402   0.00691   0.00000   0.00504
   Bi     5.79647   1.93345  10.34815   0.00161   0.00000  -0.01581
   Bi     5.79582   1.93345   1.76345  -0.00023   0.00000  -0.00420
   Bi     3.86691   3.90726   4.28990   0.00000  -0.00691   0.00504
   Bi     3.86691   3.86955   7.80447  -0.00000   0.00230  -0.00916
   Bi     5.79772   5.80036  10.35727   0.00230  -0.00000  -0.00916
   Bi     5.76001   5.80036   1.76402  -0.00691   0.00000   0.00504
   Se     0.00000   7.71618   0.02988  -0.00000  -0.00320   0.03221
   Se     1.95109   1.93345   6.02403  -0.00320  -0.00000   0.03221
   Se     0.00000   3.88454   0.02988  -0.00000   0.00320   0.03221
   Se     3.86691   7.72892  12.10481  -0.00000  -0.00061   0.02688
   Se     1.93835   5.80036   6.05694  -0.00061  -0.00000   0.02688
   Se     5.78273   1.93345   6.02403   0.00320  -0.00000   0.03221
   Se     3.86691   3.87180  12.10481  -0.00000   0.00061   0.02688
   Se     5.79547   5.80036   6.05694   0.00061  -0.00000   0.02688
   O      0.00000   1.93345   3.02696  -0.00000  -0.00000   0.00689
   O      0.00000   5.80036   9.07997  -0.00000  -0.00000   0.00201
   O      0.00000   5.80036   3.00091  -0.00000   0.00000   0.01363
   O      0.00000   1.93345   9.08087  -0.00000  -0.00000  -0.00403
   O      5.80902   0.00866   3.02696  -0.00209   0.00209   0.01309
   O      1.92979   0.00367   9.08087  -0.00068  -0.00068   0.00096
   O      1.92479   0.00866   3.02696   0.00209   0.00209   0.01309
   O      5.80403   0.00367   9.08087   0.00068  -0.00068   0.00096
   O      1.92979   3.86324   9.08087  -0.00068   0.00068   0.00096
   O      1.92479   3.85825   3.02696   0.00209  -0.00209   0.01309
   O      3.86691   1.93345   3.05300   0.00000  -0.00000   0.01363
   O      3.86691   1.93345   9.08178  -0.00000  -0.00000   0.00201
   O      3.86691   5.80036   9.08087  -0.00000  -0.00000   0.00410
   O      5.80403   3.86324   9.08087   0.00068   0.00068   0.00096
   O      5.80902   3.85825   3.02696  -0.00209  -0.00209   0.01309
PRIMCOORD   26
     39   1
   Bi     0.00000   7.72928   4.29046   0.00018   0.03210  -0.00426
   Bi     0.00000   7.72993   7.81360  -0.00003  -0.00228  -0.00954
   Bi     1.93734   1.93345  10.34815   0.00002   0.00298   0.00009
   Bi     1.93800   1.93345   1.76345  -0.00029  -0.02019   0.00004
   Bi     0.00000   3.87145   4.29046   0.00018   0.03210   0.00426
   Bi     0.00000   3.87080   7.81360  -0.00003  -0.00228   0.00954
   Bi     3.86691   7.69346   4.28990   0.00024   0.00462  -0.00298
   Bi     3.86691   7.73117   7.80447  -0.00013  -0.01295  -0.01074
   Bi     1.93610   5.80036  10.35727   0.00012   0.01456   0.00010
   Bi     1.97381   5.80036   1.76402  -0.00004  -0.02658   0.00003
   Bi     5.79647   1.93345  10.34815   0.00002   0.00298  -0.00009
   Bi     5.79582   1.93345   1.76345  -0.00029  -0.02019  -0.00004
   Bi     3.86691   3.90726   4.28990   0.00024   0.00462   0.00298
   Bi     3.86691   3.86955   7.80447  -0.00013  -0.01295   0.01074
   Bi     5.79772   5.80036  10.35727   0.00012   0.01456  -0.00010
   Bi     5.76001   5.80036   1.76402  -0.00004  -0.02658  -0.00003
   Se     0.00000   7.71618   0.02988  -0.00008  -0.02648   0.02326
   Se     1.95109   1.93345   6.02403   0.00024   0.00880  -0.00021
   Se     0.00000   3.88454   0.02988  -0.00008  -0.02648  -0.02326
   Se     3.86691   7.72892  12.10481  -0.00018   0.01786   0.00441
   Se     1.93835   5.80036   6.05694  -0.00016   0.01949  -0.00004
   Se     5.78273   1.93345   6.02403   0.00024   0.00880   0.00021
   Se     3.86691   3.87180  12.10481  -0.00018   0.01786  -0.00441
   Se     5.79547   5.80036   6.05694  -0.00016   0.01949   0.00004
   O      0.00000   1.93345   3.02696  -0.00007   0.00812   0.00000
   O      0.00000   5.80036   9.07997  -0.00001   0.00406   0.00000
   O      0.00000   5.80036   3.00091  -0.00001  -0.00017   0.00000
   O      0.00000   1.93345   9.08087  -0.00001   0.00061  -0.00000
   O      5.80902   0.00866   3.02696  -0.00145  -0.00430  -0.00403
   O      1.92979   0.00367   9.08087  -0.00096   0.00189  -0.00445
   O      1.92479   0.00866   3.02696   0.00153  -0.00433  -0.00396
   O      5.80403   0.00367   9.08087   0.00092   0.00187  -0.00453
   O      1.92979   3.86324   9.08087   0.00092   0.00187   0.00453
   O      1.92479   3.85825   3.02696  -0.00145  -0.00430   0.00403
   O      3.86691   1.93345   3.05300   0.00000   0.00140   0.00000
   O      3.86691   1.93345   9.08178  -0.00004   0.00074   0.00000
   O      3.86691   5.80036   9.08087  -0.00003   0.00285   0.00000
   O      5.80403   3.86324   9.08087  -0.00096   0.00189   0.00445
   O      5.80902   3.85825   3.02696   0.00153  -0.00433   0.00396
PRIMCOORD   27
     39   1
   Bi     0.00000   7.72928   4.29046   0.02019  -0.00029   0.00004
   Bi     0.00000   7.72993   7.81360  -0.00298   0.00002   0.00009
   Bi     1.93734   1.93345  10.34815   0.00228  -0.00003   0.00954
   Bi     1.93800   1.93345   1.76345  -0.03210   0.00018   0.00426
   Bi     0.00000   3.87145   4.29046   0.02019  -0.00029  -0.00004
   Bi     0.00000   3.87080   7.81360  -0.00298   0.00002  -0.00009
   Bi     3.86691   7.69346   4.28990   0.02658  -0.00004   0.00003
   Bi     3.86691   7.73117   7.80447  -0.01456   0.00012   0.00010
   Bi     1.93610   5.80036  10.35727   0.01295  -0.00013   0.01074
   Bi     1.97381   5.80036   1.76402  -0.00462   0.00024   0.00298
   Bi     5.79647   1.93345  10.34815   0.00228  -0.00003  -0.00954
   Bi     5.79582   1.93345   1.76345  -0.03210   0.00018  -0.00426
   Bi     3.86691   3.90726   4.28990   0.02658  -0.00004  -0.00003
   Bi     3.86691   3.86955   7.80447  -0.01456   0.00012  -0.00010
   Bi     5.79772   5.80036  10.35727   0.01295  -0.00013  -0.01074
   Bi     5.76001   5.80036   1.76402  -0.00462   0.00024  -0.00298
   Se     0.00000   7.71618   0.02988  -0.00880   0.00024  -0.00021
   Se     1.95109   1.93345   6.02403   0.02648  -0.00008  -0.02326
   Se     0.00000   3.88454   0.02988  -0.00880   0.00024   0.00021
   Se     3.86691   7.72892  12.10481  -0.01949  -0.00016  -0.00004
   Se     1.93835   5.80036   6.05694  -0.01786  -0.00018  -0.00441
   Se     5.78273   1.93345   6.02403   0.02648  -0.00008   0.02326
   Se     3.86691   3.87180  12.10481  -0.01949  -0.00016   0.00004
   Se     5.79547   5.80036   6.05694  -0.01786  -0.00018   0.00441
   O      0.00000   1.93345   3.02696  -0.00812  -0.00007  -0.00000
   O      0.00000   5.80036   9.07997  -0.00074  -0.00004  -0.00000
   O      0.00000   5.80036   3.00091  -0.00140   0.00000  -0.00000
   O      0.00000   1.93345   9.08087  -0.00061  -0.00001   0.00000
   O      5.80902   0.00866   3.02696   0.00433   0.00153  -0.00396
   O      1.92979   0.00367   9.08087  -0.00187   0.00092   0.00453
   O      1.92479   0.00866   3.02696   0.00430  -0.00145   0.00403
   O      5.80403   0.00367   9.08087  -0.00189  -0.00096  -0.00445
   O      1.92979   3.86324   9.08087  -0.00189  -0.00096   0.00445
   O      1.92479   3.85825   3.02696   0.00433   0.00153   0.00396
   O      3.86691   1.93345   3.05300   0.00017  -0.00001  -0.00000
   O      3.86691   1.93345   9.08178  -0.00406  -0.00001  -0.00000
   O      3.86691   5.80036   9.08087  -0.00285  -0.00003  -0.00000
   O      5.80403   3.86324   9.08087  -0.00187   0.00092  -0.00453
   O      5.80902   3.85825   3.02696   0.00430  -0.00145  -0.00403
PRIMCOORD   28
     39   1
   Bi     0.00000   7.72928   4.29046   0.01297  -0.00000   0.00000
   Bi     0.00000   7.72993   7.81360   0.01729   0.00000   0.00000
   Bi     1.93734   1.93345  10.34815   0.00000  -0.01729  -0.00000
   Bi     1.93800   1.93345   1.76345  -0.00000  -0.01297  -0.00000
   Bi     0.00000   3.87145   4.29046  -0.01297  -0.00000  -0.00000
   Bi     0.00000   3.87080   7.81360  -0.01729   0.00000  -0.00000
   Bi     3.86691   7.69346   4.28990   0.01368  -0.00000   0.00000
   Bi     3.86691   7.73117   7.80447   0.01730   0.00000   0.00000
   Bi     1.93610   5.80036  10.35727   0.00000  -0.01730   0.00000
   Bi     1.97381   5.80036   1.76402   0.00000  -0.01368   0.00000
   Bi     5.79647   1.93345  10.34815   0.00000   0.01729  -0.00000
   Bi     5.79582   1.93345   1.76345  -0.00000   0.01297  -0.00000
   Bi     3.86691   3.90726   4.28990  -0.01368  -0.00000  -0.00000
   Bi     3.86691   3.86955   7.80447  -0.01730   0.00000  -0.00000
   Bi     5.79772   5.80036  10.35727   0.00000   0.01730  -0.00000
   Bi     5.76001   5.80036   1.76402  -0.00000   0.01368   0.00000
   Se     0.00000   7.71618   0.02988   0.02775   0.00000  -0.00000
   Se     1.95109   1.93345   6.02403   0.00000  -0.02775   0.00000
   Se     0.00000   3.88454   0.02988  -0.02775   0.00000   0.00000
   Se     3.86691   7.72892  12.10481   0.02499  -0.00000   0.00000
   Se     1.93835   5.80036   6.05694  -0.00000  -0.02499  -0.00000
   Se     5.78273   1.93345   6.02403   0.00000   0.02775   0.00000
   Se     3.86691   3.87180  12.10481  -0.02499  -0.00000   0.00000
   Se     5.79547   5.80036   6.05694  -0.00000   0.02499   0.00000
   O      0.00000   1.93345   3.02696  -0.00000  -0.00000   0.00000
   O      0.00000   5.80036   9.07997   0.00000  -0.00000   0.00000
   O      0.00000   5.80036   3.00091  -0.00000   0.00000   0.00000
   O      0.00000   1.93345   9.08087  -0.00000  -0.00000  -0.00000
   O      5.80902   0.00866   3.02696   0.00650   0.00650   0.00000
   O      1.92979   0.00367   9.08087   0.00580  -0.00580   0.00000
   O      1.92479   0.00866   3.02696   0.00650  -0.00650   0.00000
   O      5.80403   0.00367   9.08087   0.00580   0.00580   0.00000
   O      1.92979   3.86324   9.08087  -0.00580  -0.00580  -0.00000
   O      1.92479   3.85825   3.02696  -0.00650  -0.00650   0.00000
   O      3.86691   1.93345   3.05300   0.00000  -0.00000   0.00000
   O      3.86691   1.93345   9.08178  -0.00000  -0.00000   0.00000
   O      3.86691   5.80036   9.08087  -0.00000  -0.00000   0.00000
   O      5.80403   3.86324   9.08087  -0.00580   0.00580  -0.00000
   O      5.80902   3.85825   3.02696  -0.00650   0.00650  -0.00000
PRIMCOORD   29
     39   1
   Bi     0.00000   7.72928   4.29046   0.00129  -0.00637   0.00975
   Bi     0.00000   7.72993   7.81360  -0.00738  -0.01104   0.00802
   Bi     1.93734   1.93345  10.34815   0.00828   0.00985  -0.00601
   Bi     1.93800   1.93345   1.76345   0.00478  -0.00172  -0.00731
   Bi     0.00000   3.87145   4.29046   0.00129  -0.00637  -0.00975
   Bi     0.00000   3.87080   7.81360  -0.00738  -0.01104  -0.00802
   Bi     3.86691   7.69346   4.28990   0.00038   0.00603  -0.01797
   Bi     3.86691   7.73117   7.80447  -0.00757  -0.00677  -0.01560
   Bi     1.93610   5.80036  10.35727   0.00507   0.01010   0.01169
   Bi     1.97381   5.80036   1.76402  -0.00452  -0.00051   0.01348
   Bi     5.79647   1.93345  10.34815   0.00828   0.00985   0.00601
   Bi     5.79582   1.93345   1.76345   0.00478  -0.00172   0.00731
   Bi     3.86691   3.90726   4.28990   0.00038   0.00603   0.01797
   Bi     3.86691   3.86955   7.80447  -0.00757  -0.00677   0.01560
   Bi     5.79772   5.80036  10.35727   0.00507   0.01010  -0.01169
   Bi     5.76001   5.80036   1.76402  -0.00452  -0.00051  -0.01348
   Se     0.00000   7.71618   0.02988   0.01093   0.03104   0.01915
   Se     1.95109   1.93345   6.02403  -0.02327  -0.01457  -0.01436
   Se     0.00000   3.88454   0.02988   0.01093   0.03104  -0.01915
   Se     3.86691   7.72892  12.10481   0.00212  -0.01187   0.01606
   Se     1.93835   5.80036   6.05694   0.00890  -0.00283  -0.01204
   Se     5.78273   1.93345   6.02403  -0.02327  -0.01457   0.01436
   Se     3.86691   3.87180  12.10481   0.00212  -0.01187  -0.01606
   Se     5.79547   5.80036   6.05694   0.00890  -0.00283   0.01204
   O      0.00000   1.93345   3.02696  -0.00024   0.00032   0.00000
   O      0.00000   5.80036   9.07997   0.00231  -0.00298  -0.00000
   O      0.00000   5.80036   3.00091   0.00070  -0.00326   0.00000
   O      0.00000   1.93345   9.08087  -0.00022   0.00029  -0.00000
   O      5.80902   0.00866   3.02696   0.00366  -0.00266  -0.00612
   O      1.92979   0.00367   9.08087   0.00052   0.00014  -0.00020
   O      1.92479   0.00866   3.02696  -0.00395   0.00304  -0.00088
   O      5.80403   0.00367   9.08087  -0.00234   0.00229  -0.00143
   O      1.92979   3.86324   9.08087  -0.00234   0.00229   0.00143
   O      1.92479   3.85825   3.02696   0.00366  -0.00266   0.00612
   O      3.86691   1.93345   3.05300   0.00245  -0.00093  -0.00000
   O      3.86691   1.93345   9.08178   0.00224  -0.00308   0.00000
   O      3.86691   5.80036   9.08087   0.00163  -0.00217  -0.00000
   O      5.80403   3.86324   9.08087   0.00052   0.00014   0.00020
   O      5.80902   3.85825   3.02696  -0.00395   0.00304   0.00088
PRIMCOORD   30
     39   1
   Bi     0.00000   7.72928   4.29046   0.00172   0.00478  -0.00731
   Bi     0.00000   7.72993   7.81360  -0.00985   0.00828  -0.00601
   Bi     1.93734   1.93345  10.34815   0.01104  -0.00738  -0.00802
   Bi     1.93800   1.93345   1.76345   0.00637   0.00129  -0.00975
   Bi     0.00000   3.87145   4.29046   0.00172   0.00478   0.00731
   Bi     0.00000   3.87080   7.81360  -0.00985   0.00828   0.00601
   Bi     3.86691   7.69346   4.28990   0.00051  -0.00452   0.01348
   Bi     3.86691   7.73117   7.80447  -0.01010   0.00507   0.01169
   Bi     1.93610   5.80036  10.35727   0.00677  -0.00757   0.01560
   Bi     1.97381   5.80036   1.76402  -0.00603   0.00038   0.01797
   Bi     5.79647   1.93345  10.34815   0.01104  -0.00738   0.00802
   Bi     5.79582   1.93345   1.76345   0.00637   0.00129   0.00975
   Bi     3.86691   3.90726   4.28990   0.00051  -0.00452  -0.01348
   Bi     3.86691   3.86955   7.80447  -0.01010   0.00507  -0.01169
   Bi     5.79772   5.80036  10.35727   0.00677  -0.00757  -0.01560
   Bi     5.76001   5.80036   1.76402  -0.00603   0.00038  -0.01797
   Se     0.00000   7.71618   0.02988   0.01457  -0.02327  -0.01436
   Se     1.95109   1.93345   6.02403  -0.03104   0.01093  -0.01915
   Se     0.00000   3.88454   0.02988   0.01457  -0.02327   0.01436
   Se     3.86691   7.72892  12.10481   0.00283   0.00890  -0.01204
   Se     1.93835   5.80036   6.05694   0.01187   0.00212  -0.01606
   Se     5.78273   1.93345   6.02403  -0.03104   0.01093   0.01915
   Se     3.86691   3.87180  12.10481   0.00283   0.00890   0.01204
   Se     5.79547   5.80036   6.05694   0.01187   0.00212   0.01606
   O      0.00000   1.93345   3.02696  -0.00032  -0.00024  -0.00000
   O      0.00000   5.80036   9.07997   0.00308   0.00224  -0.00000
   O      0.00000   5.80036   3.00091   0.00093   0.00245  -0.00000
   O      0.00000   1.93345   9.08087  -0.00029  -0.00022   0.00000
   O      5.80902   0.00866   3.02696  -0.00304  -0.00395  -0.00088
   O      1.92979   0.00367   9.08087  -0.00229  -0.00234   0.00143
   O      1.92479   0.00866   3.02696   0.00266   0.00366   0.00612
   O      5.80403   0.00367   9.08087  -0.00014   0.00052  -0.00020
   O      1.92979   3.86324   9.08087  -0.00014   0.00052   0.00020
   O      1.92479   3.85825   3.02696  -0.00304  -0.00395   0.00088
   O      3.86691   1.93345   3.05300   0.00326   0.00070  -0.00000
   O      3.86691   1.93345   9.08178   0.00298   0.00231  -0.00000
   O      3.86691   5.80036   9.08087   0.00217   0.00163  -0.00000
   O      5.80403   3.86324   9.08087  -0.00229  -0.00234  -0.00143
   O      5.80902   3.85825   3.02696   0.00266   0.00366  -0.00612
PRIMCOORD   31
     39   1
   Bi     0.00000   7.72928   4.29046   0.00000  -0.00275  -0.00759
   Bi     0.00000   7.72993   7.81360   0.00000  -0.00304  -0.00278
   Bi     1.93734   1.93345  10.34815   0.00304   0.00000   0.00278
   Bi     1.93800   1.93345   1.76345   0.00275  -0.00000   0.00759
   Bi     0.00000   3.87145   4.29046   0.00000   0.00275  -0.00759
   Bi     0.00000   3.87080   7.81360  -0.00000   0.00304  -0.00278
   Bi     3.86691   7.69346   4.28990   0.00000   0.00568   0.01531
   Bi     3.86691   7.73117   7.80447   0.00000  -0.00269   0.00332
   Bi     1.93610   5.80036  10.35727   0.00269   0.00000  -0.00332
   Bi     1.97381   5.80036   1.76402  -0.00568  -0.00000  -0.01531
   Bi     5.79647   1.93345  10.34815  -0.00304   0.00000   0.00278
   Bi     5.79582   1.93345   1.76345  -0.00275  -0.00000   0.00759
   Bi     3.86691   3.90726   4.28990   0.00000  -0.00568   0.01531
   Bi     3.86691   3.86955   7.80447   0.00000   0.00269   0.00332
   Bi     5.79772   5.80036  10.35727  -0.00269   0.00000  -0.00332
   Bi     5.76001   5.80036   1.76402   0.00568  -0.00000  -0.01531
   Se     0.00000   7.71618   0.02988  -0.00000   0.00817   0.03040
   Se     1.95109   1.93345   6.02403  -0.00817  -0.00000  -0.03040
   Se     0.00000   3.88454   0.02988  -0.00000  -0.00817   0.03040
   Se     3.86691   7.72892  12.10481   0.00000   0.00407  -0.03065
   Se     1.93835   5.80036   6.05694  -0.00407   0.00000   0.03065
   Se     5.78273   1.93345   6.02403   0.00817   0.00000  -0.03040
   Se     3.86691   3.87180  12.10481  -0.00000  -0.00407  -0.03065
   Se     5.79547   5.80036   6.05694   0.00407   0.00000   0.03065
   O      0.00000   1.93345   3.02696   0.00000   0.00000  -0.00000
   O      0.00000   5.80036   9.07997  -0.00000  -0.00000  -0.00142
   O      0.00000   5.80036   3.00091   0.00000  -0.00000  -0.01381
   O      0.00000   1.93345   9.08087  -0.00000   0.00000   0.00000
   O      5.80902   0.00866   3.02696  -0.00660  -0.00660  -0.00000
   O      1.92979   0.00367   9.08087   0.00120  -0.00120  -0.00000
   O      1.92479   0.00866   3.02696   0.00660  -0.00660  -0.00000
   O      5.80403   0.00367   9.08087  -0.00120  -0.00120   0.00000
   O      1.92979   3.86324   9.08087   0.00120   0.00120  -0.00000
   O      1.92479   3.85825   3.02696   0.00660   0.00660  -0.00000
   O      3.86691   1.93345   3.05300  -0.00000  -0.00000   0.01381
   O      3.86691   1.93345   9.08178   0.00000  -0.00000   0.00142
   O      3.86691   5.80036   9.08087  -0.00000  -0.00000   0.00000
   O      5.80403   3.86324   9.08087  -0.00120   0.00120   0.00000
   O      5.80902   3.85825   3.02696  -0.00660   0.00660   0.00000
PRIMCOORD   32
     39   1
   Bi     0.00000   7.72928   4.29046  -0.00477   0.00108   0.02811
   Bi     0.00000   7.72993   7.81360   0.00013   0.00297   0.02294
   Bi     1.93734   1.93345  10.34815   0.00148   0.00026   0.01145
   Bi     1.93800   1.93345   1.76345   0.00054  -0.00957   0.01403
   Bi     0.00000   3.87145   4.29046  -0.00477   0.00108  -0.02811
   Bi     0.00000   3.87080   7.81360   0.00013   0.00297  -0.02294
   Bi     3.86691   7.69346   4.28990   0.00095   0.00635  -0.00821
   Bi     3.86691   7.73117   7.80447  -0.00253   0.00199  -0.00939
   Bi     1.93610   5.80036  10.35727   0.00099  -0.00507  -0.00469
   Bi     1.97381   5.80036   1.76402   0.00317   0.00191  -0.00409
   Bi     5.79647   1.93345  10.34815   0.00148   0.00026  -0.01145
   Bi     5.79582   1.93345   1.76345   0.00054  -0.00957  -0.01403
   Bi     3.86691   3.90726   4.28990   0.00095   0.00635   0.00821
   Bi     3.86691   3.86955   7.80447  -0.00253   0.00199   0.00939
   Bi     5.79772   5.80036  10.35727   0.00099  -0.00507   0.00469
   Bi     5.76001   5.80036   1.76402   0.00317   0.00191   0.00409
   Se     0.00000   7.71618   0.02988   0.00200  -0.02570  -0.03176
   Se     1.95109   1.93345   6.02403  -0.01283   0.00400  -0.01585
   Se     0.00000   3.88454   0.02988   0.00200  -0.02570   0.03176
   Se     3.86691   7.72892  12.10481   0.00337   0.01525  -0.01225
   Se     1.93835   5.80036   6.05694   0.00761   0.00675  -0.00611
   Se     5.78273   1.93345   6.02403  -0.01283   0.00400   0.01585
   Se     3.86691   3.87180  12.10481   0.00337   0.01525   0.01225
   Se     5.79547   5.80036   6.05694   0.00761   0.00675   0.00611
   O      0.00000   1.93345   3.02696  -0.00259  -0.00520   0.00000
   O      0.00000   5.80036   9.07997   0.00105  -0.00465   0.00000
   O      0.00000   5.80036   3.00091  -0.00032   0.00372   0.00000
   O      0.00000   1.93345   9.08087   0.00208   0.00417  -0.00000
   O      5.80902   0.00866   3.02696   0.00514   0.00240   0.00324
   O      1.92979   0.00367   9.08087   0.00194   0.00066   0.00747
   O      1.92479   0.00866   3.02696  -0.00536  -0.00284   0.00971
   O      5.80403   0.00367   9.08087  -0.00234  -0.00147   0.00250
   O      1.92979   3.86324   9.08087  -0.00234  -0.00147  -0.00250
   O      1.92479   3.85825   3.02696   0.00514   0.00240  -0.00324
   O      3.86691   1.93345   3.05300   0.00185  -0.00065   0.00000
   O      3.86691   1.93345   9.08178  -0.00232   0.00211   0.00000
   O      3.86691   5.80036   9.08087   0.00100   0.00201   0.00000
   O      5.80403   3.86324   9.08087   0.00194   0.00066  -0.00747
   O      5.80902   3.85825   3.02696  -0.00536  -0.00284  -0.00971
PRIMCOORD   33
     39   1
   Bi     0.00000   7.72928   4.29046  -0.00957  -0.00054  -0.01403
   Bi     0.00000   7.72993   7.81360   0.00026  -0.00148  -0.01145
   Bi     1.93734   1.93345  10.34815   0.00297  -0.00013   0.02294
   Bi     1.93800   1.93345   1.76345   0.00108   0.00477   0.02811
   Bi     0.00000   3.87145   4.29046  -0.00957  -0.00054   0.01403
   Bi     0.00000   3.87080   7.81360   0.00026  -0.00148   0.01145
   Bi     3.86691   7.69346   4.28990   0.00191  -0.00317   0.00409
   Bi     3.86691   7.73117   7.80447  -0.00507  -0.00099   0.00469
   Bi     1.93610   5.80036  10.35727   0.00199   0.00253  -0.00939
   Bi     1.97381   5.80036   1.76402   0.00635  -0.00095  -0.00821
   Bi     5.79647   1.93345  10.34815   0.00297  -0.00013  -0.02294
   Bi     5.79582   1.93345   1.76345   0.00108   0.00477  -0.02811
   Bi     3.86691   3.90726   4.28990   0.00191  -0.00317  -0.00409
   Bi     3.86691   3.86955   7.80447  -0.00507  -0.00099  -0.00469
   Bi     5.79772   5.80036  10.35727   0.00199   0.00253   0.00939
   Bi     5.76001   5.80036   1.76402   0.00635  -0.00095   0.00821
   Se     0.00000   7.71618   0.02988   0.00400   0.01283   0.01585
   Se     1.95109   1.93345   6.02403  -0.02570  -0.00200  -0.03176
   Se     0.00000   3.88454   0.02988   0.00400   0.01283  -0.01585
   Se     3.86691   7.72892  12.10481   0.00675  -0.00761   0.00611
   Se     1.93835   5.80036   6.05694   0.01525  -0.00337  -0.01225
   Se     5.78273   1.93345   6.02403  -0.02570  -0.00200   0.03176
   Se     3.86691   3.87180  12.10481   0.00675  -0.00761  -0.00611
   Se     5.79547   5.80036   6.05694   0.01525  -0.00337   0.01225
   O      0.00000   1.93345   3.02696  -0.00520   0.00259   0.00000
   O      0.00000   5.80036   9.07997   0.00211   0.00232  -0.00000
   O      0.00000   5.80036   3.00091  -0.00065  -0.00185  -0.00000
   O      0.00000   1.93345   9.08087   0.00417  -0.00208  -0.00000
   O      5.80902   0.00866   3.02696  -0.00284   0.00536  -0.00971
   O      1.92979   0.00367   9.08087  -0.00147   0.00234   0.00250
   O      1.92479   0.00866   3.02696   0.00240  -0.00514   0.00324
   O      5.80403   0.00367   9.08087   0.00066  -0.00194  -0.00747
   O      1.92979   3.86324   9.08087   0.00066  -0.00194   0.00747
   O      1.92479   3.85825   3.02696  -0.00284   0.00536   0.00971
   O      3.86691   1.93345   3.05300   0.00372   0.00032   0.00000
   O      3.86691   1.93345   9.08178  -0.00465  -0.00105   0.00000
   O      3.86691   5.80036   9.08087   0.00201  -0.00100  -0.00000
   O      5.80403   3.86324   9.08087  -0.00147   0.00234  -0.00250
   O      5.80902   3.85825   3.02696   0.00240  -0.00514  -0.00324
PRIMCOORD   34
     39   1
   Bi     0.00000   7.72928   4.29046   0.00816   0.00016   0.00012
   Bi     0.00000   7.72993   7.81360   0.01542   0.00022  -0.00008
   Bi     1.93734   1.93345  10.34815  -0.01266  -0.00027   0.00473
   Bi     1.93800   1.93345   1.76345  -0.00892  -0.00014  -0.00704
   Bi     0.00000   3.87145   4.29046   0.00816   0.00016  -0.00012
   Bi     0.00000   3.87080   7.81360   0.01542   0.00022   0.00008
   Bi     3.86691   7.69346   4.28990   0.00095   0.00003   0.00007
   Bi     3.86691   7.73117   7.80447   0.00824   0.00017  -0.00019
   Bi     1.93610   5.80036  10.35727  -0.00991  -0.00014   0.01098
   Bi     1.97381   5.80036   1.76402  -0.00200  -0.00002  -0.00414
   Bi     5.79647   1.93345  10.34815  -0.01266  -0.00027  -0.00473
   Bi     5.79582   1.93345   1.76345  -0.00892  -0.00014   0.00704
   Bi     3.86691   3.90726   4.28990   0.00095   0.00003  -0.00007
   Bi     3.86691   3.86955   7.80447   0.00824   0.00017   0.00019
   Bi     5.79772   5.80036  10.35727  -0.00991  -0.00014  -0.01098
   Bi     5.76001   5.80036   1.76402  -0.00200  -0.00002   0.00414
   Se     0.00000   7.71618   0.02988  -0.01146   0.00025  -0.00009
   Se     1.95109   1.93345   6.02403  -0.01416   0.00020   0.00498
   Se     0.00000   3.88454   0.02988  -0.01146   0.00025   0.00009
   Se     3.86691   7.72892  12.10481  -0.02630  -0.00091   0.00021
   Se     1.93835   5.80036   6.05694   0.05247   0.00046  -0.01199
   Se     5.78273   1.93345   6.02403  -0.01416   0.00020  -0.00498
   Se     3.86691   3.87180  12.10481  -0.02630  -0.00091  -0.00021
   Se     5.79547   5.80036   6.05694   0.05247   0.00046   0.01199
   O      0.00000   1.93345   3.02696  -0.00249   0.00004   0.00000
   O      0.00000   5.80036   9.07997   0.00075   0.00006  -0.00000
   O      0.00000   5.80036   3.00091  -0.00101   0.00011  -0.00000
   O      0.00000   1.93345   9.08087  -0.00572   0.00010   0.00000
   O      5.80902   0.00866   3.02696   0.00439   0.00099   0.00071
   O      1.92979   0.00367   9.08087   0.00362  -0.00098   0.00250
   O      1.92479   0.00866   3.02696   0.00442  -0.00114  -0.00069
   O      5.80403   0.00367   9.08087   0.00359   0.00085  -0.00259
   O      1.92979   3.86324   9.08087   0.00359   0.00085   0.00259
   O      1.92479   3.85825   3.02696   0.00439   0.00099  -0.00071
   O      3.86691   1.93345   3.05300  -0.00605   0.00002  -0.00000
   O      3.86691   1.93345   9.08178  -0.00366  -0.00001  -0.00000
   O      3.86691   5.80036   9.08087  -0.00062   0.00001   0.00000
   O      5.80403   3.86324   9.08087   0.00362  -0.00098  -0.00250
   O      5.80902   3.85825   3.02696   0.00442  -0.00114   0.00069
PRIMCOORD   35
     39   1
   Bi     0.00000   7.72928   4.29046   0.00014  -0.00892  -0.00704
   Bi     0.00000   7.72993   7.81360   0.00027  -0.01266   0.00473
   Bi     1.93734   1.93345  10.34815  -0.00022   0.01542   0.00008
   Bi     1.93800   1.93345   1.76345  -0.00016   0.00816  -0.00012
   Bi     0.00000   3.87145   4.29046   0.00014  -0.00892   0.00704
   Bi     0.00000   3.87080   7.81360   0.00027  -0.01266  -0.00473
   Bi     3.86691   7.69346   4.28990   0.00002  -0.00200  -0.00414
   Bi     3.86691   7.73117   7.80447   0.00014  -0.00991   0.01098
   Bi     1.93610   5.80036  10.35727  -0.00017   0.00824   0.00019
   Bi     1.97381   5.80036   1.76402  -0.00003   0.00095  -0.00007
   Bi     5.79647   1.93345  10.34815  -0.00022   0.01542  -0.00008
   Bi     5.79582   1.93345   1.76345  -0.00016   0.00816   0.00012
   Bi     3.86691   3.90726   4.28990   0.00002  -0.00200   0.00414
   Bi     3.86691   3.86955   7.80447   0.00014  -0.00991  -0.01098
   Bi     5.79772   5.80036  10.35727  -0.00017   0.00824  -0.00019
   Bi     5.76001   5.80036   1.76402  -0.00003   0.00095   0.00007
   Se     0.00000   7.71618   0.02988  -0.00020  -0.01416   0.00498
   Se     1.95109   1.93345   6.02403  -0.00025  -0.01146   0.00009
   Se     0.00000   3.88454   0.02988  -0.00020  -0.01416  -0.00498
   Se     3.86691   7.72892  12.10481  -0.00046   0.05247  -0.01199
   Se     1.93835   5.80036   6.05694   0.00091  -0.02630  -0.00021
   Se     5.78273   1.93345   6.02403  -0.00025  -0.01146  -0.00009
   Se     3.86691   3.87180  12.10481  -0.00046   0.05247   0.01199
   Se     5.79547   5.80036   6.05694   0.00091  -0.02630   0.00021
   O      0.00000   1.93345   3.02696  -0.00004  -0.00249   0.00000
   O      0.00000   5.80036   9.07997   0.00001  -0.00366  -0.00000
   O      0.00000   5.80036   3.00091  -0.00002  -0.00605  -0.00000
   O      0.00000   1.93345   9.08087  -0.00010  -0.00572   0.00000
   O      5.80902   0.00866   3.02696   0.00114   0.00442  -0.00069
   O      1.92979   0.00367   9.08087  -0.00085   0.00359   0.00259
   O      1.92479   0.00866   3.02696  -0.00099   0.00439  -0.00071
   O      5.80403   0.00367   9.08087   0.00098   0.00362   0.00250
   O      1.92979   3.86324   9.08087   0.00098   0.00362  -0.00250
   O      1.92479   3.85825   3.02696   0.00114   0.00442   0.00069
   O      3.86691   1.93345   3.05300  -0.00011  -0.00101  -0.00000
   O      3.86691   1.93345   9.08178  -0.00006   0.00075  -0.00000
   O      3.86691   5.80036   9.08087  -0.00001  -0.00062   0.00000
   O      5.80403   3.86324   9.08087  -0.00085   0.00359  -0.00259
   O      5.80902   3.85825   3.02696  -0.00099   0.00439   0.00071
PRIMCOORD   36
     39   1
   Bi     0.00000   7.72928   4.29046   0.00000   0.00870  -0.00113
   Bi     0.00000   7.72993   7.81360   0.00000  -0.03450  -0.00812
   Bi     1.93734   1.93345  10.34815  -0.03450   0.00000  -0.00812
   Bi     1.93800   1.93345   1.76345   0.00870   0.00000  -0.00113
   Bi     0.00000   3.87145   4.29046   0.00000  -0.00870  -0.00113
   Bi     0.00000   3.87080   7.81360   0.00000   0.03450  -0.00812
   Bi     3.86691   7.69346   4.28990  -0.00000  -0.01236  -0.00073
   Bi     3.86691   7.73117   7.80447   0.00000   0.02565   0.00872
   Bi     1.93610   5.80036  10.35727   0.02565   0.00000   0.00872
   Bi     1.97381   5.80036   1.76402  -0.01236   0.00000  -0.00073
   Bi     5.79647   1.93345  10.34815   0.03450   0.00000  -0.00812
   Bi     5.79582   1.93345   1.76345  -0.00870   0.00000  -0.00113
   Bi     3.86691   3.90726   4.28990  -0.00000   0.01236  -0.00073
   Bi     3.86691   3.86955   7.80447   0.00000  -0.02565   0.00872
   Bi     5.79772   5.80036  10.35727  -0.02565   0.00000   0.00872
   Bi     5.76001   5.80036   1.76402   0.01236   0.00000  -0.00073
   Se     0.00000   7.71618   0.02988  -0.00000   0.00492   0.00372
   Se     1.95109   1.93345   6.02403   0.00492  -0.00000   0.00372
   Se     0.00000   3.88454   0.02988  -0.00000  -0.00492   0.00372
   Se     3.86691   7.72892  12.10481  -0.00000  -0.00977  -0.00070
   Se     1.93835   5.80036   6.05694  -0.00977  -0.00000  -0.00070
   Se     5.78273   1.93345   6.02403  -0.00492  -0.00000   0.00372
   Se     3.86691   3.87180  12.10481  -0.00000   0.00977  -0.00070
   Se     5.79547   5.80036   6.05694   0.00977  -0.00000  -0.00070
   O      0.00000   1.93345   3.02696  -0.00000  -0.00000  -0.00626
   O      0.00000   5.80036   9.07997  -0.00000  -0.00000   0.01074
   O      0.00000   5.80036   3.00091  -0.00000  -0.00000   0.00392
   O      0.00000   1.93345   9.08087  -0.00000  -0.00000  -0.01622
   O      5.80902   0.00866   3.02696  -0.00039   0.00039  -0.00081
   O      1.92979   0.00367   9.08087  -0.00116  -0.00116   0.00100
   O      1.92479   0.00866   3.02696   0.00039   0.00039  -0.00081
   O      5.80403   0.00367   9.08087   0.00116  -0.00116   0.00100
   O      1.92979   3.86324   9.08087  -0.00116   0.00116   0.00100
   O      1.92479   3.85825   3.02696   0.00039  -0.00039  -0.00081
   O      3.86691   1.93345   3.05300  -0.00000  -0.00000   0.00392
   O      3.86691   1.93345   9.08178  -0.00000   0.00000   0.01074
   O      3.86691   5.80036   9.08087   0.00000  -0.00000  -0.00075
   O      5.80403   3.86324   9.08087   0.00116   0.00116   0.00100
   O      5.80902   3.85825   3.02696  -0.00039  -0.00039  -0.00081
PRIMCOORD   37
     39   1
   Bi     0.00000   7.72928   4.29046   0.00222   0.00599  -0.01524
   Bi     0.00000   7.72993   7.81360   0.00337  -0.00026   0.01542
   Bi     1.93734   1.93345  10.34815  -0.00019   0.00466   0.01113
   Bi     1.93800   1.93345   1.76345   0.00432   0.00307  -0.01100
   Bi     0.00000   3.87145   4.29046   0.00222   0.00599   0.01524
   Bi     0.00000   3.87080   7.81360   0.00337  -0.00026  -0.01542
   Bi     3.86691   7.69346   4.28990  -0.01151   0.00775  -0.01921
   Bi     3.86691   7.73117   7.80447  -0.00733   0.00457   0.01502
   Bi     1.93610   5.80036  10.35727   0.00330  -0.01016   0.01084
   Bi     1.97381   5.80036   1.76402   0.00560  -0.01595  -0.01386
   Bi     5.79647   1.93345  10.34815  -0.00019   0.00466  -0.01113
   Bi     5.79582   1.93345   1.76345   0.00432   0.00307   0.01100
   Bi     3.86691   3.90726   4.28990  -0.01151   0.00775   0.01921
   Bi     3.86691   3.86955   7.80447  -0.00733   0.00457  -0.01502
   Bi     5.79772   5.80036  10.35727   0.00330  -0.01016  -0.01084
   Bi     5.76001   5.80036   1.76402   0.00560  -0.01595   0.01386
   Se     0.00000   7.71618   0.02988   0.01654   0.00187  -0.01553
   Se     1.95109   1.93345   6.02403   0.00135   0.02292  -0.01121
   Se     0.00000   3.88454   0.02988   0.01654   0.00187   0.01553
   Se     3.86691   7.72892  12.10481  -0.00991  -0.01047   0.02280
   Se     1.93835   5.80036   6.05694  -0.00756  -0.01374   0.01645
   Se     5.78273   1.93345   6.02403   0.00135   0.02292   0.01121
   Se     3.86691   3.87180  12.10481  -0.00991  -0.01047  -0.02280
   Se     5.79547   5.80036   6.05694  -0.00756  -0.01374  -0.01645
   O      0.00000   1.93345   3.02696  -0.00023  -0.00032   0.00000
   O      0.00000   5.80036   9.07997  -0.00073   0.00249  -0.00000
   O      0.00000   5.80036   3.00091  -0.00043   0.00175   0.00000
   O      0.00000   1.93345   9.08087  -0.00060  -0.00083  -0.00000
   O      5.80902   0.00866   3.02696   0.00175   0.00088  -0.00170
   O      1.92979   0.00367   9.08087   0.00211   0.00161   0.00596
   O      1.92479   0.00866   3.02696  -0.00290  -0.00248  -0.01051
   O      5.80403   0.00367   9.08087  -0.00183  -0.00122   0.00096
   O      1.92979   3.86324   9.08087  -0.00183  -0.00122  -0.00096
   O      1.92479   3.85825   3.02696   0.00175   0.00088   0.00170
   O      3.86691   1.93345   3.05300   0.00127  -0.00059   0.00000
   O      3.86691   1.93345   9.08178   0.00180  -0.00102  -0.00000
   O      3.86691   5.80036   9.08087   0.00248   0.00343  -0.00000
   O      5.80403   3.86324   9.08087   0.00211   0.00161  -0.00596
   O      5.80902   3.85825   3.02696  -0.00290  -0.00248   0.01051
PRIMCOORD   38
     39   1
   Bi     0.00000   7.72928   4.29046   0.00307  -0.00432   0.01100
   Bi     0.00000   7.72993   7.81360   0.00466   0.00019  -0.01113
   Bi     1.93734   1.93345  10.34815  -0.00026  -0.00337   0.01542
   Bi     1.93800   1.93345   1.76345   0.00599  -0.00222  -0.01524
   Bi     0.00000   3.87145   4.29046   0.00307  -0.00432  -0.01100
   Bi     0.00000   3.87080   7.81360   0.00466   0.00019   0.01113
   Bi     3.86691   7.69346   4.28990  -0.01595  -0.00560   0.01386
   Bi     3.86691   7.73117   7.80447  -0.01016  -0.00330  -0.01084
   Bi     1.93610   5.80036  10.35727   0.00457   0.00733   0.01502
   Bi     1.97381   5.80036   1.76402   0.00775   0.01151  -0.01921
   Bi     5.79647   1.93345  10.34815  -0.00026  -0.00337  -0.01542
   Bi     5.79582   1.93345   1.76345   0.00599  -0.00222   0.01524
   Bi     3.86691   3.90726   4.28990  -0.01595  -0.00560  -0.01386
   Bi     3.86691   3.86955   7.80447  -0.01016  -0.00330   0.01084
   Bi     5.79772   5.80036  10.35727   0.00457   0.00733  -0.01502
   Bi     5.76001   5.80036   1.76402   0.00775   0.01151   0.01921
   Se     0.00000   7.71618   0.02988   0.02292  -0.00135   0.01121
   Se     1.95109   1.93345   6.02403   0.00187  -0.01654  -0.01553
   Se     0.00000   3.88454   0.02988   0.02292  -0.00135  -0.01121
   Se     3.86691   7.72892  12.10481  -0.01374   0.00756  -0.01645
   Se     1.93835   5.80036   6.05694  -0.01047   0.00991   0.02280
   Se     5.78273   1.93345   6.02403   0.00187  -0.01654   0.01553
   Se     3.86691   3.87180  12.10481  -0.01374   0.00756   0.01645
   Se     5.79547   5.80036   6.05694  -0.01047   0.00991  -0.02280
   O      0.00000   1.93345   3.02696  -0.00032   0.00023   0.00000
   O      0.00000   5.80036   9.07997  -0.00102  -0.00180  -0.00000
   O      0.00000   5.80036   3.00091  -0.00059  -0.00127   0.00000
   O      0.00000   1.93345   9.08087  -0.00083   0.00060  -0.00000
   O      5.80902   0.00866   3.02696  -0.00248   0.00290   0.01051
   O      1.92979   0.00367   9.08087  -0.00122   0.00183   0.00096
   O      1.92479   0.00866   3.02696   0.00088  -0.00175  -0.00170
   O      5.80403   0.00367   9.08087   0.00161  -0.00211  -0.00596
   O      1.92979   3.86324   9.08087   0.00161  -0.00211   0.00596
   O      1.92479   3.85825   3.02696  -0.00248   0.00290  -0.01051
   O      3.86691   1.93345   3.05300   0.00175   0.00043   0.00000
   O      3.86691   1.93345   9.08178   0.00249   0.00073  -0.00000
   O      3.86691   5.80036   9.08087   0.00343  -0.00248  -0.00000
   O      5.80403   3.86324   9.08087  -0.00122   0.00183  -0.00096
   O      5.80902   3.85825   3.02696   0.00088  -0.00175   0.00170
PRIMCOORD   39
     39   1
   Bi     0.00000   7.72928   4.29046   0.00000   0.00114  -0.02203
   Bi     0.00000   7.72993   7.81360   0.00000   0.00235   0.00992
   Bi     1.93734   1.93345  10.34815   0.00235   0.00000   0.00992
   Bi     1.93800   1.93345   1.76345   0.00114   0.00000  -0.02203
   Bi     0.00000   3.87145   4.29046  -0.00000  -0.00114  -0.02203
   Bi     0.00000   3.87080   7.81360  -0.00000  -0.00235   0.00992
   Bi     3.86691   7.69346   4.28990  -0.00000   0.00093  -0.01083
   Bi     3.86691   7.73117   7.80447  -0.00000  -0.00113   0.01431
   Bi     1.93610   5.80036  10.35727  -0.00113  -0.00000   0.01431
   Bi     1.97381   5.80036   1.76402   0.00093  -0.00000  -0.01083
   Bi     5.79647   1.93345  10.34815  -0.00235  -0.00000   0.00992
   Bi     5.79582   1.93345   1.76345  -0.00114  -0.00000  -0.02203
   Bi     3.86691   3.90726   4.28990   0.00000  -0.00093  -0.01083
   Bi     3.86691   3.86955   7.80447   0.00000   0.00113   0.01431
   Bi     5.79772   5.80036  10.35727   0.00113   0.00000   0.01431
   Bi     5.76001   5.80036   1.76402  -0.00093   0.00000  -0.01083
   Se     0.00000   7.71618   0.02988  -0.00000   0.00199   0.02707
   Se     1.95109   1.93345   6.02403   0.00199  -0.00000   0.02707
   Se     0.00000   3.88454   0.02988   0.00000  -0.00199   0.02707
   Se     3.86691   7.72892  12.10481   0.00000   0.00357  -0.00647
   Se     1.93835   5.80036   6.05694   0.00357   0.00000  -0.00647
   Se     5.78273   1.93345   6.02403  -0.00199   0.00000   0.02707
   Se     3.86691   3.87180  12.10481  -0.00000  -0.00357  -0.00647
   Se     5.79547   5.80036   6.05694  -0.00357  -0.00000  -0.00647
   O      0.00000   1.93345   3.02696  -0.00000   0.00000  -0.01622
   O      0.00000   5.80036   9.07997   0.00000   0.00000   0.01461
   O      0.00000   5.80036   3.00091   0.00000  -0.00000  -0.01110
   O      0.00000   1.93345   9.08087   0.00000   0.00000   0.01263
   O      5.80902   0.00866   3.02696  -0.00059   0.00059  -0.01161
   O      1.92979   0.00367   9.08087  -0.00115  -0.00115   0.01650
   O      1.92479   0.00866   3.02696   0.00059   0.00059  -0.01161
   O      5.80403   0.00367   9.08087   0.00115  -0.00115   0.01650
   O      1.92979   3.86324   9.08087  -0.00115   0.00115   0.01650
   O      1.92479   3.85825   3.02696   0.00059  -0.00059  -0.01161
   O      3.86691   1.93345   3.05300  -0.00000   0.00000  -0.01110
   O      3.86691   1.93345   9.08178   0.00000  -0.00000   0.01461
   O      3.86691   5.80036   9.08087   0.00000   0.00000   0.02091
   O      5.80403   3.86324   9.08087   0.00115   0.00115   0.01650
   O      5.80902   3.85825   3.02696  -0.00059  -0.00059  -0.01161
PRIMCOORD   40
     39   1
   Bi     0.00000   7.72928   4.29046   0.02050  -0.00000   0.00000
   Bi     0.00000   7.72993   7.81360   0.02632  -0.00000  -0.00000
   Bi     1.93734   1.93345  10.34815  -0.00000   0.02632  -0.00000
   Bi     1.93800   1.93345   1.76345  -0.00000   0.02050   0.00000
   Bi     0.00000   3.87145   4.29046  -0.02050  -0.00000   0.00000
   Bi     0.00000   3.87080   7.81360  -0.02632   0.00000  -0.00000
   Bi     3.86691   7.69346   4.28990  -0.01600  -0.00000   0.00000
   Bi     3.86691   7.73117   7.80447  -0.02542   0.00000  -0.00000
   Bi     1.93610   5.80036  10.35727   0.00000  -0.02542  -0.00000
   Bi     1.97381   5.80036   1.76402   0.00000  -0.01600   0.00000
   Bi     5.79647   1.93345  10.34815   0.00000  -0.02632  -0.00000
   Bi     5.79582   1.93345   1.76345   0.00000  -0.02050   0.00000
   Bi     3.86691   3.90726   4.28990   0.01600  -0.00000   0.00000
   Bi     3.86691   3.86955   7.80447   0.02542  -0.00000  -0.00000
   Bi     5.79772   5.80036  10.35727   0.00000   0.02542  -0.00000
   Bi     5.76001   5.80036   1.76402   0.00000   0.01600   0.00000
   Se     0.00000   7.71618   0.02988  -0.01476  -0.00000  -0.00000
   Se     1.95109   1.93345   6.02403  -0.00000  -0.01476  -0.00000
   Se     0.00000   3.88454   0.02988   0.01476  -0.00000  -0.00000
   Se     3.86691   7.72892  12.10481   0.01412   0.00000  -0.00000
   Se     1.93835   5.80036   6.05694  -0.00000   0.01412  -0.00000
   Se     5.78273   1.93345   6.02403   0.00000   0.01476  -0.00000
   Se     3.86691   3.87180  12.10481  -0.01412   0.00000   0.00000
   Se     5.79547   5.80036   6.05694  -0.00000  -0.01412   0.00000
   O      0.00000   1.93345   3.02696   0.00000   0.00000   0.00000
   O      0.00000   5.80036   9.07997   0.00000  -0.00000  -0.00000
   O      0.00000   5.80036   3.00091   0.00000  -0.00000   0.00000
   O      0.00000   1.93345   9.08087   0.00000   0.00000  -0.00000
   O      5.80902   0.00866   3.02696   0.00086  -0.00086   0.00425
   O      1.92979   0.00367   9.08087   0.00054   0.00054   0.00687
   O      1.92479   0.00866   3.02696   0.00086   0.00086  -0.00425
   O      5.80403   0.00367   9.08087   0.00054  -0.00054  -0.00687
   O      1.92979   3.86324   9.08087  -0.00054   0.00054  -0.00687
   O      1.92479   3.85825   3.02696  -0.00086   0.00086   0.00425
   O      3.86691   1.93345   3.05300  -0.00000   0.00000   0.00000
   O      3.86691   1.93345   9.08178   0.00000   0.00000  -0.00000
   O      3.86691   5.80036   9.08087  -0.00000  -0.00000  -0.00000
   O      5.80403   3.86324   9.08087  -0.00054  -0.00054   0.00687
   O      5.80902   3.85825   3.02696  -0.00086  -0.00086  -0.00425
PRIMCOORD   41
     39   1
   Bi     0.00000   7.72928   4.29046   0.00000  -0.00384  -0.00106
   Bi     0.00000   7.72993   7.81360  -0.00000  -0.00222   0.00788
   Bi     1.93734   1.93345  10.34815  -0.00222   0.00000   0.00788
   Bi     1.93800   1.93345   1.76345  -0.00384   0.00000  -0.00106
   Bi     0.00000   3.87145   4.29046  -0.00000   0.00384  -0.00106
   Bi     0.00000   3.87080   7.81360  -0.00000   0.00222   0.00788
   Bi     3.86691   7.69346   4.28990   0.00000   0.00007  -0.01610
   Bi     3.86691   7.73117   7.80447   0.00000   0.00203  -0.00047
   Bi     1.93610   5.80036  10.35727   0.00203  -0.00000  -0.00047
   Bi     1.97381   5.80036   1.76402   0.00007  -0.00000  -0.01610
   Bi     5.79647   1.93345  10.34815   0.00222  -0.00000   0.00788
   Bi     5.79582   1.93345   1.76345   0.00384  -0.00000  -0.00106
   Bi     3.86691   3.90726   4.28990   0.00000  -0.00007  -0.01610
   Bi     3.86691   3.86955   7.80447   0.00000  -0.00203  -0.00047
   Bi     5.79772   5.80036  10.35727  -0.00203   0.00000  -0.00047
   Bi     5.76001   5.80036   1.76402  -0.00007   0.00000  -0.01610
   Se     0.00000   7.71618   0.02988   0.00000  -0.00267  -0.01742
   Se     1.95109   1.93345   6.02403  -0.00267   0.00000  -0.01742
   Se     0.00000   3.88454   0.02988   0.00000   0.00267  -0.01742
   Se     3.86691   7.72892  12.10481  -0.00000  -0.00043   0.04051
   Se     1.93835   5.80036   6.05694  -0.00043  -0.00000   0.04051
   Se     5.78273   1.93345   6.02403   0.00267   0.00000  -0.01742
   Se     3.86691   3.87180  12.10481  -0.00000   0.00043   0.04051
   Se     5.79547   5.80036   6.05694   0.00043  -0.00000   0.04051
   O      0.00000   1.93345   3.02696  -0.00000  -0.00000   0.00633
   O      0.00000   5.80036   9.07997  -0.00000   0.00000   0.01019
   O      0.00000   5.80036   3.00091   0.00000   0.00000  -0.00424
   O      0.00000   1.93345   9.08087  -0.00000  -0.00000   0.01235
   O      5.80902   0.00866   3.02696   0.00081  -0.00081  -0.00320
   O      1.92979   0.00367   9.08087   0.00185   0.00185   0.00859
   O      1.92479   0.00866   3.02696  -0.00081  -0.00081  -0.00320
   O      5.80403   0.00367   9.08087  -0.00185   0.00185   0.00859
   O      1.92979   3.86324   9.08087   0.00185  -0.00185   0.00859
   O      1.92479   3.85825   3.02696  -0.00081   0.00081  -0.00320
   O      3.86691   1.93345   3.05300   0.00000   0.00000  -0.00424
   O      3.86691   1.93345   9.08178   0.00000  -0.00000   0.01019
   O      3.86691   5.80036   9.08087   0.00000   0.00000   0.00103
   O      5.80403   3.86324   9.08087  -0.00185  -0.00185   0.00859
   O      5.80902   3.85825   3.02696   0.00081   0.00081  -0.00320
PRIMCOORD   42
     39   1
   Bi     0.00000   7.72928   4.29046   0.00000  -0.00965  -0.01427
   Bi     0.00000   7.72993   7.81360   0.00000  -0.01092   0.02116
   Bi     1.93734   1.93345  10.34815   0.01092   0.00000  -0.02116
   Bi     1.93800   1.93345   1.76345   0.00965   0.00000   0.01427
   Bi     0.00000   3.87145   4.29046  -0.00000   0.00965  -0.01427
   Bi     0.00000   3.87080   7.81360  -0.00000   0.01092   0.02116
   Bi     3.86691   7.69346   4.28990  -0.00000  -0.00959   0.01578
   Bi     3.86691   7.73117   7.80447  -0.00000  -0.01126  -0.02048
   Bi     1.93610   5.80036  10.35727   0.01126  -0.00000   0.02048
   Bi     1.97381   5.80036   1.76402   0.00959  -0.00000  -0.01578
   Bi     5.79647   1.93345  10.34815  -0.01092  -0.00000  -0.02116
   Bi     5.79582   1.93345   1.76345  -0.00965  -0.00000   0.01427
   Bi     3.86691   3.90726   4.28990   0.00000   0.00959   0.01578
   Bi     3.86691   3.86955   7.80447   0.00000   0.01126  -0.02048
   Bi     5.79772   5.80036  10.35727  -0.01126   0.00000   0.02048
   Bi     5.76001   5.80036   1.76402  -0.00959   0.00000  -0.01578
   Se     0.00000   7.71618   0.02988  -0.00000  -0.00171  -0.01327
   Se     1.95109   1.93345   6.02403   0.00171  -0.00000   0.01327
   Se     0.00000   3.88454   0.02988   0.00000   0.00171  -0.01327
   Se     3.86691   7.72892  12.10481   0.00000   0.00044   0.00986
   Se     1.93835   5.80036   6.05694  -0.00044   0.00000  -0.00986
   Se     5.78273   1.93345   6.02403  -0.00171  -0.00000   0.01327
   Se     3.86691   3.87180  12.10481   0.00000  -0.00044   0.00986
   Se     5.79547   5.80036   6.05694   0.00044   0.00000  -0.00986
   O      0.00000   1.93345   3.02696   0.00000   0.00000  -0.00000
   O      0.00000   5.80036   9.07997   0.00000  -0.00000   0.02329
   O      0.00000   5.80036   3.00091  -0.00000  -0.00000  -0.01534
   O      0.00000   1.93345   9.08087   0.00000   0.00000  -0.00000
   O      5.80902   0.00866   3.02696  -0.00449  -0.00449   0.00000
   O      1.92979   0.00367   9.08087   0.00467  -0.00467  -0.00000
   O      1.92479   0.00866   3.02696   0.00449  -0.00449  -0.00000
   O      5.80403   0.00367   9.08087  -0.00467  -0.00467  -0.00000
   O      1.92979   3.86324   9.08087   0.00467   0.00467  -0.00000
   O      1.92479   3.85825   3.02696   0.00449   0.00449   0.00000
   O      3.86691   1.93345   3.05300  -0.00000   0.00000   0.01534
   O      3.86691   1.93345   9.08178  -0.00000   0.00000  -0.02329
   O      3.86691   5.80036   9.08087  -0.00000  -0.00000  -0.00000
   O      5.80403   3.86324   9.08087  -0.00467   0.00467  -0.00000
   O      5.80902   3.85825   3.02696  -0.00449   0.00449   0.00000
PRIMCOORD   43
     39   1
   Bi     0.00000   7.72928   4.29046   0.00151   0.00110  -0.00374
   Bi     0.00000   7.72993   7.81360   0.00452   0.00087   0.00631
   Bi     1.93734   1.93345  10.34815   0.00085   0.00459   0.00621
   Bi     1.93800   1.93345   1.76345   0.00108   0.00153  -0.00368
   Bi     0.00000   3.87145   4.29046   0.00151   0.00110   0.00374
   Bi     0.00000   3.87080   7.81360   0.00452   0.00087  -0.00631
   Bi     3.86691   7.69346   4.28990  -0.00347   0.00124  -0.00632
   Bi     3.86691   7.73117   7.80447  -0.00529   0.00058   0.00610
   Bi     1.93610   5.80036  10.35727   0.00058  -0.00538   0.00600
   Bi     1.97381   5.80036   1.76402   0.00122  -0.00353  -0.00622
   Bi     5.79647   1.93345  10.34815   0.00085   0.00459  -0.00621
   Bi     5.79582   1.93345   1.76345   0.00108   0.00153   0.00368
   Bi     3.86691   3.90726   4.28990  -0.00347   0.00124   0.00632
   Bi     3.86691   3.86955   7.80447  -0.00529   0.00058  -0.00610
   Bi     5.79772   5.80036  10.35727   0.00058  -0.00538  -0.00600
   Bi     5.76001   5.80036   1.76402   0.00122  -0.00353   0.00622
   Se     0.00000   7.71618   0.02988  -0.00994   0.00180   0.01419
   Se     1.95109   1.93345   6.02403   0.00177  -0.01010   0.01396
   Se     0.00000   3.88454   0.02988  -0.00994   0.00180  -0.01419
   Se     3.86691   7.72892  12.10481   0.01659  -0.01103  -0.03672
   Se     1.93835   5.80036   6.05694  -0.01085   0.01687  -0.03612
   Se     5.78273   1.93345   6.02403   0.00177  -0.01010  -0.01396
   Se     3.86691   3.87180  12.10481   0.01659  -0.01103   0.03672
   Se     5.79547   5.80036   6.05694  -0.01085   0.01687   0.03612
   O      0.00000   1.93345   3.02696   0.00604   0.00614   0.00000
   O      0.00000   5.80036   9.07997   0.00640  -0.00377   0.00000
   O      0.00000   5.80036   3.00091   0.00010  -0.00473   0.00000
   O      0.00000   1.93345   9.08087   0.00519   0.00528   0.00000
   O      5.80902   0.00866   3.02696  -0.00067  -0.00068  -0.00009
   O      1.92979   0.00367   9.08087  -0.00234  -0.00232   0.01548
   O      1.92479   0.00866   3.02696  -0.00047  -0.00048  -0.01062
   O      5.80403   0.00367   9.08087   0.00096   0.00092   0.00013
   O      1.92979   3.86324   9.08087   0.00096   0.00092  -0.00013
   O      1.92479   3.85825   3.02696  -0.00067  -0.00068   0.00009
   O      3.86691   1.93345   3.05300  -0.00465   0.00010  -0.00000
   O      3.86691   1.93345   9.08178  -0.00371   0.00651   0.00000
   O      3.86691   5.80036   9.08087  -0.00652  -0.00662   0.00000
   O      5.80403   3.86324   9.08087  -0.00234  -0.00232  -0.01548
   O      5.80902   3.85825   3.02696  -0.00047  -0.00048   0.01062
PRIMCOORD   44
     39   1
   Bi     0.00000   7.72928   4.29046   0.00153  -0.00108   0.00368
   Bi     0.00000   7.72993   7.81360   0.00459  -0.00085  -0.00621
   Bi     1.93734   1.93345  10.34815   0.00087  -0.00452   0.00631
   Bi     1.93800   1.93345   1.76345   0.00110  -0.00151  -0.00374
   Bi     0.00000   3.87145   4.29046   0.00153  -0.00108  -0.00368
   Bi     0.00000   3.87080   7.81360   0.00459  -0.00085   0.00621
   Bi     3.86691   7.69346   4.28990  -0.00353  -0.00122   0.00622
   Bi     3.86691   7.73117   7.80447  -0.00538  -0.00058  -0.00600
   Bi     1.93610   5.80036  10.35727   0.00058   0.00529   0.00610
   Bi     1.97381   5.80036   1.76402   0.00124   0.00347  -0.00632
   Bi     5.79647   1.93345  10.34815   0.00087  -0.00452  -0.00631
   Bi     5.79582   1.93345   1.76345   0.00110  -0.00151   0.00374
   Bi     3.86691   3.90726   4.28990  -0.00353  -0.00122  -0.00622
   Bi     3.86691   3.86955   7.80447  -0.00538  -0.00058   0.00600
   Bi     5.79772   5.80036  10.35727   0.00058   0.00529  -0.00610
   Bi     5.76001   5.80036   1.76402   0.00124   0.00347   0.00632
   Se     0.00000   7.71618   0.02988  -0.01010  -0.00177  -0.01396
   Se     1.95109   1.93345   6.02403   0.00180   0.00994   0.01419
   Se     0.00000   3.88454   0.02988  -0.01010  -0.00177   0.01396
   Se     3.86691   7.72892  12.10481   0.01687   0.01085   0.03612
   Se     1.93835   5.80036   6.05694  -0.01103  -0.01659  -0.03672
   Se     5.78273   1.93345   6.02403   0.00180   0.00994  -0.01419
   Se     3.86691   3.87180  12.10481   0.01687   0.01085  -0.03612
   Se     5.79547   5.80036   6.05694  -0.01103  -0.01659   0.03672
   O      0.00000   1.93345   3.02696   0.00614  -0.00604   0.00000
   O      0.00000   5.80036   9.07997   0.00651   0.00371   0.00000
   O      0.00000   5.80036   3.00091   0.00010   0.00465  -0.00000
   O      0.00000   1.93345   9.08087   0.00528  -0.00519   0.00000
   O      5.80902   0.00866   3.02696  -0.00048   0.00047   0.01062
   O      1.92979   0.00367   9.08087   0.00092  -0.00096   0.00013
   O      1.92479   0.00866   3.02696  -0.00068   0.00067  -0.00009
   O      5.80403   0.00367   9.08087  -0.00232   0.00234  -0.01548
   O      1.92979   3.86324   9.08087  -0.00232   0.00234   0.01548
   O      1.92479   3.85825   3.02696  -0.00048   0.00047  -0.01062
   O      3.86691   1.93345   3.05300  -0.00473  -0.00010   0.00000
   O      3.86691   1.93345   9.08178  -0.00377  -0.00640   0.00000
   O      3.86691   5.80036   9.08087  -0.00662   0.00652  -0.00000
   O      5.80403   3.86324   9.08087   0.00092  -0.00096  -0.00013
   O      5.80902   3.85825   3.02696  -0.00068   0.00067   0.00009
PRIMCOORD   45
     39   1
   Bi     0.00000   7.72928   4.29046   0.00000  -0.01833   0.01620
   Bi     0.00000   7.72993   7.81360  -0.00000  -0.00566  -0.01849
   Bi     1.93734   1.93345  10.34815  -0.00566  -0.00000  -0.01849
   Bi     1.93800   1.93345   1.76345  -0.01833   0.00000   0.01620
   Bi     0.00000   3.87145   4.29046  -0.00000   0.01833   0.01620
   Bi     0.00000   3.87080   7.81360   0.00000   0.00566  -0.01849
   Bi     3.86691   7.69346   4.28990  -0.00000  -0.00386  -0.01746
   Bi     3.86691   7.73117   7.80447   0.00000  -0.01589   0.01910
   Bi     1.93610   5.80036  10.35727  -0.01589   0.00000   0.01910
   Bi     1.97381   5.80036   1.76402  -0.00386  -0.00000  -0.01746
   Bi     5.79647   1.93345  10.34815   0.00566   0.00000  -0.01849
   Bi     5.79582   1.93345   1.76345   0.01833  -0.00000   0.01620
   Bi     3.86691   3.90726   4.28990   0.00000   0.00386  -0.01746
   Bi     3.86691   3.86955   7.80447  -0.00000   0.01589   0.01910
   Bi     5.79772   5.80036  10.35727   0.01589  -0.00000   0.01910
   Bi     5.76001   5.80036   1.76402   0.00386   0.00000  -0.01746
   Se     0.00000   7.71618   0.02988  -0.00000   0.00156   0.00761
   Se     1.95109   1.93345   6.02403   0.00156   0.00000   0.00761
   Se     0.00000   3.88454   0.02988  -0.00000  -0.00156   0.00761
   Se     3.86691   7.72892  12.10481   0.00000   0.00136  -0.00690
   Se     1.93835   5.80036   6.05694   0.00136  -0.00000  -0.00690
   Se     5.78273   1.93345   6.02403  -0.00156  -0.00000   0.00761
   Se     3.86691   3.87180  12.10481   0.00000  -0.00136  -0.00690
   Se     5.79547   5.80036   6.05694  -0.00136  -0.00000  -0.00690
   O      0.00000   1.93345   3.02696  -0.00000  -0.00000   0.02226
   O      0.00000   5.80036   9.07997  -0.00000   0.00000  -0.00185
   O      0.00000   5.80036   3.00091  -0.00000   0.00000  -0.00198
   O      0.00000   1.93345   9.08087   0.00000  -0.00000  -0.01916
   O      5.80902   0.00866   3.02696   0.00497  -0.00497  -0.00063
   O      1.92979   0.00367   9.08087  -0.00515  -0.00515   0.00058
   O      1.92479   0.00866   3.02696  -0.00497  -0.00497  -0.00063
   O      5.80403   0.00367   9.08087   0.00515  -0.00515   0.00058
   O      1.92979   3.86324   9.08087  -0.00515   0.00515   0.00058
   O      1.92479   3.85825   3.02696  -0.00497   0.00497  -0.00063
   O      3.86691   1.93345   3.05300   0.00000   0.00000  -0.00198
   O      3.86691   1.93345   9.08178   0.00000  -0.00000  -0.00185
   O      3.86691   5.80036   9.08087   0.00000   0.00000   0.02517
   O      5.80403   3.86324   9.08087   0.00515   0.00515   0.00058
   O      5.80902   3.85825   3.02696   0.00497   0.00497  -0.00063
PRIMCOORD   46
     39   1
   Bi     0.00000   7.72928   4.29046  -0.02947  -0.00000  -0.00000
   Bi     0.00000   7.72993   7.81360   0.01862   0.00000  -0.00000
   Bi     1.93734   1.93345  10.34815   0.00000   0.01862   0.00000
   Bi     1.93800   1.93345   1.76345  -0.00000  -0.02947  -0.00000
   Bi     0.00000   3.87145   4.29046   0.02947   0.00000   0.00000
   Bi     0.00000   3.87080   7.81360  -0.01862   0.00000  -0.00000
   Bi     3.86691   7.69346   4.28990   0.02412   0.00000  -0.00000
   Bi     3.86691   7.73117   7.80447  -0.01943  -0.00000   0.00000
   Bi     1.93610   5.80036  10.35727  -0.00000  -0.01943   0.00000
   Bi     1.97381   5.80036   1.76402   0.00000   0.02412  -0.00000
   Bi     5.79647   1.93345  10.34815   0.00000  -0.01862  -0.00000
   Bi     5.79582   1.93345   1.76345   0.00000   0.02947   0.00000
   Bi     3.86691   3.90726   4.28990  -0.02412   0.00000  -0.00000
   Bi     3.86691   3.86955   7.80447   0.01943  -0.00000   0.00000
   Bi     5.79772   5.80036  10.35727  -0.00000   0.01943   0.00000
   Bi     5.76001   5.80036   1.76402   0.00000  -0.02412  -0.00000
   Se     0.00000   7.71618   0.02988  -0.00026   0.00000   0.00000
   Se     1.95109   1.93345   6.02403   0.00000  -0.00026   0.00000
   Se     0.00000   3.88454   0.02988   0.00026  -0.00000   0.00000
   Se     3.86691   7.72892  12.10481   0.00067  -0.00000  -0.00000
   Se     1.93835   5.80036   6.05694  -0.00000   0.00067  -0.00000
   Se     5.78273   1.93345   6.02403   0.00000   0.00026  -0.00000
   Se     3.86691   3.87180  12.10481  -0.00067  -0.00000   0.00000
   Se     5.79547   5.80036   6.05694  -0.00000  -0.00067   0.00000
   O      0.00000   1.93345   3.02696   0.00000   0.00000   0.00000
   O      0.00000   5.80036   9.07997   0.00000  -0.00000   0.00000
   O      0.00000   5.80036   3.00091   0.00000  -0.00000  -0.00000
   O      0.00000   1.93345   9.08087   0.00000   0.00000   0.00000
   O      5.80902   0.00866   3.02696  -0.00015   0.00015  -0.01461
   O      1.92979   0.00367   9.08087   0.00033   0.00033   0.01057
   O      1.92479   0.00866   3.02696  -0.00015  -0.00015   0.01461
   O      5.80403   0.00367   9.08087   0.00033  -0.00033  -0.01057
   O      1.92979   3.86324   9.08087  -0.00033   0.00033  -0.01057
   O      1.92479   3.85825   3.02696   0.00015  -0.00015  -0.01461
   O      3.86691   1.93345   3.05300  -0.00000   0.00000   0.00000
   O      3.86691   1.93345   9.08178  -0.00000   0.00000   0.00000
   O      3.86691   5.80036   9.08087  -0.00000  -0.00000   0.00000
   O      5.80403   3.86324   9.08087  -0.00033  -0.00033   0.01057
   O      5.80902   3.85825   3.02696   0.00015   0.00015   0.01461
PRIMCOORD   47
     39   1
   Bi     0.00000   7.72928   4.29046   0.00181  -0.00070  -0.00214
   Bi     0.00000   7.72993   7.81360   0.00259   0.00086  -0.00125
   Bi     1.93734   1.93345  10.34815   0.00073   0.00306  -0.00105
   Bi     1.93800   1.93345   1.76345  -0.00059   0.00214  -0.00181
   Bi     0.00000   3.87145   4.29046   0.00181  -0.00070   0.00214
   Bi     0.00000   3.87080   7.81360   0.00259   0.00086   0.00125
   Bi     3.86691   7.69346   4.28990  -0.00053  -0.00154  -0.00129
   Bi     3.86691   7.73117   7.80447  -0.00154  -0.00048   0.00583
   Bi     1.93610   5.80036  10.35727  -0.00041  -0.00182   0.00493
   Bi     1.97381   5.80036   1.76402  -0.00131  -0.00062  -0.00109
   Bi     5.79647   1.93345  10.34815   0.00073   0.00306   0.00105
   Bi     5.79582   1.93345   1.76345  -0.00059   0.00214   0.00181
   Bi     3.86691   3.90726   4.28990  -0.00053  -0.00154   0.00129
   Bi     3.86691   3.86955   7.80447  -0.00154  -0.00048  -0.00583
   Bi     5.79772   5.80036  10.35727  -0.00041  -0.00182  -0.00493
   Bi     5.76001   5.80036   1.76402  -0.00131  -0.00062   0.00109
   Se     0.00000   7.71618   0.02988  -0.02532  -0.00458  -0.01274
   Se     1.95109   1.93345   6.02403  -0.00387  -0.02995  -0.01077
   Se     0.00000   3.88454   0.02988  -0.02532  -0.00458   0.01274
   Se     3.86691   7.72892  12.10481   0.02322   0.00524   0.02124
   Se     1.93835   5.80036   6.05694   0.00443   0.02747   0.01796
   Se     5.78273   1.93345   6.02403  -0.00387  -0.02995   0.01077
   Se     3.86691   3.87180  12.10481   0.02322   0.00524  -0.02124
   Se     5.79547   5.80036   6.05694   0.00443   0.02747  -0.01796
   O      0.00000   1.93345   3.02696   0.00485   0.00574   0.00000
   O      0.00000   5.80036   9.07997   0.00493  -0.00856  -0.00000
   O      0.00000   5.80036   3.00091   0.00637  -0.00712   0.00000
   O      0.00000   1.93345   9.08087   0.00594   0.00703   0.00000
   O      5.80902   0.00866   3.02696   0.00058   0.00018  -0.00146
   O      1.92979   0.00367   9.08087  -0.00070  -0.00089   0.01746
   O      1.92479   0.00866   3.02696  -0.00244  -0.00238  -0.01738
   O      5.80403   0.00367   9.08087  -0.00109  -0.00122   0.00146
   O      1.92979   3.86324   9.08087  -0.00109  -0.00122  -0.00146
   O      1.92479   3.85825   3.02696   0.00058   0.00018   0.00146
   O      3.86691   1.93345   3.05300  -0.00602   0.00754  -0.00000
   O      3.86691   1.93345   9.08178  -0.00724   0.00583   0.00000
   O      3.86691   5.80036   9.08087  -0.00597  -0.00706  -0.00000
   O      5.80403   3.86324   9.08087  -0.00070  -0.00089  -0.01746
   O      5.80902   3.85825   3.02696  -0.00244  -0.00238   0.01738
PRIMCOORD   48
     39   1
   Bi     0.00000   7.72928   4.29046  -0.00214  -0.00059  -0.00181
   Bi     0.00000   7.72993   7.81360  -0.00306   0.00073  -0.00105
   Bi     1.93734   1.93345  10.34815  -0.00086   0.00259   0.00125
   Bi     1.93800   1.93345   1.76345   0.00070   0.00181   0.00214
   Bi     0.00000   3.87145   4.29046  -0.00214  -0.00059   0.00181
   Bi     0.00000   3.87080   7.81360  -0.00306   0.00073   0.00105
   Bi     3.86691   7.69346   4.28990   0.00062  -0.00131  -0.00109
   Bi     3.86691   7.73117   7.80447   0.00182  -0.00041   0.00493
   Bi     1.93610   5.80036  10.35727   0.00048  -0.00154  -0.00583
   Bi     1.97381   5.80036   1.76402   0.00154  -0.00053   0.00129
   Bi     5.79647   1.93345  10.34815  -0.00086   0.00259  -0.00125
   Bi     5.79582   1.93345   1.76345   0.00070   0.00181  -0.00214
   Bi     3.86691   3.90726   4.28990   0.00062  -0.00131   0.00109
   Bi     3.86691   3.86955   7.80447   0.00182  -0.00041  -0.00493
   Bi     5.79772   5.80036  10.35727   0.00048  -0.00154   0.00583
   Bi     5.76001   5.80036   1.76402   0.00154  -0.00053  -0.00129
   Se     0.00000   7.71618   0.02988   0.02995  -0.00387  -0.01077
   Se     1.95109   1.93345   6.02403   0.00458  -0.02532   0.01274
   Se     0.00000   3.88454   0.02988   0.02995  -0.00387   0.01077
   Se     3.86691   7.72892  12.10481  -0.02747   0.00443   0.01796
   Se     1.93835   5.80036   6.05694  -0.00524   0.02322  -0.02124
   Se     5.78273   1.93345   6.02403   0.00458  -0.02532  -0.01274
   Se     3.86691   3.87180  12.10481  -0.02747   0.00443  -0.01796
   Se     5.79547   5.80036   6.05694  -0.00524   0.02322   0.02124
   O      0.00000   1.93345   3.02696  -0.00574   0.00485  -0.00000
   O      0.00000   5.80036   9.07997  -0.00583  -0.00724   0.00000
   O      0.00000   5.80036   3.00091  -0.00754  -0.00602  -0.00000
   O      0.00000   1.93345   9.08087  -0.00703   0.00594   0.00000
   O      5.80902   0.00866   3.02696   0.00238  -0.00244  -0.01738
   O      1.92979   0.00367   9.08087   0.00122  -0.00109  -0.00146
   O      1.92479   0.00866   3.02696  -0.00018   0.00058   0.00146
   O      5.80403   0.00367   9.08087   0.00089  -0.00070   0.01746
   O      1.92979   3.86324   9.08087   0.00089  -0.00070  -0.01746
   O      1.92479   3.85825   3.02696   0.00238  -0.00244   0.01738
   O      3.86691   1.93345   3.05300   0.00712   0.00637   0.00000
   O      3.86691   1.93345   9.08178   0.00856   0.00493  -0.00000
   O      3.86691   5.80036   9.08087   0.00706  -0.00597   0.00000
   O      5.80403   3.86324   9.08087   0.00122  -0.00109   0.00146
   O      5.80902   3.85825   3.02696  -0.00018   0.00058  -0.00146
PRIMCOORD   49
     39   1
   Bi     0.00000   7.72928   4.29046  -0.00000   0.00069  -0.00262
   Bi     0.00000   7.72993   7.81360  -0.00000   0.00052   0.00004
   Bi     1.93734   1.93345  10.34815  -0.00052  -0.00000  -0.00004
   Bi     1.93800   1.93345   1.76345  -0.00069  -0.00000   0.00262
   Bi     0.00000   3.87145   4.29046  -0.00000  -0.00069  -0.00262
   Bi     0.00000   3.87080   7.81360   0.00000  -0.00052   0.00004
   Bi     3.86691   7.69346   4.28990   0.00000  -0.00000   0.00226
   Bi     3.86691   7.73117   7.80447  -0.00000   0.00060   0.00000
   Bi     1.93610   5.80036  10.35727  -0.00060  -0.00000  -0.00000
   Bi     1.97381   5.80036   1.76402   0.00000   0.00000  -0.00226
   Bi     5.79647   1.93345  10.34815   0.00052   0.00000  -0.00004
   Bi     5.79582   1.93345   1.76345   0.00069   0.00000   0.00262
   Bi     3.86691   3.90726   4.28990  -0.00000   0.00000   0.00226
   Bi     3.86691   3.86955   7.80447   0.00000  -0.00060   0.00000
   Bi     5.79772   5.80036  10.35727   0.00060   0.00000  -0.00000
   Bi     5.76001   5.80036   1.76402  -0.00000   0.00000  -0.00226
   Se     0.00000   7.71618   0.02988  -0.00000  -0.03934   0.00443
   Se     1.95109   1.93345   6.02403   0.03934  -0.00000  -0.00443
   Se     0.00000   3.88454   0.02988   0.00000   0.03934   0.00443
   Se     3.86691   7.72892  12.10481  -0.00000  -0.02180  -0.00600
   Se     1.93835   5.80036   6.05694   0.02180  -0.00000   0.00600
   Se     5.78273   1.93345   6.02403  -0.03934   0.00000  -0.00443
   Se     3.86691   3.87180  12.10481   0.00000   0.02180  -0.00600
   Se     5.79547   5.80036   6.05694  -0.02180   0.00000   0.00600
   O      0.00000   1.93345   3.02696  -0.00000  -0.00000   0.00000
   O      0.00000   5.80036   9.07997  -0.00000   0.00000  -0.01631
   O      0.00000   5.80036   3.00091  -0.00000   0.00000   0.01399
   O      0.00000   1.93345   9.08087  -0.00000  -0.00000  -0.00000
   O      5.80902   0.00866   3.02696   0.00673   0.00673  -0.00000
   O      1.92979   0.00367   9.08087  -0.00662   0.00662  -0.00000
   O      1.92479   0.00866   3.02696  -0.00673   0.00673   0.00000
   O      5.80403   0.00367   9.08087   0.00662   0.00662   0.00000
   O      1.92979   3.86324   9.08087  -0.00662  -0.00662  -0.00000
   O      1.92479   3.85825   3.02696  -0.00673  -0.00673   0.00000
   O      3.86691   1.93345   3.05300   0.00000  -0.00000  -0.01399
   O      3.86691   1.93345   9.08178   0.00000  -0.00000   0.01631
   O      3.86691   5.80036   9.08087   0.00000   0.00000   0.00000
   O      5.80403   3.86324   9.08087   0.00662  -0.00662   0.00000
   O      5.80902   3.85825   3.02696   0.00673  -0.00673  -0.00000
PRIMCOORD   50
     39   1
   Bi     0.00000   7.72928   4.29046  -0.00030  -0.00000   0.00000
   Bi     0.00000   7.72993   7.81360  -0.00146  -0.00000   0.00000
   Bi     1.93734   1.93345  10.34815   0.00000  -0.00146  -0.00000
   Bi     1.93800   1.93345   1.76345   0.00000  -0.00030  -0.00000
   Bi     0.00000   3.87145   4.29046   0.00030   0.00000   0.00000
   Bi     0.00000   3.87080   7.81360   0.00146  -0.00000  -0.00000
   Bi     3.86691   7.69346   4.28990  -0.00005  -0.00000  -0.00000
   Bi     3.86691   7.73117   7.80447  -0.00135  -0.00000   0.00000
   Bi     1.93610   5.80036  10.35727   0.00000  -0.00135   0.00000
   Bi     1.97381   5.80036   1.76402  -0.00000  -0.00005   0.00000
   Bi     5.79647   1.93345  10.34815  -0.00000   0.00146   0.00000
   Bi     5.79582   1.93345   1.76345  -0.00000   0.00030  -0.00000
   Bi     3.86691   3.90726   4.28990   0.00005  -0.00000  -0.00000
   Bi     3.86691   3.86955   7.80447   0.00135   0.00000  -0.00000
   Bi     5.79772   5.80036  10.35727   0.00000   0.00135  -0.00000
   Bi     5.76001   5.80036   1.76402  -0.00000   0.00005   0.00000
   Se     0.00000   7.71618   0.02988  -0.03525   0.00000  -0.00000
   Se     1.95109   1.93345   6.02403  -0.00000  -0.03525  -0.00000
   Se     0.00000   3.88454   0.02988   0.03525  -0.00000  -0.00000
   Se     3.86691   7.72892  12.10481  -0.03512   0.00000   0.00000
   Se     1.93835   5.80036   6.05694  -0.00000  -0.03512   0.00000
   Se     5.78273   1.93345   6.02403   0.00000   0.03525   0.00000
   Se     3.86691   3.87180  12.10481   0.03512  -0.00000   0.00000
   Se     5.79547   5.80036   6.05694   0.00000   0.03512  -0.00000
   O      0.00000   1.93345   3.02696   0.00000   0.00000   0.00000
   O      0.00000   5.80036   9.07997   0.00000  -0.00000   0.00000
   O      0.00000   5.80036   3.00091   0.00000  -0.00000  -0.00000
   O      0.00000   1.93345   9.08087   0.00000   0.00000  -0.00000
   O      5.80902   0.00866   3.02696  -0.00208   0.00208   0.00158
   O      1.92979   0.00367   9.08087  -0.00213  -0.00213   0.00035
   O      1.92479   0.00866   3.02696  -0.00208  -0.00208  -0.00158
   O      5.80403   0.00367   9.08087  -0.00213   0.00213  -0.00035
   O      1.92979   3.86324   9.08087   0.00213  -0.00213  -0.00035
   O      1.92479   3.85825   3.02696   0.00208  -0.00208   0.00158
   O      3.86691   1.93345   3.05300  -0.00000   0.00000   0.00000
   O      3.86691   1.93345   9.08178  -0.00000   0.00000  -0.00000
   O      3.86691   5.80036   9.08087  -0.00000  -0.00000  -0.00000
   O      5.80403   3.86324   9.08087   0.00213   0.00213   0.00035
   O      5.80902   3.85825   3.02696   0.00208   0.00208  -0.00158
PRIMCOORD   51
     39   1
   Bi     0.00000   7.72928   4.29046   0.00000  -0.00479  -0.00299
   Bi     0.00000   7.72993   7.81360  -0.00000   0.00269   0.00075
   Bi     1.93734   1.93345  10.34815  -0.00269  -0.00000  -0.00075
   Bi     1.93800   1.93345   1.76345   0.00479  -0.00000   0.00299
   Bi     0.00000   3.87145   4.29046   0.00000   0.00479  -0.00299
   Bi     0.00000   3.87080   7.81360   0.00000  -0.00269   0.00075
   Bi     3.86691   7.69346   4.28990  -0.00000  -0.03149  -0.01865
   Bi     3.86691   7.73117   7.80447  -0.00000   0.00211  -0.00627
   Bi     1.93610   5.80036  10.35727  -0.00211   0.00000   0.00627
   Bi     1.97381   5.80036   1.76402   0.03149   0.00000   0.01865
   Bi     5.79647   1.93345  10.34815   0.00269  -0.00000  -0.00075
   Bi     5.79582   1.93345   1.76345  -0.00479  -0.00000   0.00299
   Bi     3.86691   3.90726   4.28990  -0.00000   0.03149  -0.01865
   Bi     3.86691   3.86955   7.80447  -0.00000  -0.00211  -0.00627
   Bi     5.79772   5.80036  10.35727   0.00211   0.00000   0.00627
   Bi     5.76001   5.80036   1.76402  -0.03149   0.00000   0.01865
   Se     0.00000   7.71618   0.02988  -0.00000   0.00555   0.03009
   Se     1.95109   1.93345   6.02403  -0.00555   0.00000  -0.03009
   Se     0.00000   3.88454   0.02988  -0.00000  -0.00555   0.03009
   Se     3.86691   7.72892  12.10481  -0.00000  -0.00592  -0.00934
   Se     1.93835   5.80036   6.05694   0.00592  -0.00000   0.00934
   Se     5.78273   1.93345   6.02403   0.00555   0.00000  -0.03009
   Se     3.86691   3.87180  12.10481   0.00000   0.00592  -0.00934
   Se     5.79547   5.80036   6.05694  -0.00592  -0.00000   0.00934
   O      0.00000   1.93345   3.02696   0.00000  -0.00000  -0.00000
   O      0.00000   5.80036   9.07997  -0.00000   0.00000   0.00041
   O      0.00000   5.80036   3.00091   0.00000   0.00000  -0.00154
   O      0.00000   1.93345   9.08087   0.00000  -0.00000   0.00000
   O      5.80902   0.00866   3.02696  -0.00277  -0.00277   0.00000
   O      1.92979   0.00367   9.08087  -0.00099   0.00099  -0.00000
   O      1.92479   0.00866   3.02696   0.00277  -0.00277   0.00000
   O      5.80403   0.00367   9.08087   0.00099   0.00099  -0.00000
   O      1.92979   3.86324   9.08087  -0.00099  -0.00099   0.00000
   O      1.92479   3.85825   3.02696   0.00277   0.00277  -0.00000
   O      3.86691   1.93345   3.05300  -0.00000  -0.00000   0.00154
   O      3.86691   1.93345   9.08178  -0.00000   0.00000  -0.00041
   O      3.86691   5.80036   9.08087   0.00000  -0.00000  -0.00000
   O      5.80403   3.86324   9.08087   0.00099  -0.00099   0.00000
   O      5.80902   3.85825   3.02696  -0.00277   0.00277  -0.00000
PRIMCOORD   52
     39   1
   Bi     0.00000   7.72928   4.29046  -0.00557  -0.00133   0.02295
   Bi     0.00000   7.72993   7.81360  -0.00063  -0.00021  -0.02884
   Bi     1.93734   1.93345  10.34815  -0.00017  -0.00076  -0.02407
   Bi     1.93800   1.93345   1.76345  -0.00111  -0.00667   0.01916
   Bi     0.00000   3.87145   4.29046  -0.00557  -0.00133  -0.02295
   Bi     0.00000   3.87080   7.81360  -0.00063  -0.00021   0.02884
   Bi     3.86691   7.69346   4.28990   0.00236   0.00419  -0.02167
   Bi     3.86691   7.73117   7.80447   0.00065   0.00055   0.02575
   Bi     1.93610   5.80036  10.35727   0.00046   0.00077   0.02149
   Bi     1.97381   5.80036   1.76402   0.00350   0.00283  -0.01808
   Bi     5.79647   1.93345  10.34815  -0.00017  -0.00076   0.02407
   Bi     5.79582   1.93345   1.76345  -0.00111  -0.00667  -0.01916
   Bi     3.86691   3.90726   4.28990   0.00236   0.00419   0.02167
   Bi     3.86691   3.86955   7.80447   0.00065   0.00055  -0.02575
   Bi     5.79772   5.80036  10.35727   0.00046   0.00077  -0.02149
   Bi     5.76001   5.80036   1.76402   0.00350   0.00283   0.01808
   Se     0.00000   7.71618   0.02988   0.00504   0.00002   0.00162
   Se     1.95109   1.93345   6.02403   0.00001   0.00604   0.00135
   Se     0.00000   3.88454   0.02988   0.00504   0.00002  -0.00162
   Se     3.86691   7.72892  12.10481  -0.00228  -0.00170  -0.00220
   Se     1.93835   5.80036   6.05694  -0.00142  -0.00273  -0.00183
   Se     5.78273   1.93345   6.02403   0.00001   0.00604  -0.00135
   Se     3.86691   3.87180  12.10481  -0.00228  -0.00170   0.00220
   Se     5.79547   5.80036   6.05694  -0.00142  -0.00273   0.00183
   O      0.00000   1.93345   3.02696  -0.00322  -0.00386   0.00000
   O      0.00000   5.80036   9.07997   0.00282   0.00630  -0.00000
   O      0.00000   5.80036   3.00091  -0.00357   0.00333   0.00000
   O      0.00000   1.93345   9.08087  -0.00479  -0.00574  -0.00000
   O      5.80902   0.00866   3.02696   0.00924   0.00786   0.00069
   O      1.92979   0.00367   9.08087  -0.00477  -0.00385  -0.00521
   O      1.92479   0.00866   3.02696  -0.00843  -0.00689   0.00768
   O      5.80403   0.00367   9.08087   0.00552   0.00474  -0.00047
   O      1.92979   3.86324   9.08087   0.00552   0.00474   0.00047
   O      1.92479   3.85825   3.02696   0.00924   0.00786  -0.00069
   O      3.86691   1.93345   3.05300   0.00278  -0.00427   0.00000
   O      3.86691   1.93345   9.08178   0.00525   0.00338  -0.00000
   O      3.86691   5.80036   9.08087  -0.00209  -0.00250   0.00000
   O      5.80403   3.86324   9.08087  -0.00477  -0.00385   0.00521
   O      5.80902   3.85825   3.02696  -0.00843  -0.00689  -0.00768
PRIMCOORD   53
     39   1
   Bi     0.00000   7.72928   4.29046   0.00667  -0.00111   0.01916
   Bi     0.00000   7.72993   7.81360   0.00076  -0.00017  -0.02407
   Bi     1.93734   1.93345  10.34815   0.00021  -0.00063   0.02884
   Bi     1.93800   1.93345   1.76345   0.00133  -0.00557  -0.02295
   Bi     0.00000   3.87145   4.29046   0.00667  -0.00111  -0.01916
   Bi     0.00000   3.87080   7.81360   0.00076  -0.00017   0.02407
   Bi     3.86691   7.69346   4.28990  -0.00283   0.00350  -0.01808
   Bi     3.86691   7.73117   7.80447  -0.00077   0.00046   0.02149
   Bi     1.93610   5.80036  10.35727  -0.00055   0.00065  -0.02575
   Bi     1.97381   5.80036   1.76402  -0.00419   0.00236   0.02167
   Bi     5.79647   1.93345  10.34815   0.00021  -0.00063  -0.02884
   Bi     5.79582   1.93345   1.76345   0.00133  -0.00557   0.02295
   Bi     3.86691   3.90726   4.28990  -0.00283   0.00350   0.01808
   Bi     3.86691   3.86955   7.80447  -0.00077   0.00046  -0.02149
   Bi     5.79772   5.80036  10.35727  -0.00055   0.00065   0.02575
   Bi     5.76001   5.80036   1.76402  -0.00419   0.00236  -0.02167
   Se     0.00000   7.71618   0.02988  -0.00604   0.00001   0.00135
   Se     1.95109   1.93345   6.02403  -0.00002   0.00504  -0.00162
   Se     0.00000   3.88454   0.02988  -0.00604   0.00001  -0.00135
   Se     3.86691   7.72892  12.10481   0.00273  -0.00142  -0.00183
   Se     1.93835   5.80036   6.05694   0.00170  -0.00228   0.00220
   Se     5.78273   1.93345   6.02403  -0.00002   0.00504   0.00162
   Se     3.86691   3.87180  12.10481   0.00273  -0.00142   0.00183
   Se     5.79547   5.80036   6.05694   0.00170  -0.00228  -0.00220
   O      0.00000   1.93345   3.02696   0.00386  -0.00322   0.00000
   O      0.00000   5.80036   9.07997  -0.00338   0.00525   0.00000
   O      0.00000   5.80036   3.00091   0.00427   0.00278   0.00000
   O      0.00000   1.93345   9.08087   0.00574  -0.00479  -0.00000
   O      5.80902   0.00866   3.02696   0.00689  -0.00843   0.00768
   O      1.92979   0.00367   9.08087  -0.00474   0.00552   0.00047
   O      1.92479   0.00866   3.02696  -0.00786   0.00924  -0.00069
   O      5.80403   0.00367   9.08087   0.00385  -0.00477  -0.00521
   O      1.92979   3.86324   9.08087   0.00385  -0.00477   0.00521
   O      1.92479   3.85825   3.02696   0.00689  -0.00843  -0.00768
   O      3.86691   1.93345   3.05300  -0.00333  -0.00357  -0.00000
   O      3.86691   1.93345   9.08178  -0.00630   0.00282  -0.00000
   O      3.86691   5.80036   9.08087   0.00250  -0.00209   0.00000
   O      5.80403   3.86324   9.08087  -0.00474   0.00552  -0.00047
   O      5.80902   3.85825   3.02696  -0.00786   0.00924   0.00069
PRIMCOORD   54
     39   1
   Bi     0.00000   7.72928   4.29046  -0.00000  -0.00118  -0.00020
   Bi     0.00000   7.72993   7.81360  -0.00000   0.00106   0.00018
   Bi     1.93734   1.93345  10.34815   0.00106  -0.00000   0.00018
   Bi     1.93800   1.93345   1.76345  -0.00118  -0.00000  -0.00020
   Bi     0.00000   3.87145   4.29046  -0.00000   0.00118  -0.00020
   Bi     0.00000   3.87080   7.81360   0.00000  -0.00106   0.00018
   Bi     3.86691   7.69346   4.28990   0.00000   0.00291  -0.00072
   Bi     3.86691   7.73117   7.80447   0.00000  -0.00030   0.00227
   Bi     1.93610   5.80036  10.35727  -0.00030   0.00000   0.00227
   Bi     1.97381   5.80036   1.76402   0.00291   0.00000  -0.00072
   Bi     5.79647   1.93345  10.34815  -0.00106  -0.00000   0.00018
   Bi     5.79582   1.93345   1.76345   0.00118  -0.00000  -0.00020
   Bi     3.86691   3.90726   4.28990   0.00000  -0.00291  -0.00072
   Bi     3.86691   3.86955   7.80447  -0.00000   0.00030   0.00227
   Bi     5.79772   5.80036  10.35727   0.00030   0.00000   0.00227
   Bi     5.76001   5.80036   1.76402  -0.00291   0.00000  -0.00072
   Se     0.00000   7.71618   0.02988   0.00000  -0.02896   0.00031
   Se     1.95109   1.93345   6.02403  -0.02896   0.00000   0.00031
   Se     0.00000   3.88454   0.02988   0.00000   0.02896   0.00031
   Se     3.86691   7.72892  12.10481  -0.00000  -0.03468  -0.00331
   Se     1.93835   5.80036   6.05694  -0.03468  -0.00000  -0.00331
   Se     5.78273   1.93345   6.02403   0.02896   0.00000   0.00031
   Se     3.86691   3.87180  12.10481  -0.00000   0.03468  -0.00331
   Se     5.79547   5.80036   6.05694   0.03468  -0.00000  -0.00331
   O      0.00000   1.93345   3.02696  -0.00000  -0.00000  -0.01884
   O      0.00000   5.80036   9.07997   0.00000   0.00000   0.00002
   O      0.00000   5.80036   3.00091  -0.00000   0.00000   0.00015
   O      0.00000   1.93345   9.08087  -0.00000  -0.00000   0.01943
   O      5.80902   0.00866   3.02696  -0.00712   0.00712  -0.00212
   O      1.92979   0.00367   9.08087   0.00649   0.00649   0.00056
   O      1.92479   0.00866   3.02696   0.00712   0.00712  -0.00212
   O      5.80403   0.00367   9.08087  -0.00649   0.00649   0.00056
   O      1.92979   3.86324   9.08087   0.00649  -0.00649   0.00056
   O      1.92479   3.85825   3.02696   0.00712  -0.00712  -0.00212
   O      3.86691   1.93345   3.05300   0.00000  -0.00000   0.00015
   O      3.86691   1.93345   9.08178   0.00000   0.00000   0.00002
   O      3.86691   5.80036   9.08087  -0.00000  -0.00000  -0.01513
   O      5.80403   3.86324   9.08087  -0.00649  -0.00649   0.00056
   O      5.80902   3.85825   3.02696  -0.00712  -0.00712  -0.00212
PRIMCOORD   55
     39   1
   Bi     0.00000   7.72928   4.29046   0.00000   0.00327  -0.00064
   Bi     0.00000   7.72993   7.81360  -0.00000   0.00507  -0.00089
   Bi     1.93734   1.93345  10.34815   0.00507   0.00000  -0.00089
   Bi     1.93800   1.93345   1.76345   0.00327   0.00000  -0.00064
   Bi     0.00000   3.87145   4.29046   0.00000  -0.00327  -0.00064
   Bi     0.00000   3.87080   7.81360   0.00000  -0.00507  -0.00089
   Bi     3.86691   7.69346   4.28990  -0.00000  -0.00544  -0.00045
   Bi     3.86691   7.73117   7.80447   0.00000  -0.00407  -0.00022
   Bi     1.93610   5.80036  10.35727  -0.00407   0.00000  -0.00022
   Bi     1.97381   5.80036   1.76402  -0.00544  -0.00000  -0.00045
   Bi     5.79647   1.93345  10.34815  -0.00507   0.00000  -0.00089
   Bi     5.79582   1.93345   1.76345  -0.00327   0.00000  -0.00064
   Bi     3.86691   3.90726   4.28990   0.00000   0.00544  -0.00045
   Bi     3.86691   3.86955   7.80447  -0.00000   0.00407  -0.00022
   Bi     5.79772   5.80036  10.35727   0.00407  -0.00000  -0.00022
   Bi     5.76001   5.80036   1.76402   0.00544   0.00000  -0.00045
   Se     0.00000   7.71618   0.02988  -0.00000   0.03597   0.00048
   Se     1.95109   1.93345   6.02403   0.03597   0.00000   0.00048
   Se     0.00000   3.88454   0.02988  -0.00000  -0.03597   0.00048
   Se     3.86691   7.72892  12.10481   0.00000  -0.03124   0.00451
   Se     1.93835   5.80036   6.05694  -0.03124  -0.00000   0.00451
   Se     5.78273   1.93345   6.02403  -0.03597  -0.00000   0.00048
   Se     3.86691   3.87180  12.10481  -0.00000   0.03124   0.00451
   Se     5.79547   5.80036   6.05694   0.03124   0.00000   0.00451
   O      0.00000   1.93345   3.02696   0.00000   0.00000  -0.00619
   O      0.00000   5.80036   9.07997   0.00000  -0.00000  -0.00859
   O      0.00000   5.80036   3.00091   0.00000  -0.00000   0.00848
   O      0.00000   1.93345   9.08087   0.00000   0.00000   0.00873
   O      5.80902   0.00866   3.02696  -0.00020   0.00020   0.00086
   O      1.92979   0.00367   9.08087   0.00022   0.00022   0.00023
   O      1.92479   0.00866   3.02696   0.00020   0.00020   0.00086
   O      5.80403   0.00367   9.08087  -0.00022   0.00022   0.00023
   O      1.92979   3.86324   9.08087   0.00022  -0.00022   0.00023
   O      1.92479   3.85825   3.02696   0.00020  -0.00020   0.00086
   O      3.86691   1.93345   3.05300  -0.00000   0.00000   0.00848
   O      3.86691   1.93345   9.08178  -0.00000  -0.00000  -0.00859
   O      3.86691   5.80036   9.08087  -0.00000   0.00000   0.00969
   O      5.80403   3.86324   9.08087  -0.00022  -0.00022   0.00023
   O      5.80902   3.85825   3.02696  -0.00020  -0.00020   0.00086
PRIMCOORD   56
     39   1
   Bi     0.00000   7.72928   4.29046   0.00000   0.00018  -0.00015
   Bi     0.00000   7.72993   7.81360  -0.00000  -0.00073  -0.00129
   Bi     1.93734   1.93345  10.34815   0.00073  -0.00000   0.00129
   Bi     1.93800   1.93345   1.76345  -0.00018   0.00000   0.00015
   Bi     0.00000   3.87145   4.29046   0.00000  -0.00018  -0.00015
   Bi     0.00000   3.87080   7.81360  -0.00000   0.00073  -0.00129
   Bi     3.86691   7.69346   4.28990  -0.00000  -0.00026  -0.00176
   Bi     3.86691   7.73117   7.80447   0.00000   0.00001  -0.00175
   Bi     1.93610   5.80036  10.35727  -0.00001   0.00000   0.00175
   Bi     1.97381   5.80036   1.76402   0.00026   0.00000   0.00176
   Bi     5.79647   1.93345  10.34815  -0.00073   0.00000   0.00129
   Bi     5.79582   1.93345   1.76345   0.00018   0.00000   0.00015
   Bi     3.86691   3.90726   4.28990  -0.00000   0.00026  -0.00176
   Bi     3.86691   3.86955   7.80447  -0.00000  -0.00001  -0.00175
   Bi     5.79772   5.80036  10.35727   0.00001   0.00000   0.00175
   Bi     5.76001   5.80036   1.76402  -0.00026   0.00000   0.00176
   Se     0.00000   7.71618   0.02988   0.00000  -0.02383   0.01044
   Se     1.95109   1.93345   6.02403   0.02383  -0.00000  -0.01044
   Se     0.00000   3.88454   0.02988  -0.00000   0.02383   0.01044
   Se     3.86691   7.72892  12.10481  -0.00000   0.04128   0.00750
   Se     1.93835   5.80036   6.05694  -0.04128   0.00000  -0.00750
   Se     5.78273   1.93345   6.02403  -0.02383   0.00000  -0.01044
   Se     3.86691   3.87180  12.10481   0.00000  -0.04128   0.00750
   Se     5.79547   5.80036   6.05694   0.04128  -0.00000  -0.00750
   O      0.00000   1.93345   3.02696   0.00000  -0.00000  -0.00000
   O      0.00000   5.80036   9.07997  -0.00000   0.00000   0.00589
   O      0.00000   5.80036   3.00091   0.00000   0.00000  -0.00239
   O      0.00000   1.93345   9.08087   0.00000  -0.00000   0.00000
   O      5.80902   0.00866   3.02696  -0.00338  -0.00338   0.00000
   O      1.92979   0.00367   9.08087   0.00233  -0.00233  -0.00000
   O      1.92479   0.00866   3.02696   0.00338  -0.00338   0.00000
   O      5.80403   0.00367   9.08087  -0.00233  -0.00233  -0.00000
   O      1.92979   3.86324   9.08087   0.00233   0.00233   0.00000
   O      1.92479   3.85825   3.02696   0.00338   0.00338  -0.00000
   O      3.86691   1.93345   3.05300  -0.00000  -0.00000   0.00239
   O      3.86691   1.93345   9.08178  -0.00000  -0.00000  -0.00589
   O      3.86691   5.80036   9.08087  -0.00000  -0.00000  -0.00000
   O      5.80403   3.86324   9.08087  -0.00233   0.00233  -0.00000
   O      5.80902   3.85825   3.02696  -0.00338   0.00338   0.00000
PRIMCOORD   57
     39   1
   Bi     0.00000   7.72928   4.29046  -0.00092  -0.00000  -0.00000
   Bi     0.00000   7.72993   7.81360   0.00004  -0.00000  -0.00000
   Bi     1.93734   1.93345  10.34815  -0.00000  -0.00004  -0.00000
   Bi     1.93800   1.93345   1.76345   0.00000   0.00092  -0.00000
   Bi     0.00000   3.87145   4.29046   0.00092  -0.00000  -0.00000
   Bi     0.00000   3.87080   7.81360  -0.00004   0.00000   0.00000
   Bi     3.86691   7.69346   4.28990  -0.00028  -0.00000  -0.00000
   Bi     3.86691   7.73117   7.80447   0.00027   0.00000   0.00000
   Bi     1.93610   5.80036  10.35727   0.00000  -0.00027   0.00000
   Bi     1.97381   5.80036   1.76402   0.00000   0.00028   0.00000
   Bi     5.79647   1.93345  10.34815   0.00000   0.00004   0.00000
   Bi     5.79582   1.93345   1.76345  -0.00000  -0.00092   0.00000
   Bi     3.86691   3.90726   4.28990   0.00028   0.00000  -0.00000
   Bi     3.86691   3.86955   7.80447  -0.00027  -0.00000  -0.00000
   Bi     5.79772   5.80036  10.35727  -0.00000   0.00027  -0.00000
   Bi     5.76001   5.80036   1.76402  -0.00000  -0.00028   0.00000
   Se     0.00000   7.71618   0.02988  -0.03290  -0.00000   0.00000
   Se     1.95109   1.93345   6.02403   0.00000   0.03290  -0.00000
   Se     0.00000   3.88454   0.02988   0.03290   0.00000   0.00000
   Se     3.86691   7.72892  12.10481   0.03764   0.00000  -0.00000
   Se     1.93835   5.80036   6.05694  -0.00000  -0.03764  -0.00000
   Se     5.78273   1.93345   6.02403  -0.00000  -0.03290  -0.00000
   Se     3.86691   3.87180  12.10481  -0.03764  -0.00000   0.00000
   Se     5.79547   5.80036   6.05694  -0.00000   0.03764   0.00000
   O      0.00000   1.93345   3.02696  -0.00000   0.00000   0.00000
   O      0.00000   5.80036   9.07997  -0.00000  -0.00000   0.00000
   O      0.00000   5.80036   3.00091  -0.00000  -0.00000  -0.00000
   O      0.00000   1.93345   9.08087  -0.00000   0.00000  -0.00000
   O      5.80902   0.00866   3.02696   0.00020   0.00020  -0.00000
   O      1.92979   0.00367   9.08087  -0.00018   0.00018  -0.00000
   O      1.92479   0.00866   3.02696   0.00020  -0.00020  -0.00000
   O      5.80403   0.00367   9.08087  -0.00018  -0.00018   0.00000
   O      1.92979   3.86324   9.08087   0.00018   0.00018  -0.00000
   O      1.92479   3.85825   3.02696  -0.00020  -0.00020   0.00000
   O      3.86691   1.93345   3.05300   0.00000  -0.00000  -0.00000
   O      3.86691   1.93345   9.08178   0.00000   0.00000   0.00000
   O      3.86691   5.80036   9.08087   0.00000  -0.00000  -0.00000
   O      5.80403   3.86324   9.08087   0.00018  -0.00018  -0.00000
   O      5.80902   3.85825   3.02696  -0.00020   0.00020   0.00000
PRIMCOORD   58
     39   1
   Bi     0.00000   7.72928   4.29046  -0.00000  -0.00005  -0.01063
   Bi     0.00000   7.72993   7.81360   0.00000  -0.00082  -0.00795
   Bi     1.93734   1.93345  10.34815   0.00082  -0.00000   0.00795
   Bi     1.93800   1.93345   1.76345   0.00005   0.00000   0.01063
   Bi     0.00000   3.87145   4.29046   0.00000   0.00005  -0.01063
   Bi     0.00000   3.87080   7.81360   0.00000   0.00082  -0.00795
   Bi     3.86691   7.69346   4.28990   0.00000   0.00940  -0.00128
   Bi     3.86691   7.73117   7.80447  -0.00000   0.00036  -0.00619
   Bi     1.93610   5.80036  10.35727  -0.00036   0.00000   0.00619
   Bi     1.97381   5.80036   1.76402  -0.00940  -0.00000   0.00128
   Bi     5.79647   1.93345  10.34815  -0.00082  -0.00000   0.00795
   Bi     5.79582   1.93345   1.76345  -0.00005   0.00000   0.01063
   Bi     3.86691   3.90726   4.28990   0.00000  -0.00940  -0.00128
   Bi     3.86691   3.86955   7.80447  -0.00000  -0.00036  -0.00619
   Bi     5.79772   5.80036  10.35727   0.00036   0.00000   0.00619
   Bi     5.76001   5.80036   1.76402   0.00940   0.00000   0.00128
   Se     0.00000   7.71618   0.02988   0.00000   0.00561   0.02642
   Se     1.95109   1.93345   6.02403  -0.00561  -0.00000  -0.02642
   Se     0.00000   3.88454   0.02988   0.00000  -0.00561   0.02642
   Se     3.86691   7.72892  12.10481  -0.00000  -0.01138   0.03623
   Se     1.93835   5.80036   6.05694   0.01138  -0.00000  -0.03623
   Se     5.78273   1.93345   6.02403   0.00561  -0.00000  -0.02642
   Se     3.86691   3.87180  12.10481  -0.00000   0.01138   0.03623
   Se     5.79547   5.80036   6.05694  -0.01138   0.00000  -0.03623
   O      0.00000   1.93345   3.02696  -0.00000   0.00000  -0.00000
   O      0.00000   5.80036   9.07997  -0.00000  -0.00000  -0.00173
   O      0.00000   5.80036   3.00091  -0.00000  -0.00000  -0.00290
   O      0.00000   1.93345   9.08087   0.00000  -0.00000   0.00000
   O      5.80902   0.00866   3.02696   0.00285   0.00285   0.00000
   O      1.92979   0.00367   9.08087  -0.00083   0.00083   0.00000
   O      1.92479   0.00866   3.02696  -0.00285   0.00285  -0.00000
   O      5.80403   0.00367   9.08087   0.00083   0.00083   0.00000
   O      1.92979   3.86324   9.08087  -0.00083  -0.00083  -0.00000
   O      1.92479   3.85825   3.02696  -0.00285  -0.00285  -0.00000
   O      3.86691   1.93345   3.05300  -0.00000   0.00000   0.00290
   O      3.86691   1.93345   9.08178   0.00000   0.00000   0.00173
   O      3.86691   5.80036   9.08087   0.00000  -0.00000  -0.00000
   O      5.80403   3.86324   9.08087   0.00083  -0.00083  -0.00000
   O      5.80902   3.85825   3.02696   0.00285  -0.00285  -0.00000
PRIMCOORD   59
     39   1
   Bi     0.00000   7.72928   4.29046  -0.00000  -0.02307  -0.01463
   Bi     0.00000   7.72993   7.81360   0.00000   0.01582  -0.01189
   Bi     1.93734   1.93345  10.34815   0.01582   0.00000  -0.01189
   Bi     1.93800   1.93345   1.76345  -0.02307  -0.00000  -0.01463
   Bi     0.00000   3.87145   4.29046  -0.00000   0.02307  -0.01463
   Bi     0.00000   3.87080   7.81360   0.00000  -0.01582  -0.01189
   Bi     3.86691   7.69346   4.28990   0.00000  -0.01626   0.01655
   Bi     3.86691   7.73117   7.80447  -0.00000   0.01492   0.01120
   Bi     1.93610   5.80036  10.35727   0.01492  -0.00000   0.01120
   Bi     1.97381   5.80036   1.76402  -0.01626   0.00000   0.01655
   Bi     5.79647   1.93345  10.34815  -0.01582   0.00000  -0.01189
   Bi     5.79582   1.93345   1.76345   0.02307  -0.00000  -0.01463
   Bi     3.86691   3.90726   4.28990   0.00000   0.01626   0.01655
   Bi     3.86691   3.86955   7.80447  -0.00000  -0.01492   0.01120
   Bi     5.79772   5.80036  10.35727  -0.01492  -0.00000   0.01120
   Bi     5.76001   5.80036   1.76402   0.01626   0.00000   0.01655
   Se     0.00000   7.71618   0.02988  -0.00000  -0.00291  -0.01349
   Se     1.95109   1.93345   6.02403  -0.00291  -0.00000  -0.01349
   Se     0.00000   3.88454   0.02988   0.00000   0.00291  -0.01349
   Se     3.86691   7.72892  12.10481   0.00000   0.00154   0.01134
   Se     1.93835   5.80036   6.05694   0.00154   0.00000   0.01134
   Se     5.78273   1.93345   6.02403   0.00291   0.00000  -0.01349
   Se     3.86691   3.87180  12.10481  -0.00000  -0.00154   0.01134
   Se     5.79547   5.80036   6.05694  -0.00154  -0.00000   0.01134
   O      0.00000   1.93345   3.02696  -0.00000  -0.00000  -0.00018
   O      0.00000   5.80036   9.07997   0.00000  -0.00000  -0.00196
   O      0.00000   5.80036   3.00091  -0.00000   0.00000  -0.00746
   O      0.00000   1.93345   9.08087   0.00000   0.00000  -0.00080
   O      5.80902   0.00866   3.02696   0.00604  -0.00604  -0.00063
   O      1.92979   0.00367   9.08087   0.00500   0.00500  -0.00044
   O      1.92479   0.00866   3.02696  -0.00604  -0.00604  -0.00063
   O      5.80403   0.00367   9.08087  -0.00500   0.00500  -0.00044
   O      1.92979   3.86324   9.08087   0.00500  -0.00500  -0.00044
   O      1.92479   3.85825   3.02696  -0.00604   0.00604  -0.00063
   O      3.86691   1.93345   3.05300   0.00000  -0.00000  -0.00746
   O      3.86691   1.93345   9.08178  -0.00000   0.00000  -0.00196
   O      3.86691   5.80036   9.08087  -0.00000  -0.00000   0.00209
   O      5.80403   3.86324   9.08087  -0.00500  -0.00500  -0.00044
   O      5.80902   3.85825   3.02696   0.00604   0.00604  -0.00063
PRIMCOORD   60
     39   1
   Bi     0.00000   7.72928   4.29046   0.02433  -0.00027   0.01840
   Bi     0.00000   7.72993   7.81360  -0.01501   0.00031   0.01023
   Bi     1.93734   1.93345  10.34815   0.00030  -0.01507   0.01019
   Bi     1.93800   1.93345   1.76345  -0.00027   0.02443   0.01833
   Bi     0.00000   3.87145   4.29046   0.02433  -0.00027  -0.01840
   Bi     0.00000   3.87080   7.81360  -0.01501   0.00031  -0.01023
   Bi     3.86691   7.69346   4.28990  -0.02115  -0.00359   0.00921
   Bi     3.86691   7.73117   7.80447   0.01458   0.00027   0.01133
   Bi     1.93610   5.80036  10.35727   0.00026   0.01464   0.01129
   Bi     1.97381   5.80036   1.76402  -0.00358  -0.02124   0.00918
   Bi     5.79647   1.93345  10.34815   0.00030  -0.01507  -0.01019
   Bi     5.79582   1.93345   1.76345  -0.00027   0.02443  -0.01833
   Bi     3.86691   3.90726   4.28990  -0.02115  -0.00359  -0.00921
   Bi     3.86691   3.86955   7.80447   0.01458   0.00027  -0.01133
   Bi     5.79772   5.80036  10.35727   0.00026   0.01464  -0.01129
   Bi     5.76001   5.80036   1.76402  -0.00358  -0.02124  -0.00918
   Se     0.00000   7.71618   0.02988   0.00023   0.00139   0.01256
   Se     1.95109   1.93345   6.02403   0.00138   0.00024   0.01251
   Se     0.00000   3.88454   0.02988   0.00023   0.00139  -0.01256
   Se     3.86691   7.72892  12.10481   0.00277  -0.00211   0.00447
   Se     1.93835   5.80036   6.05694  -0.00210   0.00278   0.00446
   Se     5.78273   1.93345   6.02403   0.00138   0.00024  -0.01251
   Se     3.86691   3.87180  12.10481   0.00277  -0.00211  -0.00447
   Se     5.79547   5.80036   6.05694  -0.00210   0.00278  -0.00446
   O      0.00000   1.93345   3.02696   0.00286   0.00288   0.00000
   O      0.00000   5.80036   9.07997  -0.00450   0.00400  -0.00000
   O      0.00000   5.80036   3.00091   0.01064  -0.00656  -0.00000
   O      0.00000   1.93345   9.08087  -0.00483  -0.00485   0.00000
   O      5.80902   0.00866   3.02696  -0.00527  -0.00526  -0.00001
   O      1.92979   0.00367   9.08087  -0.00193  -0.00193   0.00251
   O      1.92479   0.00866   3.02696   0.00103   0.00101  -0.00275
   O      5.80403   0.00367   9.08087  -0.00073  -0.00074   0.00001
   O      1.92979   3.86324   9.08087  -0.00073  -0.00074  -0.00001
   O      1.92479   3.85825   3.02696  -0.00527  -0.00526   0.00001
   O      3.86691   1.93345   3.05300  -0.00653   0.01069  -0.00000
   O      3.86691   1.93345   9.08178   0.00399  -0.00452  -0.00000
   O      3.86691   5.80036   9.08087   0.00349   0.00350   0.00000
   O      5.80403   3.86324   9.08087  -0.00193  -0.00193  -0.00251
   O      5.80902   3.85825   3.02696   0.00103   0.00101   0.00275
PRIMCOORD   61
     39   1
   Bi     0.00000   7.72928   4.29046  -0.02443  -0.00027   0.01833
   Bi     0.00000   7.72993   7.81360   0.01507   0.00030   0.01019
   Bi     1.93734   1.93345  10.34815  -0.00031  -0.01501  -0.01023
   Bi     1.93800   1.93345   1.76345   0.00027   0.02433  -0.01840
   Bi     0.00000   3.87145   4.29046  -0.02443  -0.00027  -0.01833
   Bi     0.00000   3.87080   7.81360   0.01507   0.00030  -0.01019
   Bi     3.86691   7.69346   4.28990   0.02124  -0.00358   0.00918
   Bi     3.86691   7.73117   7.80447  -0.01464   0.00026   0.01129
   Bi     1.93610   5.80036  10.35727  -0.00027   0.01458  -0.01133
   Bi     1.97381   5.80036   1.76402   0.00359  -0.02115  -0.00921
   Bi     5.79647   1.93345  10.34815  -0.00031  -0.01501   0.01023
   Bi     5.79582   1.93345   1.76345   0.00027   0.02433   0.01840
   Bi     3.86691   3.90726   4.28990   0.02124  -0.00358  -0.00918
   Bi     3.86691   3.86955   7.80447  -0.01464   0.00026  -0.01129
   Bi     5.79772   5.80036  10.35727  -0.00027   0.01458   0.01133
   Bi     5.76001   5.80036   1.76402   0.00359  -0.02115   0.00921
   Se     0.00000   7.71618   0.02988  -0.00024   0.00138   0.01251
   Se     1.95109   1.93345   6.02403  -0.00139   0.00023  -0.01256
   Se     0.00000   3.88454   0.02988  -0.00024   0.00138  -0.01251
   Se     3.86691   7.72892  12.10481  -0.00278  -0.00210   0.00446
   Se     1.93835   5.80036   6.05694   0.00211   0.00277  -0.00447
   Se     5.78273   1.93345   6.02403  -0.00139   0.00023   0.01256
   Se     3.86691   3.87180  12.10481  -0.00278  -0.00210  -0.00446
   Se     5.79547   5.80036   6.05694   0.00211   0.00277   0.00447
   O      0.00000   1.93345   3.02696  -0.00288   0.00286  -0.00000
   O      0.00000   5.80036   9.07997   0.00452   0.00399  -0.00000
   O      0.00000   5.80036   3.00091  -0.01069  -0.00653  -0.00000
   O      0.00000   1.93345   9.08087   0.00485  -0.00483  -0.00000
   O      5.80902   0.00866   3.02696  -0.00101   0.00103  -0.00275
   O      1.92979   0.00367   9.08087   0.00074  -0.00073  -0.00001
   O      1.92479   0.00866   3.02696   0.00526  -0.00527   0.00001
   O      5.80403   0.00367   9.08087   0.00193  -0.00193   0.00251
   O      1.92979   3.86324   9.08087   0.00193  -0.00193  -0.00251
   O      1.92479   3.85825   3.02696  -0.00101   0.00103   0.00275
   O      3.86691   1.93345   3.05300   0.00656   0.01064  -0.00000
   O      3.86691   1.93345   9.08178  -0.00400  -0.00450  -0.00000
   O      3.86691   5.80036   9.08087  -0.00350   0.00349   0.00000
   O      5.80403   3.86324   9.08087   0.00074  -0.00073   0.00001
   O      5.80902   3.85825   3.02696   0.00526  -0.00527  -0.00001
PRIMCOORD   62
     39   1
   Bi     0.00000   7.72928   4.29046   0.00321  -0.00000  -0.00000
   Bi     0.00000   7.72993   7.81360   0.00472   0.00000  -0.00000
   Bi     1.93734   1.93345  10.34815   0.00000   0.00472  -0.00000
   Bi     1.93800   1.93345   1.76345  -0.00000   0.00321  -0.00000
   Bi     0.00000   3.87145   4.29046  -0.00321   0.00000   0.00000
   Bi     0.00000   3.87080   7.81360  -0.00472  -0.00000   0.00000
   Bi     3.86691   7.69346   4.28990  -0.00315  -0.00000  -0.00000
   Bi     3.86691   7.73117   7.80447  -0.00487   0.00000  -0.00000
   Bi     1.93610   5.80036  10.35727   0.00000  -0.00487  -0.00000
   Bi     1.97381   5.80036   1.76402   0.00000  -0.00315  -0.00000
   Bi     5.79647   1.93345  10.34815  -0.00000  -0.00472   0.00000
   Bi     5.79582   1.93345   1.76345   0.00000  -0.00321   0.00000
   Bi     3.86691   3.90726   4.28990   0.00315   0.00000   0.00000
   Bi     3.86691   3.86955   7.80447   0.00487  -0.00000   0.00000
   Bi     5.79772   5.80036  10.35727  -0.00000   0.00487   0.00000
   Bi     5.76001   5.80036   1.76402   0.00000   0.00315   0.00000
   Se     0.00000   7.71618   0.02988   0.03394  -0.00000  -0.00000
   Se     1.95109   1.93345   6.02403  -0.00000   0.03394  -0.00000
   Se     0.00000   3.88454   0.02988  -0.03394  -0.00000   0.00000
   Se     3.86691   7.72892  12.10481  -0.03408   0.00000  -0.00000
   Se     1.93835   5.80036   6.05694   0.00000  -0.03408  -0.00000
   Se     5.78273   1.93345   6.02403  -0.00000  -0.03394   0.00000
   Se     3.86691   3.87180  12.10481   0.03408   0.00000   0.00000
   Se     5.79547   5.80036   6.05694   0.00000   0.03408   0.00000
   O      0.00000   1.93345   3.02696  -0.00000  -0.00000  -0.00000
   O      0.00000   5.80036   9.07997   0.00000  -0.00000  -0.00000
   O      0.00000   5.80036   3.00091  -0.00000   0.00000  -0.00000
   O      0.00000   1.93345   9.08087   0.00000   0.00000  -0.00000
   O      5.80902   0.00866   3.02696   0.00034  -0.00034   0.00623
   O      1.92979   0.00367   9.08087  -0.00013  -0.00013   0.00903
   O      1.92479   0.00866   3.02696   0.00034   0.00034  -0.00623
   O      5.80403   0.00367   9.08087  -0.00013   0.00013  -0.00903
   O      1.92979   3.86324   9.08087   0.00013  -0.00013  -0.00903
   O      1.92479   3.85825   3.02696  -0.00034   0.00034   0.00623
   O      3.86691   1.93345   3.05300   0.00000  -0.00000  -0.00000
   O      3.86691   1.93345   9.08178  -0.00000   0.00000  -0.00000
   O      3.86691   5.80036   9.08087  -0.00000  -0.00000  -0.00000
   O      5.80403   3.86324   9.08087   0.00013   0.00013   0.00903
   O      5.80902   3.85825   3.02696  -0.00034  -0.00034  -0.00623
PRIMCOORD   63
     39   1
   Bi     0.00000   7.72928   4.29046  -0.00000  -0.02519   0.01247
   Bi     0.00000   7.72993   7.81360  -0.00000   0.01717   0.01386
   Bi     1.93734   1.93345  10.34815  -0.01717   0.00000  -0.01386
   Bi     1.93800   1.93345   1.76345   0.02519   0.00000  -0.01247
   Bi     0.00000   3.87145   4.29046  -0.00000   0.02519   0.01247
   Bi     0.00000   3.87080   7.81360  -0.00000  -0.01717   0.01386
   Bi     3.86691   7.69346   4.28990   0.00000   0.01261   0.00044
   Bi     3.86691   7.73117   7.80447   0.00000   0.02519  -0.01428
   Bi     1.93610   5.80036  10.35727  -0.02519  -0.00000   0.01428
   Bi     1.97381   5.80036   1.76402  -0.01261  -0.00000  -0.00044
   Bi     5.79647   1.93345  10.34815   0.01717   0.00000  -0.01386
   Bi     5.79582   1.93345   1.76345  -0.02519  -0.00000  -0.01247
   Bi     3.86691   3.90726   4.28990   0.00000  -0.01261   0.00044
   Bi     3.86691   3.86955   7.80447   0.00000  -0.02519  -0.01428
   Bi     5.79772   5.80036  10.35727   0.02519   0.00000   0.01428
   Bi     5.76001   5.80036   1.76402   0.01261   0.00000  -0.00044
   Se     0.00000   7.71618   0.02988   0.00000   0.00051   0.00924
   Se     1.95109   1.93345   6.02403  -0.00051  -0.00000  -0.00924
   Se     0.00000   3.88454   0.02988  -0.00000  -0.00051   0.00924
   Se     3.86691   7.72892  12.10481  -0.00000  -0.00025  -0.00391
   Se     1.93835   5.80036   6.05694   0.00025   0.00000   0.00391
   Se     5.78273   1.93345   6.02403   0.00051   0.00000  -0.00924
   Se     3.86691   3.87180  12.10481   0.00000   0.00025  -0.00391
   Se     5.79547   5.80036   6.05694  -0.00025  -0.00000   0.00391
   O      0.00000   1.93345   3.02696   0.00000  -0.00000  -0.00000
   O      0.00000   5.80036   9.07997  -0.00000  -0.00000   0.00015
   O      0.00000   5.80036   3.00091  -0.00000  -0.00000   0.00225
   O      0.00000   1.93345   9.08087   0.00000  -0.00000   0.00000
   O      5.80902   0.00866   3.02696  -0.00278  -0.00278  -0.00000
   O      1.92979   0.00367   9.08087  -0.00731   0.00731   0.00000
   O      1.92479   0.00866   3.02696   0.00278  -0.00278   0.00000
   O      5.80403   0.00367   9.08087   0.00731   0.00731   0.00000
   O      1.92979   3.86324   9.08087  -0.00731  -0.00731  -0.00000
   O      1.92479   3.85825   3.02696   0.00278   0.00278   0.00000
   O      3.86691   1.93345   3.05300   0.00000  -0.00000  -0.00225
   O      3.86691   1.93345   9.08178   0.00000   0.00000  -0.00015
   O      3.86691   5.80036   9.08087   0.00000   0.00000   0.00000
   O      5.80403   3.86324   9.08087   0.00731  -0.00731   0.00000
   O      5.80902   3.85825   3.02696  -0.00278   0.00278  -0.00000
PRIMCOORD   64
     39   1
   Bi     0.00000   7.72928   4.29046   0.00000  -0.02493   0.00210
   Bi     0.00000   7.72993   7.81360  -0.00000  -0.03749  -0.00740
   Bi     1.93734   1.93345  10.34815   0.03749   0.00000   0.00740
   Bi     1.93800   1.93345   1.76345   0.02493  -0.00000  -0.00210
   Bi     0.00000   3.87145   4.29046  -0.00000   0.02493   0.00210
   Bi     0.00000   3.87080   7.81360   0.00000   0.03749  -0.00740
   Bi     3.86691   7.69346   4.28990  -0.00000   0.00340  -0.01045
   Bi     3.86691   7.73117   7.80447   0.00000   0.00850   0.00978
   Bi     1.93610   5.80036  10.35727  -0.00850  -0.00000  -0.00978
   Bi     1.97381   5.80036   1.76402  -0.00340   0.00000   0.01045
   Bi     5.79647   1.93345  10.34815  -0.03749  -0.00000   0.00740
   Bi     5.79582   1.93345   1.76345  -0.02493   0.00000  -0.00210
   Bi     3.86691   3.90726   4.28990   0.00000  -0.00340  -0.01045
   Bi     3.86691   3.86955   7.80447  -0.00000  -0.00850   0.00978
   Bi     5.79772   5.80036  10.35727   0.00850   0.00000  -0.00978
   Bi     5.76001   5.80036   1.76402   0.00340  -0.00000   0.01045
   Se     0.00000   7.71618   0.02988  -0.00000  -0.00350  -0.00475
   Se     1.95109   1.93345   6.02403   0.00350   0.00000   0.00475
   Se     0.00000   3.88454   0.02988  -0.00000   0.00350  -0.00475
   Se     3.86691   7.72892  12.10481  -0.00000  -0.00299  -0.00090
   Se     1.93835   5.80036   6.05694   0.00299   0.00000   0.00090
   Se     5.78273   1.93345   6.02403  -0.00350   0.00000   0.00475
   Se     3.86691   3.87180  12.10481  -0.00000   0.00299  -0.00090
   Se     5.79547   5.80036   6.05694  -0.00299  -0.00000   0.00090
   O      0.00000   1.93345   3.02696   0.00000  -0.00000   0.00000
   O      0.00000   5.80036   9.07997  -0.00000  -0.00000   0.00207
   O      0.00000   5.80036   3.00091   0.00000  -0.00000   0.00028
   O      0.00000   1.93345   9.08087   0.00000  -0.00000  -0.00000
   O      5.80902   0.00866   3.02696  -0.00303  -0.00303   0.00000
   O      1.92979   0.00367   9.08087   0.00547  -0.00547   0.00000
   O      1.92479   0.00866   3.02696   0.00303  -0.00303   0.00000
   O      5.80403   0.00367   9.08087  -0.00547  -0.00547   0.00000
   O      1.92979   3.86324   9.08087   0.00547   0.00547   0.00000
   O      1.92479   3.85825   3.02696   0.00303   0.00303   0.00000
   O      3.86691   1.93345   3.05300   0.00000   0.00000  -0.00028
   O      3.86691   1.93345   9.08178  -0.00000   0.00000  -0.00207
   O      3.86691   5.80036   9.08087  -0.00000  -0.00000   0.00000
   O      5.80403   3.86324   9.08087  -0.00547   0.00547   0.00000
   O      5.80902   3.85825   3.02696  -0.00303   0.00303   0.00000
PRIMCOORD   65
     39   1
   Bi     0.00000   7.72928   4.29046  -0.00000  -0.01891  -0.01104
   Bi     0.00000   7.72993   7.81360  -0.00000  -0.02259   0.01394
   Bi     1.93734   1.93345  10.34815  -0.02259  -0.00000   0.01394
   Bi     1.93800   1.93345   1.76345  -0.01891  -0.00000  -0.01104
   Bi     0.00000   3.87145   4.29046  -0.00000   0.01891  -0.01104
   Bi     0.00000   3.87080   7.81360  -0.00000   0.02259   0.01394
   Bi     3.86691   7.69346   4.28990   0.00000  -0.01520   0.01136
   Bi     3.86691   7.73117   7.80447   0.00000  -0.02267  -0.01438
   Bi     1.93610   5.80036  10.35727  -0.02267  -0.00000  -0.01438
   Bi     1.97381   5.80036   1.76402  -0.01520   0.00000   0.01136
   Bi     5.79647   1.93345  10.34815   0.02259  -0.00000   0.01394
   Bi     5.79582   1.93345   1.76345   0.01891  -0.00000  -0.01104
   Bi     3.86691   3.90726   4.28990   0.00000   0.01520   0.01136
   Bi     3.86691   3.86955   7.80447   0.00000   0.02267  -0.01438
   Bi     5.79772   5.80036  10.35727   0.02267   0.00000  -0.01438
   Bi     5.76001   5.80036   1.76402   0.01520   0.00000   0.01136
   Se     0.00000   7.71618   0.02988  -0.00000  -0.00289   0.00120
   Se     1.95109   1.93345   6.02403  -0.00289  -0.00000   0.00120
   Se     0.00000   3.88454   0.02988  -0.00000   0.00289   0.00120
   Se     3.86691   7.72892  12.10481   0.00000  -0.00447  -0.00113
   Se     1.93835   5.80036   6.05694  -0.00447   0.00000  -0.00113
   Se     5.78273   1.93345   6.02403   0.00289  -0.00000   0.00120
   Se     3.86691   3.87180  12.10481   0.00000   0.00447  -0.00113
   Se     5.79547   5.80036   6.05694   0.00447   0.00000  -0.00113
   O      0.00000   1.93345   3.02696   0.00000   0.00000   0.00467
   O      0.00000   5.80036   9.07997  -0.00000   0.00000   0.00055
   O      0.00000   5.80036   3.00091  -0.00000   0.00000  -0.00616
   O      0.00000   1.93345   9.08087  -0.00000  -0.00000  -0.00130
   O      5.80902   0.00866   3.02696   0.00487  -0.00487   0.00124
   O      1.92979   0.00367   9.08087  -0.00798  -0.00798   0.00134
   O      1.92479   0.00866   3.02696  -0.00487  -0.00487   0.00124
   O      5.80403   0.00367   9.08087   0.00798  -0.00798   0.00134
   O      1.92979   3.86324   9.08087  -0.00798   0.00798   0.00134
   O      1.92479   3.85825   3.02696  -0.00487   0.00487   0.00124
   O      3.86691   1.93345   3.05300   0.00000   0.00000  -0.00616
   O      3.86691   1.93345   9.08178   0.00000  -0.00000   0.00055
   O      3.86691   5.80036   9.08087   0.00000   0.00000   0.00210
   O      5.80403   3.86324   9.08087   0.00798   0.00798   0.00134
   O      5.80902   3.85825   3.02696   0.00487   0.00487   0.00124
PRIMCOORD   66
     39   1
   Bi     0.00000   7.72928   4.29046   0.03106  -0.00000  -0.00000
   Bi     0.00000   7.72993   7.81360   0.01913   0.00000   0.00000
   Bi     1.93734   1.93345  10.34815  -0.00000  -0.01913  -0.00000
   Bi     1.93800   1.93345   1.76345   0.00000  -0.03106   0.00000
   Bi     0.00000   3.87145   4.29046  -0.03106   0.00000   0.00000
   Bi     0.00000   3.87080   7.81360  -0.01913  -0.00000  -0.00000
   Bi     3.86691   7.69346   4.28990  -0.02813   0.00000  -0.00000
   Bi     3.86691   7.73117   7.80447  -0.01865  -0.00000   0.00000
   Bi     1.93610   5.80036  10.35727   0.00000   0.01865  -0.00000
   Bi     1.97381   5.80036   1.76402  -0.00000   0.02813   0.00000
   Bi     5.79647   1.93345  10.34815   0.00000   0.01913   0.00000
   Bi     5.79582   1.93345   1.76345  -0.00000   0.03106  -0.00000
   Bi     3.86691   3.90726   4.28990   0.02813  -0.00000   0.00000
   Bi     3.86691   3.86955   7.80447   0.01865   0.00000  -0.00000
   Bi     5.79772   5.80036  10.35727  -0.00000  -0.01865   0.00000
   Bi     5.76001   5.80036   1.76402   0.00000  -0.02813   0.00000
   Se     0.00000   7.71618   0.02988  -0.00214   0.00000  -0.00000
   Se     1.95109   1.93345   6.02403  -0.00000   0.00214  -0.00000
   Se     0.00000   3.88454   0.02988   0.00214  -0.00000  -0.00000
   Se     3.86691   7.72892  12.10481  -0.00011  -0.00000  -0.00000
   Se     1.93835   5.80036   6.05694   0.00000   0.00011   0.00000
   Se     5.78273   1.93345   6.02403  -0.00000  -0.00214   0.00000
   Se     3.86691   3.87180  12.10481   0.00011   0.00000  -0.00000
   Se     5.79547   5.80036   6.05694   0.00000  -0.00011   0.00000
   O      0.00000   1.93345   3.02696  -0.00000  -0.00000   0.00000
   O      0.00000   5.80036   9.07997   0.00000   0.00000   0.00000
   O      0.00000   5.80036   3.00091   0.00000   0.00000  -0.00000
   O      0.00000   1.93345   9.08087   0.00000  -0.00000   0.00000
   O      5.80902   0.00866   3.02696  -0.00345  -0.00345   0.00000
   O      1.92979   0.00367   9.08087   0.00095  -0.00095  -0.00000
   O      1.92479   0.00866   3.02696  -0.00345   0.00345  -0.00000
   O      5.80403   0.00367   9.08087   0.00095   0.00095  -0.00000
   O      1.92979   3.86324   9.08087  -0.00095  -0.00095   0.00000
   O      1.92479   3.85825   3.02696   0.00345   0.00345  -0.00000
   O      3.86691   1.93345   3.05300  -0.00000  -0.00000   0.00000
   O      3.86691   1.93345   9.08178  -0.00000  -0.00000  -0.00000
   O      3.86691   5.80036   9.08087  -0.00000   0.00000  -0.00000
   O      5.80403   3.86324   9.08087  -0.00095   0.00095   0.00000
   O      5.80902   3.85825   3.02696   0.00345  -0.00345   0.00000
PRIMCOORD   67
     39   1
   Bi     0.00000   7.72928   4.29046   0.01693   0.00061  -0.01099
   Bi     0.00000   7.72993   7.81360   0.02361   0.00031   0.01509
   Bi     1.93734   1.93345  10.34815  -0.00031  -0.02371  -0.01503
   Bi     1.93800   1.93345   1.76345  -0.00061  -0.01700   0.01094
   Bi     0.00000   3.87145   4.29046   0.01693   0.00061   0.01099
   Bi     0.00000   3.87080   7.81360   0.02361   0.00031  -0.01509
   Bi     3.86691   7.69346   4.28990  -0.01596   0.00097  -0.00662
   Bi     3.86691   7.73117   7.80447  -0.02344   0.00030   0.01363
   Bi     1.93610   5.80036  10.35727  -0.00030   0.02355  -0.01357
   Bi     1.97381   5.80036   1.76402  -0.00096   0.01603   0.00659
   Bi     5.79647   1.93345  10.34815  -0.00031  -0.02371   0.01503
   Bi     5.79582   1.93345   1.76345  -0.00061  -0.01700  -0.01094
   Bi     3.86691   3.90726   4.28990  -0.01596   0.00097   0.00662
   Bi     3.86691   3.86955   7.80447  -0.02344   0.00030  -0.01363
   Bi     5.79772   5.80036  10.35727  -0.00030   0.02355   0.01357
   Bi     5.76001   5.80036   1.76402  -0.00096   0.01603  -0.00659
   Se     0.00000   7.71618   0.02988   0.00654   0.00011   0.00272
   Se     1.95109   1.93345   6.02403  -0.00011  -0.00657  -0.00271
   Se     0.00000   3.88454   0.02988   0.00654   0.00011  -0.00272
   Se     3.86691   7.72892  12.10481  -0.00299  -0.00109  -0.00016
   Se     1.93835   5.80036   6.05694   0.00109   0.00300   0.00016
   Se     5.78273   1.93345   6.02403  -0.00011  -0.00657   0.00271
   Se     3.86691   3.87180  12.10481  -0.00299  -0.00109   0.00016
   Se     5.79547   5.80036   6.05694   0.00109   0.00300  -0.00016
   O      0.00000   1.93345   3.02696  -0.00101   0.00101   0.00000
   O      0.00000   5.80036   9.07997   0.00772   0.00472   0.00000
   O      0.00000   5.80036   3.00091   0.00923   0.00435  -0.00000
   O      0.00000   1.93345   9.08087   0.00289  -0.00290  -0.00000
   O      5.80902   0.00866   3.02696   0.00002   0.00000   0.00579
   O      1.92979   0.00367   9.08087  -0.00398   0.00398  -0.00001
   O      1.92479   0.00866   3.02696  -0.00542   0.00542   0.00001
   O      5.80403   0.00367   9.08087  -0.00005   0.00007  -0.00473
   O      1.92979   3.86324   9.08087  -0.00005   0.00007   0.00473
   O      1.92479   3.85825   3.02696   0.00002   0.00000  -0.00579
   O      3.86691   1.93345   3.05300  -0.00433  -0.00927  -0.00000
   O      3.86691   1.93345   9.08178  -0.00470  -0.00775   0.00000
   O      3.86691   5.80036   9.08087  -0.00843   0.00847   0.00000
   O      5.80403   3.86324   9.08087  -0.00398   0.00398   0.00001
   O      5.80902   3.85825   3.02696  -0.00542   0.00542  -0.00001
PRIMCOORD   68
     39   1
   Bi     0.00000   7.72928   4.29046  -0.01700   0.00061  -0.01094
   Bi     0.00000   7.72993   7.81360  -0.02371   0.00031   0.01503
   Bi     1.93734   1.93345  10.34815   0.00031  -0.02361   0.01509
   Bi     1.93800   1.93345   1.76345   0.00061  -0.01693  -0.01099
   Bi     0.00000   3.87145   4.29046  -0.01700   0.00061   0.01094
   Bi     0.00000   3.87080   7.81360  -0.02371   0.00031  -0.01503
   Bi     3.86691   7.69346   4.28990   0.01603   0.00096  -0.00659
   Bi     3.86691   7.73117   7.80447   0.02355   0.00030   0.01357
   Bi     1.93610   5.80036  10.35727   0.00030   0.02344   0.01363
   Bi     1.97381   5.80036   1.76402   0.00097   0.01596  -0.00662
   Bi     5.79647   1.93345  10.34815   0.00031  -0.02361  -0.01509
   Bi     5.79582   1.93345   1.76345   0.00061  -0.01693   0.01099
   Bi     3.86691   3.90726   4.28990   0.01603   0.00096   0.00659
   Bi     3.86691   3.86955   7.80447   0.02355   0.00030  -0.01357
   Bi     5.79772   5.80036  10.35727   0.00030   0.02344  -0.01363
   Bi     5.76001   5.80036   1.76402   0.00097   0.01596   0.00662
   Se     0.00000   7.71618   0.02988  -0.00657   0.00011   0.00271
   Se     1.95109   1.93345   6.02403   0.00011  -0.00654   0.00272
   Se     0.00000   3.88454   0.02988  -0.00657   0.00011  -0.00271
   Se     3.86691   7.72892  12.10481   0.00300  -0.00109  -0.00016
   Se     1.93835   5.80036   6.05694  -0.00109   0.00299  -0.00016
   Se     5.78273   1.93345   6.02403   0.00011  -0.00654  -0.00272
   Se     3.86691   3.87180  12.10481   0.00300  -0.00109   0.00016
   Se     5.79547   5.80036   6.05694  -0.00109   0.00299   0.00016
   O      0.00000   1.93345   3.02696   0.00101   0.00101  -0.00000
   O      0.00000   5.80036   9.07997  -0.00775   0.00470   0.00000
   O      0.00000   5.80036   3.00091  -0.00927   0.00433   0.00000
   O      0.00000   1.93345   9.08087  -0.00290  -0.00289   0.00000
   O      5.80902   0.00866   3.02696   0.00542   0.00542  -0.00001
   O      1.92979   0.00367   9.08087   0.00007   0.00005  -0.00473
   O      1.92479   0.00866   3.02696   0.00000  -0.00002   0.00579
   O      5.80403   0.00367   9.08087   0.00398   0.00398   0.00001
   O      1.92979   3.86324   9.08087   0.00398   0.00398  -0.00001
   O      1.92479   3.85825   3.02696   0.00542   0.00542   0.00001
   O      3.86691   1.93345   3.05300   0.00435  -0.00923   0.00000
   O      3.86691   1.93345   9.08178   0.00472  -0.00772   0.00000
   O      3.86691   5.80036   9.08087   0.00847   0.00843  -0.00000
   O      5.80403   3.86324   9.08087   0.00007   0.00005   0.00473
   O      5.80902   3.85825   3.02696   0.00000  -0.00002  -0.00579
PRIMCOORD   69
     39   1
   Bi     0.00000   7.72928   4.29046  -0.00000  -0.02696   0.00330
   Bi     0.00000   7.72993   7.81360  -0.00000   0.01623  -0.00611
   Bi     1.93734   1.93345  10.34815  -0.01623   0.00000   0.00611
   Bi     1.93800   1.93345   1.76345   0.02696   0.00000  -0.00330
   Bi     0.00000   3.87145   4.29046  -0.00000   0.02696   0.00330
   Bi     0.00000   3.87080   7.81360  -0.00000  -0.01623  -0.00611
   Bi     3.86691   7.69346   4.28990   0.00000   0.00601  -0.00889
   Bi     3.86691   7.73117   7.80447   0.00000  -0.03541   0.00595
   Bi     1.93610   5.80036  10.35727   0.03541  -0.00000  -0.00595
   Bi     1.97381   5.80036   1.76402  -0.00601  -0.00000   0.00889
   Bi     5.79647   1.93345  10.34815   0.01623   0.00000   0.00611
   Bi     5.79582   1.93345   1.76345  -0.02696  -0.00000  -0.00330
   Bi     3.86691   3.90726   4.28990   0.00000  -0.00601  -0.00889
   Bi     3.86691   3.86955   7.80447   0.00000   0.03541   0.00595
   Bi     5.79772   5.80036  10.35727  -0.03541  -0.00000  -0.00595
   Bi     5.76001   5.80036   1.76402   0.00601  -0.00000   0.00889
   Se     0.00000   7.71618   0.02988  -0.00000  -0.00379  -0.00170
   Se     1.95109   1.93345   6.02403   0.00379   0.00000   0.00170
   Se     0.00000   3.88454   0.02988  -0.00000   0.00379  -0.00170
   Se     3.86691   7.72892  12.10481   0.00000  -0.00154   0.00000
   Se     1.93835   5.80036   6.05694   0.00154   0.00000  -0.00000
   Se     5.78273   1.93345   6.02403  -0.00379   0.00000   0.00170
   Se     3.86691   3.87180  12.10481   0.00000   0.00154   0.00000
   Se     5.79547   5.80036   6.05694  -0.00154  -0.00000  -0.00000
   O      0.00000   1.93345   3.02696   0.00000   0.00000  -0.00000
   O      0.00000   5.80036   9.07997  -0.00000  -0.00000  -0.00088
   O      0.00000   5.80036   3.00091  -0.00000  -0.00000  -0.00081
   O      0.00000   1.93345   9.08087  -0.00000   0.00000   0.00000
   O      5.80902   0.00866   3.02696  -0.00285  -0.00285  -0.00000
   O      1.92979   0.00367   9.08087   0.00319  -0.00319  -0.00000
   O      1.92479   0.00866   3.02696   0.00285  -0.00285   0.00000
   O      5.80403   0.00367   9.08087  -0.00319  -0.00319   0.00000
   O      1.92979   3.86324   9.08087   0.00319   0.00319  -0.00000
   O      1.92479   3.85825   3.02696   0.00285   0.00285   0.00000
   O      3.86691   1.93345   3.05300   0.00000   0.00000   0.00081
   O      3.86691   1.93345   9.08178   0.00000   0.00000   0.00088
   O      3.86691   5.80036   9.08087   0.00000  -0.00000  -0.00000
   O      5.80403   3.86324   9.08087  -0.00319   0.00319   0.00000
   O      5.80902   3.85825   3.02696  -0.00285   0.00285  -0.00000
PRIMCOORD   70
     39   1
   Bi     0.00000   7.72928   4.29046   0.01979   0.00000   0.00000
   Bi     0.00000   7.72993   7.81360  -0.02986   0.00000  -0.00000
   Bi     1.93734   1.93345  10.34815  -0.00000   0.02986  -0.00000
   Bi     1.93800   1.93345   1.76345  -0.00000  -0.01979   0.00000
   Bi     0.00000   3.87145   4.29046  -0.01979  -0.00000  -0.00000
   Bi     0.00000   3.87080   7.81360   0.02986  -0.00000   0.00000
   Bi     3.86691   7.69346   4.28990  -0.01800   0.00000   0.00000
   Bi     3.86691   7.73117   7.80447   0.02958   0.00000  -0.00000
   Bi     1.93610   5.80036  10.35727   0.00000  -0.02958   0.00000
   Bi     1.97381   5.80036   1.76402   0.00000   0.01800  -0.00000
   Bi     5.79647   1.93345  10.34815   0.00000  -0.02986  -0.00000
   Bi     5.79582   1.93345   1.76345   0.00000   0.01979   0.00000
   Bi     3.86691   3.90726   4.28990   0.01800  -0.00000  -0.00000
   Bi     3.86691   3.86955   7.80447  -0.02958   0.00000   0.00000
   Bi     5.79772   5.80036  10.35727  -0.00000   0.02958   0.00000
   Bi     5.76001   5.80036   1.76402  -0.00000  -0.01800  -0.00000
   Se     0.00000   7.71618   0.02988  -0.00037   0.00000  -0.00000
   Se     1.95109   1.93345   6.02403   0.00000   0.00037  -0.00000
   Se     0.00000   3.88454   0.02988   0.00037  -0.00000  -0.00000
   Se     3.86691   7.72892  12.10481   0.00013   0.00000   0.00000
   Se     1.93835   5.80036   6.05694  -0.00000  -0.00013   0.00000
   Se     5.78273   1.93345   6.02403   0.00000  -0.00037   0.00000
   Se     3.86691   3.87180  12.10481  -0.00013  -0.00000   0.00000
   Se     5.79547   5.80036   6.05694   0.00000   0.00013  -0.00000
   O      0.00000   1.93345   3.02696  -0.00000   0.00000   0.00000
   O      0.00000   5.80036   9.07997  -0.00000  -0.00000   0.00000
   O      0.00000   5.80036   3.00091   0.00000  -0.00000  -0.00000
   O      0.00000   1.93345   9.08087   0.00000   0.00000  -0.00000
   O      5.80902   0.00866   3.02696  -0.00293  -0.00293  -0.00000
   O      1.92979   0.00367   9.08087  -0.00051   0.00051   0.00000
   O      1.92479   0.00866   3.02696  -0.00293   0.00293  -0.00000
   O      5.80403   0.00367   9.08087  -0.00051  -0.00051  -0.00000
   O      1.92979   3.86324   9.08087   0.00051   0.00051   0.00000
   O      1.92479   3.85825   3.02696   0.00293   0.00293   0.00000
   O      3.86691   1.93345   3.05300  -0.00000   0.00000   0.00000
   O      3.86691   1.93345   9.08178   0.00000   0.00000   0.00000
   O      3.86691   5.80036   9.08087  -0.00000  -0.00000  -0.00000
   O      5.80403   3.86324   9.08087   0.00051  -0.00051  -0.00000
   O      5.80902   3.85825   3.02696   0.00293  -0.00293   0.00000
PRIMCOORD   71
     39   1
   Bi     0.00000   7.72928   4.29046   0.00000  -0.00112   0.03216
   Bi     0.00000   7.72993   7.81360   0.00000  -0.00518  -0.00538
   Bi     1.93734   1.93345  10.34815   0.00518  -0.00000   0.00538
   Bi     1.93800   1.93345   1.76345   0.00112  -0.00000  -0.03216
   Bi     0.00000   3.87145   4.29046  -0.00000   0.00112   0.03216
   Bi     0.00000   3.87080   7.81360  -0.00000   0.00518  -0.00538
   Bi     3.86691   7.69346   4.28990  -0.00000  -0.01290   0.02156
   Bi     3.86691   7.73117   7.80447  -0.00000  -0.00515   0.00064
   Bi     1.93610   5.80036  10.35727   0.00515   0.00000  -0.00064
   Bi     1.97381   5.80036   1.76402   0.01290   0.00000  -0.02156
   Bi     5.79647   1.93345  10.34815  -0.00518   0.00000   0.00538
   Bi     5.79582   1.93345   1.76345  -0.00112   0.00000  -0.03216
   Bi     3.86691   3.90726   4.28990   0.00000   0.01290   0.02156
   Bi     3.86691   3.86955   7.80447   0.00000   0.00515   0.00064
   Bi     5.79772   5.80036  10.35727  -0.00515  -0.00000  -0.00064
   Bi     5.76001   5.80036   1.76402  -0.01290  -0.00000  -0.02156
   Se     0.00000   7.71618   0.02988  -0.00000  -0.00086   0.01550
   Se     1.95109   1.93345   6.02403   0.00086   0.00000  -0.01550
   Se     0.00000   3.88454   0.02988   0.00000   0.00086   0.01550
   Se     3.86691   7.72892  12.10481   0.00000  -0.00629   0.01991
   Se     1.93835   5.80036   6.05694   0.00629  -0.00000  -0.01991
   Se     5.78273   1.93345   6.02403  -0.00086  -0.00000  -0.01550
   Se     3.86691   3.87180  12.10481  -0.00000   0.00629   0.01991
   Se     5.79547   5.80036   6.05694  -0.00629   0.00000  -0.01991
   O      0.00000   1.93345   3.02696   0.00000   0.00000  -0.00000
   O      0.00000   5.80036   9.07997   0.00000   0.00000  -0.00013
   O      0.00000   5.80036   3.00091  -0.00000  -0.00000   0.00601
   O      0.00000   1.93345   9.08087  -0.00000   0.00000   0.00000
   O      5.80902   0.00866   3.02696  -0.00509  -0.00509  -0.00000
   O      1.92979   0.00367   9.08087   0.00137  -0.00137   0.00000
   O      1.92479   0.00866   3.02696   0.00509  -0.00509  -0.00000
   O      5.80403   0.00367   9.08087  -0.00137  -0.00137   0.00000
   O      1.92979   3.86324   9.08087   0.00137   0.00137   0.00000
   O      1.92479   3.85825   3.02696   0.00509   0.00509  -0.00000
   O      3.86691   1.93345   3.05300  -0.00000  -0.00000  -0.00601
   O      3.86691   1.93345   9.08178   0.00000  -0.00000   0.00013
   O      3.86691   5.80036   9.08087  -0.00000   0.00000   0.00000
   O      5.80403   3.86324   9.08087  -0.00137   0.00137   0.00000
   O      5.80902   3.85825   3.02696  -0.00509   0.00509   0.00000
PRIMCOORD   72
     39   1
   Bi     0.00000   7.72928   4.29046   0.00000   0.00039  -0.00177
   Bi     0.00000   7.72993   7.81360   0.00000   0.00090   0.03087
   Bi     1.93734   1.93345  10.34815  -0.00090   0.00000  -0.03087
   Bi     1.93800   1.93345   1.76345  -0.00039  -0.00000   0.00177
   Bi     0.00000   3.87145   4.29046  -0.00000  -0.00039  -0.00177
   Bi     0.00000   3.87080   7.81360   0.00000  -0.00090   0.03087
   Bi     3.86691   7.69346   4.28990  -0.00000  -0.00008  -0.00128
   Bi     3.86691   7.73117   7.80447   0.00000  -0.00021   0.03066
   Bi     1.93610   5.80036  10.35727   0.00021   0.00000  -0.03066
   Bi     1.97381   5.80036   1.76402   0.00008   0.00000   0.00128
   Bi     5.79647   1.93345  10.34815   0.00090  -0.00000  -0.03087
   Bi     5.79582   1.93345   1.76345   0.00039   0.00000   0.00177
   Bi     3.86691   3.90726   4.28990   0.00000   0.00008  -0.00128
   Bi     3.86691   3.86955   7.80447  -0.00000   0.00021   0.03066
   Bi     5.79772   5.80036  10.35727  -0.00021  -0.00000  -0.03066
   Bi     5.76001   5.80036   1.76402  -0.00008  -0.00000   0.00128
   Se     0.00000   7.71618   0.02988  -0.00000   0.00026   0.01713
   Se     1.95109   1.93345   6.02403  -0.00026  -0.00000  -0.01713
   Se     0.00000   3.88454   0.02988  -0.00000  -0.00026   0.01713
   Se     3.86691   7.72892  12.10481   0.00000  -0.00148   0.01739
   Se     1.93835   5.80036   6.05694   0.00148  -0.00000  -0.01739
   Se     5.78273   1.93345   6.02403   0.00026   0.00000  -0.01713
   Se     3.86691   3.87180  12.10481   0.00000   0.00148   0.01739
   Se     5.79547   5.80036   6.05694  -0.00148  -0.00000  -0.01739
   O      0.00000   1.93345   3.02696  -0.00000   0.00000   0.00000
   O      0.00000   5.80036   9.07997  -0.00000  -0.00000   0.00133
   O      0.00000   5.80036   3.00091   0.00000  -0.00000  -0.00148
   O      0.00000   1.93345   9.08087   0.00000  -0.00000  -0.00000
   O      5.80902   0.00866   3.02696   0.00068   0.00068   0.00000
   O      1.92979   0.00367   9.08087   0.00039  -0.00039   0.00000
   O      1.92479   0.00866   3.02696  -0.00068   0.00068   0.00000
   O      5.80403   0.00367   9.08087  -0.00039  -0.00039  -0.00000
   O      1.92979   3.86324   9.08087   0.00039   0.00039  -0.00000
   O      1.92479   3.85825   3.02696  -0.00068  -0.00068  -0.00000
   O      3.86691   1.93345   3.05300  -0.00000  -0.00000   0.00148
   O      3.86691   1.93345   9.08178  -0.00000  -0.00000  -0.00133
   O      3.86691   5.80036   9.08087  -0.00000  -0.00000   0.00000
   O      5.80403   3.86324   9.08087  -0.00039   0.00039   0.00000
   O      5.80902   3.85825   3.02696   0.00068  -0.00068  -0.00000
PRIMCOORD   73
     39   1
   Bi     0.00000   7.72928   4.29046  -0.00007   0.00002  -0.00010
   Bi     0.00000   7.72993   7.81360   0.00008   0.00002   0.00005
   Bi     1.93734   1.93345  10.34815  -0.00002  -0.00008  -0.00005
   Bi     1.93800   1.93345   1.76345  -0.00002   0.00007   0.00010
   Bi     0.00000   3.87145   4.29046  -0.00007   0.00002   0.00010
   Bi     0.00000   3.87080   7.81360   0.00008   0.00002  -0.00005
   Bi     3.86691   7.69346   4.28990  -0.00002   0.00071   0.00094
   Bi     3.86691   7.73117   7.80447  -0.00015   0.00001   0.00005
   Bi     1.93610   5.80036  10.35727  -0.00001   0.00014  -0.00005
   Bi     1.97381   5.80036   1.76402  -0.00076   0.00002  -0.00101
   Bi     5.79647   1.93345  10.34815  -0.00002  -0.00008   0.00005
   Bi     5.79582   1.93345   1.76345  -0.00002   0.00007  -0.00010
   Bi     3.86691   3.90726   4.28990  -0.00002   0.00071  -0.00094
   Bi     3.86691   3.86955   7.80447  -0.00015   0.00001  -0.00005
   Bi     5.79772   5.80036  10.35727  -0.00001   0.00014   0.00005
   Bi     5.76001   5.80036   1.76402  -0.00076   0.00002   0.00101
   Se     0.00000   7.71618   0.02988  -0.00025   0.00003   0.00007
   Se     1.95109   1.93345   6.02403  -0.00003   0.00024  -0.00008
   Se     0.00000   3.88454   0.02988  -0.00025   0.00003  -0.00007
   Se     3.86691   7.72892  12.10481   0.00007  -0.00006  -0.00003
   Se     1.93835   5.80036   6.05694   0.00006  -0.00007   0.00004
   Se     5.78273   1.93345   6.02403  -0.00003   0.00024   0.00008
   Se     3.86691   3.87180  12.10481   0.00007  -0.00006   0.00003
   Se     5.79547   5.80036   6.05694   0.00006  -0.00007  -0.00004
   O      0.00000   1.93345   3.02696  -0.01852   0.01730  -0.00000
   O      0.00000   5.80036   9.07997  -0.01947   0.01710  -0.00000
   O      0.00000   5.80036   3.00091   0.01943  -0.01785   0.00000
   O      0.00000   1.93345   9.08087   0.01942  -0.01814   0.00000
   O      5.80902   0.00866   3.02696   0.01785  -0.01899  -0.00045
   O      1.92979   0.00367   9.08087   0.01826  -0.01948   0.00003
   O      1.92479   0.00866   3.02696  -0.01622   0.01747   0.00002
   O      5.80403   0.00367   9.08087  -0.01718   0.01846  -0.00077
   O      1.92979   3.86324   9.08087  -0.01718   0.01846   0.00077
   O      1.92479   3.85825   3.02696   0.01785  -0.01899   0.00045
   O      3.86691   1.93345   3.05300   0.01910  -0.01815  -0.00000
   O      3.86691   1.93345   9.08178  -0.01830   0.01819  -0.00000
   O      3.86691   5.80036   9.08087   0.01966  -0.01836   0.00000
   O      5.80403   3.86324   9.08087   0.01826  -0.01948  -0.00003
   O      5.80902   3.85825   3.02696  -0.01622   0.01747  -0.00002
PRIMCOORD   74
     39   1
   Bi     0.00000   7.72928   4.29046   0.00007   0.00002  -0.00010
   Bi     0.00000   7.72993   7.81360  -0.00008   0.00002   0.00005
   Bi     1.93734   1.93345  10.34815   0.00002  -0.00008   0.00005
   Bi     1.93800   1.93345   1.76345   0.00002   0.00007  -0.00010
   Bi     0.00000   3.87145   4.29046   0.00007   0.00002   0.00010
   Bi     0.00000   3.87080   7.81360  -0.00008   0.00002  -0.00005
   Bi     3.86691   7.69346   4.28990   0.00002   0.00076   0.00101
   Bi     3.86691   7.73117   7.80447   0.00014   0.00001   0.00005
   Bi     1.93610   5.80036  10.35727   0.00001   0.00015   0.00005
   Bi     1.97381   5.80036   1.76402   0.00071   0.00002   0.00094
   Bi     5.79647   1.93345  10.34815   0.00002  -0.00008  -0.00005
   Bi     5.79582   1.93345   1.76345   0.00002   0.00007   0.00010
   Bi     3.86691   3.90726   4.28990   0.00002   0.00076  -0.00101
   Bi     3.86691   3.86955   7.80447   0.00014   0.00001  -0.00005
   Bi     5.79772   5.80036  10.35727   0.00001   0.00015  -0.00005
   Bi     5.76001   5.80036   1.76402   0.00071   0.00002  -0.00094
   Se     0.00000   7.71618   0.02988   0.00024   0.00003   0.00008
   Se     1.95109   1.93345   6.02403   0.00003   0.00025   0.00007
   Se     0.00000   3.88454   0.02988   0.00024   0.00003  -0.00008
   Se     3.86691   7.72892  12.10481  -0.00007  -0.00006  -0.00004
   Se     1.93835   5.80036   6.05694  -0.00006  -0.00007  -0.00003
   Se     5.78273   1.93345   6.02403   0.00003   0.00025  -0.00007
   Se     3.86691   3.87180  12.10481  -0.00007  -0.00006   0.00004
   Se     5.79547   5.80036   6.05694  -0.00006  -0.00007   0.00003
   O      0.00000   1.93345   3.02696   0.01730   0.01852  -0.00000
   O      0.00000   5.80036   9.07997   0.01819   0.01830   0.00000
   O      0.00000   5.80036   3.00091  -0.01815  -0.01910   0.00000
   O      0.00000   1.93345   9.08087  -0.01814  -0.01942  -0.00000
   O      5.80902   0.00866   3.02696   0.01747   0.01622  -0.00002
   O      1.92979   0.00367   9.08087   0.01846   0.01718  -0.00077
   O      1.92479   0.00866   3.02696  -0.01899  -0.01785  -0.00045
   O      5.80403   0.00367   9.08087  -0.01948  -0.01826  -0.00003
   O      1.92979   3.86324   9.08087  -0.01948  -0.01826   0.00003
   O      1.92479   3.85825   3.02696   0.01747   0.01622   0.00002
   O      3.86691   1.93345   3.05300  -0.01785  -0.01943   0.00000
   O      3.86691   1.93345   9.08178   0.01710   0.01947   0.00000
   O      3.86691   5.80036   9.08087  -0.01836  -0.01966  -0.00000
   O      5.80403   3.86324   9.08087   0.01846   0.01718   0.00077
   O      5.80902   3.85825   3.02696  -0.01899  -0.01785   0.00045
PRIMCOORD   75
     39   1
   Bi     0.00000   7.72928   4.29046   0.00027   0.00008  -0.00007
   Bi     0.00000   7.72993   7.81360   0.00012   0.00004  -0.00002
   Bi     1.93734   1.93345  10.34815   0.00003   0.00014  -0.00002
   Bi     1.93800   1.93345   1.76345   0.00007   0.00030  -0.00006
   Bi     0.00000   3.87145   4.29046   0.00027   0.00008   0.00007
   Bi     0.00000   3.87080   7.81360   0.00012   0.00004   0.00002
   Bi     3.86691   7.69346   4.28990  -0.00007   0.00081   0.00109
   Bi     3.86691   7.73117   7.80447  -0.00015   0.00006  -0.00015
   Bi     1.93610   5.80036  10.35727   0.00006  -0.00016  -0.00014
   Bi     1.97381   5.80036   1.76402   0.00074  -0.00008   0.00099
   Bi     5.79647   1.93345  10.34815   0.00003   0.00014   0.00002
   Bi     5.79582   1.93345   1.76345   0.00007   0.00030   0.00006
   Bi     3.86691   3.90726   4.28990  -0.00007   0.00081  -0.00109
   Bi     3.86691   3.86955   7.80447  -0.00015   0.00006   0.00015
   Bi     5.79772   5.80036  10.35727   0.00006  -0.00016   0.00014
   Bi     5.76001   5.80036   1.76402   0.00074  -0.00008  -0.00099
   Se     0.00000   7.71618   0.02988   0.00057   0.00019   0.00010
   Se     1.95109   1.93345   6.02403   0.00017   0.00063   0.00009
   Se     0.00000   3.88454   0.02988   0.00057   0.00019  -0.00010
   Se     3.86691   7.72892  12.10481  -0.00032   0.00004   0.00021
   Se     1.93835   5.80036   6.05694   0.00004  -0.00035   0.00019
   Se     5.78273   1.93345   6.02403   0.00017   0.00063  -0.00009
   Se     3.86691   3.87180  12.10481  -0.00032   0.00004  -0.00021
   Se     5.79547   5.80036   6.05694   0.00004  -0.00035  -0.00019
   O      0.00000   1.93345   3.02696   0.01747   0.01920   0.00000
   O      0.00000   5.80036   9.07997  -0.01730  -0.01754   0.00000
   O      0.00000   5.80036   3.00091  -0.02041  -0.02157  -0.00000
   O      0.00000   1.93345   9.08087   0.01595   0.01754  -0.00000
   O      5.80902   0.00866   3.02696   0.01823   0.01625  -0.00004
   O      1.92979   0.00367   9.08087  -0.01804  -0.01650   0.00223
   O      1.92479   0.00866   3.02696  -0.02165  -0.02002  -0.00075
   O      5.80403   0.00367   9.08087   0.01714   0.01550   0.00011
   O      1.92979   3.86324   9.08087   0.01714   0.01550  -0.00011
   O      1.92479   3.85825   3.02696   0.01823   0.01625   0.00004
   O      3.86691   1.93345   3.05300  -0.01962  -0.02243  -0.00000
   O      3.86691   1.93345   9.08178  -0.01595  -0.01902   0.00000
   O      3.86691   5.80036   9.08087   0.01587   0.01744  -0.00000
   O      5.80403   3.86324   9.08087  -0.01804  -0.01650  -0.00223
   O      5.80902   3.85825   3.02696  -0.02165  -0.02002   0.00075
PRIMCOORD   76
     39   1
   Bi     0.00000   7.72928   4.29046   0.00030  -0.00007   0.00006
   Bi     0.00000   7.72993   7.81360   0.00014  -0.00003   0.00002
   Bi     1.93734   1.93345  10.34815   0.00004  -0.00012  -0.00002
   Bi     1.93800   1.93345   1.76345   0.00008  -0.00027  -0.00007
   Bi     0.00000   3.87145   4.29046   0.00030  -0.00007  -0.00006
   Bi     0.00000   3.87080   7.81360   0.00014  -0.00003  -0.00002
   Bi     3.86691   7.69346   4.28990  -0.00008  -0.00074  -0.00099
   Bi     3.86691   7.73117   7.80447  -0.00016  -0.00006   0.00014
   Bi     1.93610   5.80036  10.35727   0.00006   0.00015  -0.00015
   Bi     1.97381   5.80036   1.76402   0.00081   0.00007   0.00109
   Bi     5.79647   1.93345  10.34815   0.00004  -0.00012   0.00002
   Bi     5.79582   1.93345   1.76345   0.00008  -0.00027   0.00007
   Bi     3.86691   3.90726   4.28990  -0.00008  -0.00074   0.00099
   Bi     3.86691   3.86955   7.80447  -0.00016  -0.00006  -0.00014
   Bi     5.79772   5.80036  10.35727   0.00006   0.00015   0.00015
   Bi     5.76001   5.80036   1.76402   0.00081   0.00007  -0.00109
   Se     0.00000   7.71618   0.02988   0.00063  -0.00017  -0.00009
   Se     1.95109   1.93345   6.02403   0.00019  -0.00057   0.00010
   Se     0.00000   3.88454   0.02988   0.00063  -0.00017   0.00009
   Se     3.86691   7.72892  12.10481  -0.00035  -0.00004  -0.00019
   Se     1.93835   5.80036   6.05694   0.00004   0.00032   0.00021
   Se     5.78273   1.93345   6.02403   0.00019  -0.00057  -0.00010
   Se     3.86691   3.87180  12.10481  -0.00035  -0.00004   0.00019
   Se     5.79547   5.80036   6.05694   0.00004   0.00032  -0.00021
   O      0.00000   1.93345   3.02696   0.01920  -0.01747   0.00000
   O      0.00000   5.80036   9.07997  -0.01902   0.01595   0.00000
   O      0.00000   5.80036   3.00091  -0.02243   0.01962  -0.00000
   O      0.00000   1.93345   9.08087   0.01754  -0.01595  -0.00000
   O      5.80902   0.00866   3.02696  -0.02002   0.02165   0.00075
   O      1.92979   0.00367   9.08087   0.01550  -0.01714   0.00011
   O      1.92479   0.00866   3.02696   0.01625  -0.01823  -0.00004
   O      5.80403   0.00367   9.08087  -0.01650   0.01804  -0.00223
   O      1.92979   3.86324   9.08087  -0.01650   0.01804   0.00223
   O      1.92479   3.85825   3.02696  -0.02002   0.02165  -0.00075
   O      3.86691   1.93345   3.05300  -0.02157   0.02041  -0.00000
   O      3.86691   1.93345   9.08178  -0.01754   0.01730   0.00000
   O      3.86691   5.80036   9.08087   0.01744  -0.01587  -0.00000
   O      5.80403   3.86324   9.08087   0.01550  -0.01714  -0.00011
   O      5.80902   3.85825   3.02696   0.01625  -0.01823   0.00004
PRIMCOORD   77
     39   1
   Bi     0.00000   7.72928   4.29046  -0.00047   0.00059  -0.00022
   Bi     0.00000   7.72993   7.81360  -0.00100   0.00126   0.00012
   Bi     1.93734   1.93345  10.34815  -0.00126   0.00100  -0.00012
   Bi     1.93800   1.93345   1.76345  -0.00059   0.00047   0.00022
   Bi     0.00000   3.87145   4.29046  -0.00047   0.00059   0.00022
   Bi     0.00000   3.87080   7.81360  -0.00100   0.00126  -0.00012
   Bi     3.86691   7.69346   4.28990  -0.00081  -0.00004  -0.00051
   Bi     3.86691   7.73117   7.80447  -0.00115   0.00123   0.00006
   Bi     1.93610   5.80036  10.35727  -0.00123   0.00115  -0.00006
   Bi     1.97381   5.80036   1.76402   0.00004   0.00081   0.00051
   Bi     5.79647   1.93345  10.34815  -0.00126   0.00100   0.00012
   Bi     5.79582   1.93345   1.76345  -0.00059   0.00047  -0.00022
   Bi     3.86691   3.90726   4.28990  -0.00081  -0.00004   0.00051
   Bi     3.86691   3.86955   7.80447  -0.00115   0.00123  -0.00006
   Bi     5.79772   5.80036  10.35727  -0.00123   0.00115   0.00006
   Bi     5.76001   5.80036   1.76402   0.00004   0.00081  -0.00051
   Se     0.00000   7.71618   0.02988  -0.00235   0.00213   0.00007
   Se     1.95109   1.93345   6.02403  -0.00213   0.00235  -0.00007
   Se     0.00000   3.88454   0.02988  -0.00235   0.00213  -0.00007
   Se     3.86691   7.72892  12.10481  -0.00217   0.00259  -0.00013
   Se     1.93835   5.80036   6.05694  -0.00259   0.00217   0.00013
   Se     5.78273   1.93345   6.02403  -0.00213   0.00235   0.00007
   Se     3.86691   3.87180  12.10481  -0.00217   0.00259   0.00013
   Se     5.79547   5.80036   6.05694  -0.00259   0.00217  -0.00013
   O      0.00000   1.93345   3.02696   0.01624  -0.01626   0.00000
   O      0.00000   5.80036   9.07997   0.02155  -0.02098   0.00000
   O      0.00000   5.80036   3.00091   0.00935  -0.00980   0.00000
   O      0.00000   1.93345   9.08087   0.02200  -0.02202  -0.00000
   O      5.80902   0.00866   3.02696   0.00961  -0.00963   0.00168
   O      1.92979   0.00367   9.08087   0.02257  -0.02259  -0.00000
   O      1.92479   0.00866   3.02696   0.01568  -0.01569   0.00000
   O      5.80403   0.00367   9.08087   0.02184  -0.02186  -0.00142
   O      1.92979   3.86324   9.08087   0.02184  -0.02186   0.00142
   O      1.92479   3.85825   3.02696   0.00961  -0.00963  -0.00168
   O      3.86691   1.93345   3.05300   0.00979  -0.00936   0.00000
   O      3.86691   1.93345   9.08178   0.02096  -0.02157  -0.00000
   O      3.86691   5.80036   9.08087   0.02120  -0.02122  -0.00000
   O      5.80403   3.86324   9.08087   0.02257  -0.02259   0.00000
   O      5.80902   3.85825   3.02696   0.01568  -0.01569  -0.00000
PRIMCOORD   78
     39   1
   Bi     0.00000   7.72928   4.29046  -0.00047  -0.00059   0.00022
   Bi     0.00000   7.72993   7.81360  -0.00100  -0.00126  -0.00012
   Bi     1.93734   1.93345  10.34815  -0.00126  -0.00100  -0.00012
   Bi     1.93800   1.93345   1.76345  -0.00059  -0.00047   0.00022
   Bi     0.00000   3.87145   4.29046  -0.00047  -0.00059  -0.00022
   Bi     0.00000   3.87080   7.81360  -0.00100  -0.00126   0.00012
   Bi     3.86691   7.69346   4.28990  -0.00081   0.00004   0.00051
   Bi     3.86691   7.73117   7.80447  -0.00115  -0.00123  -0.00006
   Bi     1.93610   5.80036  10.35727  -0.00123  -0.00115  -0.00006
   Bi     1.97381   5.80036   1.76402   0.00004  -0.00081   0.00051
   Bi     5.79647   1.93345  10.34815  -0.00126  -0.00100   0.00012
   Bi     5.79582   1.93345   1.76345  -0.00059  -0.00047  -0.00022
   Bi     3.86691   3.90726   4.28990  -0.00081   0.00004  -0.00051
   Bi     3.86691   3.86955   7.80447  -0.00115  -0.00123   0.00006
   Bi     5.79772   5.80036  10.35727  -0.00123  -0.00115   0.00006
   Bi     5.76001   5.80036   1.76402   0.00004  -0.00081  -0.00051
   Se     0.00000   7.71618   0.02988  -0.00235  -0.00213  -0.00007
   Se     1.95109   1.93345   6.02403  -0.00213  -0.00235  -0.00007
   Se     0.00000   3.88454   0.02988  -0.00235  -0.00213   0.00007
   Se     3.86691   7.72892  12.10481  -0.00217  -0.00259   0.00013
   Se     1.93835   5.80036   6.05694  -0.00259  -0.00217   0.00013
   Se     5.78273   1.93345   6.02403  -0.00213  -0.00235   0.00007
   Se     3.86691   3.87180  12.10481  -0.00217  -0.00259  -0.00013
   Se     5.79547   5.80036   6.05694  -0.00259  -0.00217  -0.00013
   O      0.00000   1.93345   3.02696   0.01626   0.01624   0.00000
   O      0.00000   5.80036   9.07997   0.02157   0.02096   0.00000
   O      0.00000   5.80036   3.00091   0.00936   0.00979  -0.00000
   O      0.00000   1.93345   9.08087   0.02202   0.02200  -0.00000
   O      5.80902   0.00866   3.02696   0.01569   0.01568   0.00000
   O      1.92979   0.00367   9.08087   0.02186   0.02184   0.00142
   O      1.92479   0.00866   3.02696   0.00963   0.00961  -0.00168
   O      5.80403   0.00367   9.08087   0.02259   0.02257  -0.00000
   O      1.92979   3.86324   9.08087   0.02259   0.02257   0.00000
   O      1.92479   3.85825   3.02696   0.01569   0.01568  -0.00000
   O      3.86691   1.93345   3.05300   0.00980   0.00935  -0.00000
   O      3.86691   1.93345   9.08178   0.02098   0.02155   0.00000
   O      3.86691   5.80036   9.08087   0.02122   0.02120   0.00000
   O      5.80403   3.86324   9.08087   0.02186   0.02184  -0.00142
   O      5.80902   3.85825   3.02696   0.00963   0.00961   0.00168
PRIMCOORD   79
     39   1
   Bi     0.00000   7.72928   4.29046   0.00133   0.00132  -0.00002
   Bi     0.00000   7.72993   7.81360  -0.00069  -0.00081   0.00006
   Bi     1.93734   1.93345  10.34815  -0.00076  -0.00073   0.00006
   Bi     1.93800   1.93345   1.76345   0.00125   0.00140  -0.00002
   Bi     0.00000   3.87145   4.29046   0.00133   0.00132   0.00002
   Bi     0.00000   3.87080   7.81360  -0.00069  -0.00081  -0.00006
   Bi     3.86691   7.69346   4.28990   0.00132   0.00025  -0.00050
   Bi     3.86691   7.73117   7.80447  -0.00064  -0.00081  -0.00002
   Bi     1.93610   5.80036  10.35727  -0.00077  -0.00068  -0.00002
   Bi     1.97381   5.80036   1.76402   0.00024   0.00139  -0.00047
   Bi     5.79647   1.93345  10.34815  -0.00076  -0.00073  -0.00006
   Bi     5.79582   1.93345   1.76345   0.00125   0.00140   0.00002
   Bi     3.86691   3.90726   4.28990   0.00132   0.00025   0.00050
   Bi     3.86691   3.86955   7.80447  -0.00064  -0.00081   0.00002
   Bi     5.79772   5.80036  10.35727  -0.00077  -0.00068   0.00002
   Bi     5.76001   5.80036   1.76402   0.00024   0.00139   0.00047
   Se     0.00000   7.71618   0.02988   0.00027   0.00079  -0.00015
   Se     1.95109   1.93345   6.02403   0.00075   0.00029  -0.00014
   Se     0.00000   3.88454   0.02988   0.00027   0.00079   0.00015
   Se     3.86691   7.72892  12.10481   0.00097   0.00090  -0.00003
   Se     1.93835   5.80036   6.05694   0.00085   0.00103  -0.00003
   Se     5.78273   1.93345   6.02403   0.00075   0.00029   0.00014
   Se     3.86691   3.87180  12.10481   0.00097   0.00090   0.00003
   Se     5.79547   5.80036   6.05694   0.00085   0.00103   0.00003
   O      0.00000   1.93345   3.02696  -0.02811  -0.02974  -0.00000
   O      0.00000   5.80036   9.07997   0.01167   0.01272   0.00000
   O      0.00000   5.80036   3.00091  -0.01716  -0.02025   0.00000
   O      0.00000   1.93345   9.08087   0.01074   0.01136  -0.00000
   O      5.80902   0.00866   3.02696  -0.02688  -0.02797  -0.00001
   O      1.92979   0.00367   9.08087   0.01272   0.01340  -0.00231
   O      1.92479   0.00866   3.02696  -0.01864  -0.02018  -0.00018
   O      5.80403   0.00367   9.08087   0.01166   0.01240  -0.00006
   O      1.92979   3.86324   9.08087   0.01166   0.01240   0.00006
   O      1.92479   3.85825   3.02696  -0.02688  -0.02797   0.00001
   O      3.86691   1.93345   3.05300  -0.01914  -0.01815   0.00000
   O      3.86691   1.93345   9.08178   0.01202   0.01235   0.00000
   O      3.86691   5.80036   9.08087   0.01093   0.01156  -0.00000
   O      5.80403   3.86324   9.08087   0.01272   0.01340   0.00231
   O      5.80902   3.85825   3.02696  -0.01864  -0.02018   0.00018
PRIMCOORD   80
     39   1
   Bi     0.00000   7.72928   4.29046   0.00140  -0.00125   0.00002
   Bi     0.00000   7.72993   7.81360  -0.00073   0.00076  -0.00006
   Bi     1.93734   1.93345  10.34815  -0.00081   0.00069   0.00006
   Bi     1.93800   1.93345   1.76345   0.00132  -0.00133  -0.00002
   Bi     0.00000   3.87145   4.29046   0.00140  -0.00125  -0.00002
   Bi     0.00000   3.87080   7.81360  -0.00073   0.00076   0.00006
   Bi     3.86691   7.69346   4.28990   0.00139  -0.00024   0.00047
   Bi     3.86691   7.73117   7.80447  -0.00068   0.00077   0.00002
   Bi     1.93610   5.80036  10.35727  -0.00081   0.00064  -0.00002
   Bi     1.97381   5.80036   1.76402   0.00025  -0.00132  -0.00050
   Bi     5.79647   1.93345  10.34815  -0.00081   0.00069  -0.00006
   Bi     5.79582   1.93345   1.76345   0.00132  -0.00133   0.00002
   Bi     3.86691   3.90726   4.28990   0.00139  -0.00024  -0.00047
   Bi     3.86691   3.86955   7.80447  -0.00068   0.00077  -0.00002
   Bi     5.79772   5.80036  10.35727  -0.00081   0.00064   0.00002
   Bi     5.76001   5.80036   1.76402   0.00025  -0.00132   0.00050
   Se     0.00000   7.71618   0.02988   0.00029  -0.00075   0.00014
   Se     1.95109   1.93345   6.02403   0.00079  -0.00027  -0.00015
   Se     0.00000   3.88454   0.02988   0.00029  -0.00075  -0.00014
   Se     3.86691   7.72892  12.10481   0.00103  -0.00085   0.00003
   Se     1.93835   5.80036   6.05694   0.00090  -0.00097  -0.00003
   Se     5.78273   1.93345   6.02403   0.00079  -0.00027   0.00015
   Se     3.86691   3.87180  12.10481   0.00103  -0.00085  -0.00003
   Se     5.79547   5.80036   6.05694   0.00090  -0.00097   0.00003
   O      0.00000   1.93345   3.02696  -0.02974   0.02811  -0.00000
   O      0.00000   5.80036   9.07997   0.01235  -0.01202  -0.00000
   O      0.00000   5.80036   3.00091  -0.01815   0.01914  -0.00000
   O      0.00000   1.93345   9.08087   0.01136  -0.01074  -0.00000
   O      5.80902   0.00866   3.02696  -0.02018   0.01864   0.00018
   O      1.92979   0.00367   9.08087   0.01240  -0.01166  -0.00006
   O      1.92479   0.00866   3.02696  -0.02797   0.02688  -0.00001
   O      5.80403   0.00367   9.08087   0.01340  -0.01272   0.00231
   O      1.92979   3.86324   9.08087   0.01340  -0.01272  -0.00231
   O      1.92479   3.85825   3.02696  -0.02018   0.01864  -0.00018
   O      3.86691   1.93345   3.05300  -0.02025   0.01716   0.00000
   O      3.86691   1.93345   9.08178   0.01272  -0.01167   0.00000
   O      3.86691   5.80036   9.08087   0.01156  -0.01093  -0.00000
   O      5.80403   3.86324   9.08087   0.01240  -0.01166   0.00006
   O      5.80902   3.85825   3.02696  -0.02797   0.02688   0.00001
PRIMCOORD   81
     39   1
   Bi     0.00000   7.72928   4.29046  -0.00021   0.00000  -0.00000
   Bi     0.00000   7.72993   7.81360  -0.00073   0.00000  -0.00000
   Bi     1.93734   1.93345  10.34815   0.00000  -0.00073  -0.00000
   Bi     1.93800   1.93345   1.76345   0.00000  -0.00021  -0.00000
   Bi     0.00000   3.87145   4.29046   0.00021  -0.00000  -0.00000
   Bi     0.00000   3.87080   7.81360   0.00073   0.00000  -0.00000
   Bi     3.86691   7.69346   4.28990   0.00029   0.00000   0.00000
   Bi     3.86691   7.73117   7.80447   0.00064   0.00000  -0.00000
   Bi     1.93610   5.80036  10.35727  -0.00000   0.00064   0.00000
   Bi     1.97381   5.80036   1.76402   0.00000   0.00029   0.00000
   Bi     5.79647   1.93345  10.34815  -0.00000   0.00073   0.00000
   Bi     5.79582   1.93345   1.76345  -0.00000   0.00021  -0.00000
   Bi     3.86691   3.90726   4.28990  -0.00029  -0.00000   0.00000
   Bi     3.86691   3.86955   7.80447  -0.00064  -0.00000  -0.00000
   Bi     5.79772   5.80036  10.35727  -0.00000  -0.00064  -0.00000
   Bi     5.76001   5.80036   1.76402  -0.00000  -0.00029   0.00000
   Se     0.00000   7.71618   0.02988  -0.00111  -0.00000   0.00000
   Se     1.95109   1.93345   6.02403  -0.00000  -0.00111   0.00000
   Se     0.00000   3.88454   0.02988   0.00111  -0.00000   0.00000
   Se     3.86691   7.72892  12.10481   0.00147  -0.00000   0.00000
   Se     1.93835   5.80036   6.05694  -0.00000   0.00147   0.00000
   Se     5.78273   1.93345   6.02403  -0.00000   0.00111   0.00000
   Se     3.86691   3.87180  12.10481  -0.00147   0.00000   0.00000
   Se     5.79547   5.80036   6.05694   0.00000  -0.00147   0.00000
   O      0.00000   1.93345   3.02696   0.00000   0.00000   0.00000
   O      0.00000   5.80036   9.07997   0.00000   0.00000  -0.00000
   O      0.00000   5.80036   3.00091   0.00000   0.00000  -0.00000
   O      0.00000   1.93345   9.08087   0.00000  -0.00000  -0.00000
   O      5.80902   0.00866   3.02696  -0.00053   0.00053   0.02155
   O      1.92979   0.00367   9.08087  -0.00144  -0.00144   0.04502
   O      1.92479   0.00866   3.02696  -0.00053  -0.00053  -0.02155
   O      5.80403   0.00367   9.08087  -0.00144   0.00144  -0.04502
   O      1.92979   3.86324   9.08087   0.00144  -0.00144  -0.04502
   O      1.92479   3.85825   3.02696   0.00053  -0.00053   0.02155
   O      3.86691   1.93345   3.05300   0.00000   0.00000  -0.00000
   O      3.86691   1.93345   9.08178   0.00000   0.00000  -0.00000
   O      3.86691   5.80036   9.08087   0.00000   0.00000  -0.00000
   O      5.80403   3.86324   9.08087   0.00144   0.00144   0.04502
   O      5.80902   3.85825   3.02696   0.00053   0.00053  -0.02155
PRIMCOORD   82
     39   1
   Bi     0.00000   7.72928   4.29046   0.00000   0.00007   0.00002
   Bi     0.00000   7.72993   7.81360  -0.00000  -0.00079  -0.00004
   Bi     1.93734   1.93345  10.34815  -0.00079  -0.00000  -0.00004
   Bi     1.93800   1.93345   1.76345   0.00007  -0.00000   0.00002
   Bi     0.00000   3.87145   4.29046   0.00000  -0.00007   0.00002
   Bi     0.00000   3.87080   7.81360  -0.00000   0.00079  -0.00004
   Bi     3.86691   7.69346   4.28990   0.00000  -0.00003  -0.00007
   Bi     3.86691   7.73117   7.80447  -0.00000   0.00060  -0.00006
   Bi     1.93610   5.80036  10.35727   0.00060  -0.00000  -0.00006
   Bi     1.97381   5.80036   1.76402  -0.00003   0.00000  -0.00007
   Bi     5.79647   1.93345  10.34815   0.00079  -0.00000  -0.00004
   Bi     5.79582   1.93345   1.76345  -0.00007   0.00000   0.00002
   Bi     3.86691   3.90726   4.28990   0.00000   0.00003  -0.00007
   Bi     3.86691   3.86955   7.80447   0.00000  -0.00060  -0.00006
   Bi     5.79772   5.80036  10.35727  -0.00060   0.00000  -0.00006
   Bi     5.76001   5.80036   1.76402   0.00003   0.00000  -0.00007
   Se     0.00000   7.71618   0.02988   0.00000  -0.00106  -0.00004
   Se     1.95109   1.93345   6.02403  -0.00106  -0.00000  -0.00004
   Se     0.00000   3.88454   0.02988   0.00000   0.00106  -0.00004
   Se     3.86691   7.72892  12.10481   0.00000   0.00130   0.00015
   Se     1.93835   5.80036   6.05694   0.00130   0.00000   0.00015
   Se     5.78273   1.93345   6.02403   0.00106  -0.00000  -0.00004
   Se     3.86691   3.87180  12.10481  -0.00000  -0.00130   0.00015
   Se     5.79547   5.80036   6.05694  -0.00130   0.00000   0.00015
   O      0.00000   1.93345   3.02696  -0.00000  -0.00000  -0.00311
   O      0.00000   5.80036   9.07997   0.00000   0.00000  -0.04957
   O      0.00000   5.80036   3.00091  -0.00000  -0.00000   0.00374
   O      0.00000   1.93345   9.08087   0.00000  -0.00000   0.05254
   O      5.80902   0.00866   3.02696  -0.00009   0.00009   0.00004
   O      1.92979   0.00367   9.08087   0.00000   0.00000  -0.00000
   O      1.92479   0.00866   3.02696   0.00009   0.00009   0.00004
   O      5.80403   0.00367   9.08087  -0.00000   0.00000  -0.00000
   O      1.92979   3.86324   9.08087   0.00000  -0.00000  -0.00000
   O      1.92479   3.85825   3.02696   0.00009  -0.00009   0.00004
   O      3.86691   1.93345   3.05300  -0.00000  -0.00000   0.00374
   O      3.86691   1.93345   9.08178  -0.00000   0.00000  -0.04957
   O      3.86691   5.80036   9.08087   0.00000   0.00000   0.04766
   O      5.80403   3.86324   9.08087  -0.00000  -0.00000  -0.00000
   O      5.80902   3.85825   3.02696  -0.00009  -0.00009   0.00004
PRIMCOORD   83
     39   1
   Bi     0.00000   7.72928   4.29046  -0.00089  -0.00000  -0.00000
   Bi     0.00000   7.72993   7.81360   0.00053  -0.00000  -0.00000
   Bi     1.93734   1.93345  10.34815   0.00000   0.00053  -0.00000
   Bi     1.93800   1.93345   1.76345  -0.00000  -0.00089   0.00000
   Bi     0.00000   3.87145   4.29046   0.00089   0.00000   0.00000
   Bi     0.00000   3.87080   7.81360  -0.00053   0.00000   0.00000
   Bi     3.86691   7.69346   4.28990   0.00090  -0.00000  -0.00000
   Bi     3.86691   7.73117   7.80447  -0.00050  -0.00000  -0.00000
   Bi     1.93610   5.80036  10.35727  -0.00000  -0.00050  -0.00000
   Bi     1.97381   5.80036   1.76402  -0.00000   0.00090  -0.00000
   Bi     5.79647   1.93345  10.34815   0.00000  -0.00053   0.00000
   Bi     5.79582   1.93345   1.76345   0.00000   0.00089   0.00000
   Bi     3.86691   3.90726   4.28990  -0.00090   0.00000  -0.00000
   Bi     3.86691   3.86955   7.80447   0.00050   0.00000   0.00000
   Bi     5.79772   5.80036  10.35727   0.00000   0.00050   0.00000
   Bi     5.76001   5.80036   1.76402   0.00000  -0.00090  -0.00000
   Se     0.00000   7.71618   0.02988  -0.00006   0.00000  -0.00000
   Se     1.95109   1.93345   6.02403   0.00000  -0.00006  -0.00000
   Se     0.00000   3.88454   0.02988   0.00006  -0.00000  -0.00000
   Se     3.86691   7.72892  12.10481   0.00040   0.00000  -0.00000
   Se     1.93835   5.80036   6.05694   0.00000   0.00040  -0.00000
   Se     5.78273   1.93345   6.02403  -0.00000   0.00006  -0.00000
   Se     3.86691   3.87180  12.10481  -0.00040  -0.00000  -0.00000
   Se     5.79547   5.80036   6.05694  -0.00000  -0.00040  -0.00000
   O      0.00000   1.93345   3.02696  -0.00000   0.00000  -0.00000
   O      0.00000   5.80036   9.07997   0.00000   0.00000   0.00000
   O      0.00000   5.80036   3.00091   0.00000   0.00000   0.00000
   O      0.00000   1.93345   9.08087   0.00000   0.00000  -0.00000
   O      5.80902   0.00866   3.02696   0.00023  -0.00023   0.04509
   O      1.92979   0.00367   9.08087   0.00115   0.00115  -0.02150
   O      1.92479   0.00866   3.02696   0.00023   0.00023  -0.04509
   O      5.80403   0.00367   9.08087   0.00115  -0.00115   0.02150
   O      1.92979   3.86324   9.08087  -0.00115   0.00115   0.02150
   O      1.92479   3.85825   3.02696  -0.00023   0.00023   0.04509
   O      3.86691   1.93345   3.05300  -0.00000  -0.00000   0.00000
   O      3.86691   1.93345   9.08178  -0.00000  -0.00000   0.00000
   O      3.86691   5.80036   9.08087  -0.00000   0.00000  -0.00000
   O      5.80403   3.86324   9.08087  -0.00115  -0.00115  -0.02150
   O      5.80902   3.85825   3.02696  -0.00023  -0.00023  -0.04509
PRIMCOORD   84
     39   1
   Bi     0.00000   7.72928   4.29046  -0.00000   0.00099  -0.00001
   Bi     0.00000   7.72993   7.81360   0.00000   0.00003  -0.00005
   Bi     1.93734   1.93345  10.34815   0.00003   0.00000  -0.00005
   Bi     1.93800   1.93345   1.76345   0.00099  -0.00000  -0.00001
   Bi     0.00000   3.87145   4.29046   0.00000  -0.00099  -0.00001
   Bi     0.00000   3.87080   7.81360  -0.00000  -0.00003  -0.00005
   Bi     3.86691   7.69346   4.28990   0.00000   0.00024   0.00061
   Bi     3.86691   7.73117   7.80447  -0.00000   0.00022   0.00002
   Bi     1.93610   5.80036  10.35727   0.00022  -0.00000   0.00002
   Bi     1.97381   5.80036   1.76402   0.00024   0.00000   0.00061
   Bi     5.79647   1.93345  10.34815  -0.00003  -0.00000  -0.00005
   Bi     5.79582   1.93345   1.76345  -0.00099   0.00000  -0.00001
   Bi     3.86691   3.90726   4.28990  -0.00000  -0.00024   0.00061
   Bi     3.86691   3.86955   7.80447   0.00000  -0.00022   0.00002
   Bi     5.79772   5.80036  10.35727  -0.00022   0.00000   0.00002
   Bi     5.76001   5.80036   1.76402  -0.00024  -0.00000   0.00061
   Se     0.00000   7.71618   0.02988   0.00000  -0.00004   0.00085
   Se     1.95109   1.93345   6.02403  -0.00004   0.00000   0.00085
   Se     0.00000   3.88454   0.02988  -0.00000   0.00004   0.00085
   Se     3.86691   7.72892  12.10481  -0.00000  -0.00184   0.00035
   Se     1.93835   5.80036   6.05694  -0.00184  -0.00000   0.00035
   Se     5.78273   1.93345   6.02403   0.00004  -0.00000   0.00085
   Se     3.86691   3.87180  12.10481   0.00000   0.00184   0.00035
   Se     5.79547   5.80036   6.05694   0.00184   0.00000   0.00035
   O      0.00000   1.93345   3.02696  -0.00000  -0.00000   0.06109
   O      0.00000   5.80036   9.07997   0.00000   0.00000  -0.00436
   O      0.00000   5.80036   3.00091  -0.00000  -0.00000  -0.05554
   O      0.00000   1.93345   9.08087  -0.00000  -0.00000   0.00114
   O      5.80902   0.00866   3.02696  -0.00001   0.00001   0.00190
   O      1.92979   0.00367   9.08087  -0.00013  -0.00013  -0.00163
   O      1.92479   0.00866   3.02696   0.00001   0.00001   0.00190
   O      5.80403   0.00367   9.08087   0.00013  -0.00013  -0.00163
   O      1.92979   3.86324   9.08087  -0.00013   0.00013  -0.00163
   O      1.92479   3.85825   3.02696   0.00001  -0.00001   0.00190
   O      3.86691   1.93345   3.05300  -0.00000   0.00000  -0.05554
   O      3.86691   1.93345   9.08178   0.00000  -0.00000  -0.00436
   O      3.86691   5.80036   9.08087  -0.00000  -0.00000   0.00319
   O      5.80403   3.86324   9.08087   0.00013   0.00013  -0.00163
   O      5.80902   3.85825   3.02696  -0.00001  -0.00001   0.00190
PRIMCOORD   85
     39   1
   Bi     0.00000   7.72928   4.29046   0.00000  -0.00072  -0.00111
   Bi     0.00000   7.72993   7.81360   0.00000  -0.00044   0.00044
   Bi     1.93734   1.93345  10.34815   0.00044  -0.00000  -0.00044
   Bi     1.93800   1.93345   1.76345   0.00072  -0.00000   0.00111
   Bi     0.00000   3.87145   4.29046   0.00000   0.00072  -0.00111
   Bi     0.00000   3.87080   7.81360   0.00000   0.00044   0.00044
   Bi     3.86691   7.69346   4.28990  -0.00000  -0.00040   0.00091
   Bi     3.86691   7.73117   7.80447  -0.00000  -0.00043  -0.00032
   Bi     1.93610   5.80036  10.35727   0.00043   0.00000   0.00032
   Bi     1.97381   5.80036   1.76402   0.00040   0.00000  -0.00091
   Bi     5.79647   1.93345  10.34815  -0.00044  -0.00000  -0.00044
   Bi     5.79582   1.93345   1.76345  -0.00072  -0.00000   0.00111
   Bi     3.86691   3.90726   4.28990  -0.00000   0.00040   0.00091
   Bi     3.86691   3.86955   7.80447  -0.00000   0.00043  -0.00032
   Bi     5.79772   5.80036  10.35727  -0.00043   0.00000   0.00032
   Bi     5.76001   5.80036   1.76402  -0.00040   0.00000  -0.00091
   Se     0.00000   7.71618   0.02988  -0.00000   0.00268   0.00021
   Se     1.95109   1.93345   6.02403  -0.00268   0.00000  -0.00021
   Se     0.00000   3.88454   0.02988  -0.00000  -0.00268   0.00021
   Se     3.86691   7.72892  12.10481   0.00000   0.00243   0.00010
   Se     1.93835   5.80036   6.05694  -0.00243  -0.00000  -0.00010
   Se     5.78273   1.93345   6.02403   0.00268   0.00000  -0.00021
   Se     3.86691   3.87180  12.10481   0.00000  -0.00243   0.00010
   Se     5.79547   5.80036   6.05694   0.00243  -0.00000  -0.00010
   O      0.00000   1.93345   3.02696   0.00000  -0.00000   0.00000
   O      0.00000   5.80036   9.07997  -0.00000  -0.00000  -0.02611
   O      0.00000   5.80036   3.00091  -0.00000  -0.00000   0.06517
   O      0.00000   1.93345   9.08087  -0.00000   0.00000  -0.00000
   O      5.80902   0.00866   3.02696   0.00204   0.00204  -0.00000
   O      1.92979   0.00367   9.08087  -0.00233   0.00233   0.00000
   O      1.92479   0.00866   3.02696  -0.00204   0.00204  -0.00000
   O      5.80403   0.00367   9.08087   0.00233   0.00233   0.00000
   O      1.92979   3.86324   9.08087  -0.00233  -0.00233  -0.00000
   O      1.92479   3.85825   3.02696  -0.00204  -0.00204   0.00000
   O      3.86691   1.93345   3.05300   0.00000   0.00000  -0.06517
   O      3.86691   1.93345   9.08178   0.00000   0.00000   0.02611
   O      3.86691   5.80036   9.08087   0.00000  -0.00000   0.00000
   O      5.80403   3.86324   9.08087   0.00233  -0.00233  -0.00000
   O      5.80902   3.85825   3.02696   0.00204  -0.00204   0.00000
PRIMCOORD   86
     39   1
   Bi     0.00000   7.72928   4.29046  -0.00062  -0.00007  -0.00071
   Bi     0.00000   7.72993   7.81360  -0.00077  -0.00004   0.00093
   Bi     1.93734   1.93345  10.34815   0.00003   0.00103  -0.00070
   Bi     1.93800   1.93345   1.76345   0.00005   0.00083   0.00053
   Bi     0.00000   3.87145   4.29046  -0.00062  -0.00007   0.00071
   Bi     0.00000   3.87080   7.81360  -0.00077  -0.00004  -0.00093
   Bi     3.86691   7.69346   4.28990   0.00068  -0.00005  -0.00052
   Bi     3.86691   7.73117   7.80447   0.00075  -0.00003   0.00082
   Bi     1.93610   5.80036  10.35727   0.00003  -0.00100  -0.00061
   Bi     1.97381   5.80036   1.76402   0.00003  -0.00091   0.00039
   Bi     5.79647   1.93345  10.34815   0.00003   0.00103   0.00070
   Bi     5.79582   1.93345   1.76345   0.00005   0.00083  -0.00053
   Bi     3.86691   3.90726   4.28990   0.00068  -0.00005   0.00052
   Bi     3.86691   3.86955   7.80447   0.00075  -0.00003  -0.00082
   Bi     5.79772   5.80036  10.35727   0.00003  -0.00100   0.00061
   Bi     5.76001   5.80036   1.76402   0.00003  -0.00091  -0.00039
   Se     0.00000   7.71618   0.02988   0.00241  -0.00018  -0.00027
   Se     1.95109   1.93345   6.02403   0.00014  -0.00321   0.00020
   Se     0.00000   3.88454   0.02988   0.00241  -0.00018   0.00027
   Se     3.86691   7.72892  12.10481  -0.00242  -0.00012   0.00016
   Se     1.93835   5.80036   6.05694   0.00009   0.00322  -0.00012
   Se     5.78273   1.93345   6.02403   0.00014  -0.00321  -0.00020
   Se     3.86691   3.87180  12.10481  -0.00242  -0.00012  -0.00016
   Se     5.79547   5.80036   6.05694   0.00009   0.00322   0.00012
   O      0.00000   1.93345   3.02696  -0.00147   0.00197   0.00000
   O      0.00000   5.80036   9.07997   0.00341   0.00244  -0.00000
   O      0.00000   5.80036   3.00091   0.00322   0.00425   0.00000
   O      0.00000   1.93345   9.08087   0.00129  -0.00173  -0.00000
   O      5.80902   0.00866   3.02696   0.00017   0.00038   0.04179
   O      1.92979   0.00367   9.08087  -0.00031   0.00039  -0.00787
   O      1.92479   0.00866   3.02696  -0.00191   0.00194   0.00597
   O      5.80403   0.00367   9.08087  -0.00022   0.00032  -0.05507
   O      1.92979   3.86324   9.08087  -0.00022   0.00032   0.05507
   O      1.92479   3.85825   3.02696   0.00017   0.00038  -0.04179
   O      3.86691   1.93345   3.05300  -0.00319  -0.00429  -0.00000
   O      3.86691   1.93345   9.08178  -0.00183  -0.00454   0.00000
   O      3.86691   5.80036   9.08087  -0.00371   0.00495   0.00000
   O      5.80403   3.86324   9.08087  -0.00031   0.00039   0.00787
   O      5.80902   3.85825   3.02696  -0.00191   0.00194  -0.00597
PRIMCOORD   87
     39   1
   Bi     0.00000   7.72928   4.29046  -0.00083   0.00005   0.00053
   Bi     0.00000   7.72993   7.81360  -0.00103   0.00003  -0.00070
   Bi     1.93734   1.93345  10.34815   0.00004  -0.00077  -0.00093
   Bi     1.93800   1.93345   1.76345   0.00007  -0.00062   0.00071
   Bi     0.00000   3.87145   4.29046  -0.00083   0.00005  -0.00053
   Bi     0.00000   3.87080   7.81360  -0.00103   0.00003   0.00070
   Bi     3.86691   7.69346   4.28990   0.00091   0.00003   0.00039
   Bi     3.86691   7.73117   7.80447   0.00100   0.00003  -0.00061
   Bi     1.93610   5.80036  10.35727   0.00003   0.00075  -0.00082
   Bi     1.97381   5.80036   1.76402   0.00005   0.00068   0.00052
   Bi     5.79647   1.93345  10.34815   0.00004  -0.00077   0.00093
   Bi     5.79582   1.93345   1.76345   0.00007  -0.00062  -0.00071
   Bi     3.86691   3.90726   4.28990   0.00091   0.00003  -0.00039
   Bi     3.86691   3.86955   7.80447   0.00100   0.00003   0.00061
   Bi     5.79772   5.80036  10.35727   0.00003   0.00075   0.00082
   Bi     5.76001   5.80036   1.76402   0.00005   0.00068  -0.00052
   Se     0.00000   7.71618   0.02988   0.00321   0.00014   0.00020
   Se     1.95109   1.93345   6.02403   0.00018   0.00241   0.00027
   Se     0.00000   3.88454   0.02988   0.00321   0.00014  -0.00020
   Se     3.86691   7.72892  12.10481  -0.00322   0.00009  -0.00012
   Se     1.93835   5.80036   6.05694   0.00012  -0.00242  -0.00016
   Se     5.78273   1.93345   6.02403   0.00018   0.00241  -0.00027
   Se     3.86691   3.87180  12.10481  -0.00322   0.00009   0.00012
   Se     5.79547   5.80036   6.05694   0.00012  -0.00242   0.00016
   O      0.00000   1.93345   3.02696  -0.00197  -0.00147  -0.00000
   O      0.00000   5.80036   9.07997   0.00454  -0.00183  -0.00000
   O      0.00000   5.80036   3.00091   0.00429  -0.00319   0.00000
   O      0.00000   1.93345   9.08087   0.00173   0.00129   0.00000
   O      5.80902   0.00866   3.02696  -0.00194  -0.00191   0.00597
   O      1.92979   0.00367   9.08087  -0.00032  -0.00022   0.05507
   O      1.92479   0.00866   3.02696  -0.00038   0.00017  -0.04179
   O      5.80403   0.00367   9.08087  -0.00039  -0.00031  -0.00787
   O      1.92979   3.86324   9.08087  -0.00039  -0.00031   0.00787
   O      1.92479   3.85825   3.02696  -0.00194  -0.00191  -0.00597
   O      3.86691   1.93345   3.05300  -0.00425   0.00322  -0.00000
   O      3.86691   1.93345   9.08178  -0.00244   0.00341   0.00000
   O      3.86691   5.80036   9.08087  -0.00495  -0.00371  -0.00000
   O      5.80403   3.86324   9.08087  -0.00032  -0.00022  -0.05507
   O      5.80902   3.85825   3.02696  -0.00038   0.00017   0.04179
PRIMCOORD   88
     39   1
   Bi     0.00000   7.72928   4.29046  -0.00000   0.00036  -0.00044
   Bi     0.00000   7.72993   7.81360  -0.00000   0.00073   0.00089
   Bi     1.93734   1.93345  10.34815   0.00073  -0.00000   0.00089
   Bi     1.93800   1.93345   1.76345   0.00036  -0.00000  -0.00044
   Bi     0.00000   3.87145   4.29046  -0.00000  -0.00036  -0.00044
   Bi     0.00000   3.87080   7.81360  -0.00000  -0.00073   0.00089
   Bi     3.86691   7.69346   4.28990   0.00000   0.00032   0.00004
   Bi     3.86691   7.73117   7.80447   0.00000   0.00077  -0.00093
   Bi     1.93610   5.80036  10.35727   0.00077   0.00000  -0.00093
   Bi     1.97381   5.80036   1.76402   0.00032   0.00000   0.00004
   Bi     5.79647   1.93345  10.34815  -0.00073  -0.00000   0.00089
   Bi     5.79582   1.93345   1.76345  -0.00036  -0.00000  -0.00044
   Bi     3.86691   3.90726   4.28990   0.00000  -0.00032   0.00004
   Bi     3.86691   3.86955   7.80447   0.00000  -0.00077  -0.00093
   Bi     5.79772   5.80036  10.35727  -0.00077   0.00000  -0.00093
   Bi     5.76001   5.80036   1.76402  -0.00032   0.00000   0.00004
   Se     0.00000   7.71618   0.02988   0.00000  -0.00233  -0.00074
   Se     1.95109   1.93345   6.02403  -0.00233   0.00000  -0.00074
   Se     0.00000   3.88454   0.02988   0.00000   0.00233  -0.00074
   Se     3.86691   7.72892  12.10481  -0.00000  -0.00246  -0.00032
   Se     1.93835   5.80036   6.05694  -0.00246  -0.00000  -0.00032
   Se     5.78273   1.93345   6.02403   0.00233   0.00000  -0.00074
   Se     3.86691   3.87180  12.10481  -0.00000   0.00246  -0.00032
   Se     5.79547   5.80036   6.05694   0.00246  -0.00000  -0.00032
   O      0.00000   1.93345   3.02696  -0.00000   0.00000   0.03019
   O      0.00000   5.80036   9.07997   0.00000  -0.00000  -0.00249
   O      0.00000   5.80036   3.00091   0.00000  -0.00000   0.01806
   O      0.00000   1.93345   9.08087   0.00000   0.00000  -0.06192
   O      5.80902   0.00866   3.02696   0.00428  -0.00428  -0.00905
   O      1.92979   0.00367   9.08087  -0.00221  -0.00221   0.00453
   O      1.92479   0.00866   3.02696  -0.00428  -0.00428  -0.00905
   O      5.80403   0.00367   9.08087   0.00221  -0.00221   0.00453
   O      1.92979   3.86324   9.08087  -0.00221   0.00221   0.00453
   O      1.92479   3.85825   3.02696  -0.00428   0.00428  -0.00905
   O      3.86691   1.93345   3.05300  -0.00000   0.00000   0.01806
   O      3.86691   1.93345   9.08178  -0.00000  -0.00000  -0.00249
   O      3.86691   5.80036   9.08087  -0.00000  -0.00000   0.06271
   O      5.80403   3.86324   9.08087   0.00221   0.00221   0.00453
   O      5.80902   3.85825   3.02696   0.00428   0.00428  -0.00905
PRIMCOORD   89
     39   1
   Bi     0.00000   7.72928   4.29046   0.00000   0.00003  -0.00053
   Bi     0.00000   7.72993   7.81360  -0.00000   0.00071  -0.00097
   Bi     1.93734   1.93345  10.34815  -0.00071   0.00000   0.00097
   Bi     1.93800   1.93345   1.76345  -0.00003  -0.00000   0.00053
   Bi     0.00000   3.87145   4.29046   0.00000  -0.00003  -0.00053
   Bi     0.00000   3.87080   7.81360  -0.00000  -0.00071  -0.00097
   Bi     3.86691   7.69346   4.28990   0.00000   0.00004   0.00025
   Bi     3.86691   7.73117   7.80447   0.00000   0.00055   0.00089
   Bi     1.93610   5.80036  10.35727  -0.00055  -0.00000  -0.00089
   Bi     1.97381   5.80036   1.76402  -0.00004  -0.00000  -0.00025
   Bi     5.79647   1.93345  10.34815   0.00071   0.00000   0.00097
   Bi     5.79582   1.93345   1.76345   0.00003  -0.00000   0.00053
   Bi     3.86691   3.90726   4.28990   0.00000  -0.00004   0.00025
   Bi     3.86691   3.86955   7.80447   0.00000  -0.00055   0.00089
   Bi     5.79772   5.80036  10.35727   0.00055   0.00000  -0.00089
   Bi     5.76001   5.80036   1.76402   0.00004  -0.00000  -0.00025
   Se     0.00000   7.71618   0.02988  -0.00000  -0.00099   0.00031
   Se     1.95109   1.93345   6.02403   0.00099  -0.00000  -0.00031
   Se     0.00000   3.88454   0.02988   0.00000   0.00099   0.00031
   Se     3.86691   7.72892  12.10481   0.00000  -0.00144  -0.00037
   Se     1.93835   5.80036   6.05694   0.00144   0.00000   0.00037
   Se     5.78273   1.93345   6.02403  -0.00099  -0.00000  -0.00031
   Se     3.86691   3.87180  12.10481  -0.00000   0.00144  -0.00037
   Se     5.79547   5.80036   6.05694  -0.00144  -0.00000   0.00037
   O      0.00000   1.93345   3.02696  -0.00000   0.00000  -0.00000
   O      0.00000   5.80036   9.07997  -0.00000  -0.00000   0.06417
   O      0.00000   5.80036   3.00091  -0.00000   0.00000   0.02747
   O      0.00000   1.93345   9.08087   0.00000  -0.00000   0.00000
   O      5.80902   0.00866   3.02696  -0.00537  -0.00537  -0.00000
   O      1.92979   0.00367   9.08087  -0.00029   0.00029   0.00000
   O      1.92479   0.00866   3.02696   0.00537  -0.00537   0.00000
   O      5.80403   0.00367   9.08087   0.00029   0.00029  -0.00000
   O      1.92979   3.86324   9.08087  -0.00029  -0.00029   0.00000
   O      1.92479   3.85825   3.02696   0.00537   0.00537   0.00000
   O      3.86691   1.93345   3.05300  -0.00000   0.00000  -0.02747
   O      3.86691   1.93345   9.08178   0.00000   0.00000  -0.06417
   O      3.86691   5.80036   9.08087  -0.00000   0.00000  -0.00000
   O      5.80403   3.86324   9.08087   0.00029  -0.00029  -0.00000
   O      5.80902   3.85825   3.02696  -0.00537   0.00537  -0.00000
PRIMCOORD   90
     39   1
   Bi     0.00000   7.72928   4.29046   0.00063  -0.00004   0.00093
   Bi     0.00000   7.72993   7.81360  -0.00037   0.00001   0.00066
   Bi     1.93734   1.93345  10.34815  -0.00001   0.00037  -0.00065
   Bi     1.93800   1.93345   1.76345   0.00004  -0.00064  -0.00092
   Bi     0.00000   3.87145   4.29046   0.00063  -0.00004  -0.00093
   Bi     0.00000   3.87080   7.81360  -0.00037   0.00001  -0.00066
   Bi     3.86691   7.69346   4.28990  -0.00056   0.00006   0.00085
   Bi     3.86691   7.73117   7.80447   0.00030   0.00001   0.00069
   Bi     1.93610   5.80036  10.35727  -0.00001  -0.00030  -0.00069
   Bi     1.97381   5.80036   1.76402  -0.00006   0.00057  -0.00084
   Bi     5.79647   1.93345  10.34815  -0.00001   0.00037   0.00065
   Bi     5.79582   1.93345   1.76345   0.00004  -0.00064   0.00092
   Bi     3.86691   3.90726   4.28990  -0.00056   0.00006  -0.00085
   Bi     3.86691   3.86955   7.80447   0.00030   0.00001  -0.00069
   Bi     5.79772   5.80036  10.35727  -0.00001  -0.00030   0.00069
   Bi     5.76001   5.80036   1.76402  -0.00006   0.00057   0.00084
   Se     0.00000   7.71618   0.02988  -0.00036  -0.00006  -0.00030
   Se     1.95109   1.93345   6.02403   0.00006   0.00036   0.00030
   Se     0.00000   3.88454   0.02988  -0.00036  -0.00006   0.00030
   Se     3.86691   7.72892  12.10481   0.00039   0.00007  -0.00056
   Se     1.93835   5.80036   6.05694  -0.00007  -0.00040   0.00056
   Se     5.78273   1.93345   6.02403   0.00006   0.00036  -0.00030
   Se     3.86691   3.87180  12.10481   0.00039   0.00007   0.00056
   Se     5.79547   5.80036   6.05694  -0.00007  -0.00040  -0.00056
   O      0.00000   1.93345   3.02696   0.00021  -0.00021   0.00000
   O      0.00000   5.80036   9.07997   0.00012  -0.00248  -0.00000
   O      0.00000   5.80036   3.00091  -0.00120   0.00020  -0.00000
   O      0.00000   1.93345   9.08087  -0.00162   0.00163  -0.00000
   O      5.80902   0.00866   3.02696  -0.00012   0.00012  -0.05580
   O      1.92979   0.00367   9.08087  -0.00017   0.00017  -0.00012
   O      1.92479   0.00866   3.02696  -0.00048   0.00048  -0.00016
   O      5.80403   0.00367   9.08087   0.00038  -0.00038  -0.04317
   O      1.92979   3.86324   9.08087   0.00038  -0.00038   0.04317
   O      1.92479   3.85825   3.02696  -0.00012   0.00012   0.05580
   O      3.86691   1.93345   3.05300  -0.00020   0.00121   0.00000
   O      3.86691   1.93345   9.08178   0.00246  -0.00012   0.00000
   O      3.86691   5.80036   9.08087   0.00187  -0.00188   0.00000
   O      5.80403   3.86324   9.08087  -0.00017   0.00017   0.00012
   O      5.80902   3.85825   3.02696  -0.00048   0.00048   0.00016
PRIMCOORD   91
     39   1
   Bi     0.00000   7.72928   4.29046   0.00064   0.00004  -0.00092
   Bi     0.00000   7.72993   7.81360  -0.00037  -0.00001  -0.00065
   Bi     1.93734   1.93345  10.34815  -0.00001  -0.00037  -0.00066
   Bi     1.93800   1.93345   1.76345   0.00004   0.00063  -0.00093
   Bi     0.00000   3.87145   4.29046   0.00064   0.00004   0.00092
   Bi     0.00000   3.87080   7.81360  -0.00037  -0.00001   0.00065
   Bi     3.86691   7.69346   4.28990  -0.00057  -0.00006  -0.00084
   Bi     3.86691   7.73117   7.80447   0.00030  -0.00001  -0.00069
   Bi     1.93610   5.80036  10.35727  -0.00001   0.00030  -0.00069
   Bi     1.97381   5.80036   1.76402  -0.00006  -0.00056  -0.00085
   Bi     5.79647   1.93345  10.34815  -0.00001  -0.00037   0.00066
   Bi     5.79582   1.93345   1.76345   0.00004   0.00063   0.00093
   Bi     3.86691   3.90726   4.28990  -0.00057  -0.00006   0.00084
   Bi     3.86691   3.86955   7.80447   0.00030  -0.00001   0.00069
   Bi     5.79772   5.80036  10.35727  -0.00001   0.00030   0.00069
   Bi     5.76001   5.80036   1.76402  -0.00006  -0.00056   0.00085
   Se     0.00000   7.71618   0.02988  -0.00036   0.00006   0.00030
   Se     1.95109   1.93345   6.02403   0.00006  -0.00036   0.00030
   Se     0.00000   3.88454   0.02988  -0.00036   0.00006  -0.00030
   Se     3.86691   7.72892  12.10481   0.00040  -0.00007   0.00056
   Se     1.93835   5.80036   6.05694  -0.00007   0.00039   0.00056
   Se     5.78273   1.93345   6.02403   0.00006  -0.00036  -0.00030
   Se     3.86691   3.87180  12.10481   0.00040  -0.00007  -0.00056
   Se     5.79547   5.80036   6.05694  -0.00007   0.00039  -0.00056
   O      0.00000   1.93345   3.02696   0.00021   0.00021   0.00000
   O      0.00000   5.80036   9.07997   0.00012   0.00246   0.00000
   O      0.00000   5.80036   3.00091  -0.00121  -0.00020   0.00000
   O      0.00000   1.93345   9.08087  -0.00163  -0.00162  -0.00000
   O      5.80902   0.00866   3.02696  -0.00048  -0.00048  -0.00016
   O      1.92979   0.00367   9.08087   0.00038   0.00038   0.04317
   O      1.92479   0.00866   3.02696  -0.00012  -0.00012   0.05580
   O      5.80403   0.00367   9.08087  -0.00017  -0.00017  -0.00012
   O      1.92979   3.86324   9.08087  -0.00017  -0.00017   0.00012
   O      1.92479   3.85825   3.02696  -0.00048  -0.00048   0.00016
   O      3.86691   1.93345   3.05300  -0.00020  -0.00120   0.00000
   O      3.86691   1.93345   9.08178   0.00248   0.00012   0.00000
   O      3.86691   5.80036   9.08087   0.00188   0.00187   0.00000
   O      5.80403   3.86324   9.08087   0.00038   0.00038  -0.04317
   O      5.80902   3.85825   3.02696  -0.00012  -0.00012  -0.05580
PRIMCOORD   92
     39   1
   Bi     0.00000   7.72928   4.29046   0.00057  -0.00000   0.00000
   Bi     0.00000   7.72993   7.81360   0.00014   0.00000   0.00000
   Bi     1.93734   1.93345  10.34815  -0.00000  -0.00014  -0.00000
   Bi     1.93800   1.93345   1.76345   0.00000  -0.00057  -0.00000
   Bi     0.00000   3.87145   4.29046  -0.00057  -0.00000  -0.00000
   Bi     0.00000   3.87080   7.81360  -0.00014   0.00000  -0.00000
   Bi     3.86691   7.69346   4.28990   0.00136   0.00000   0.00000
   Bi     3.86691   7.73117   7.80447   0.00006   0.00000   0.00000
   Bi     1.93610   5.80036  10.35727  -0.00000  -0.00006  -0.00000
   Bi     1.97381   5.80036   1.76402  -0.00000  -0.00136  -0.00000
   Bi     5.79647   1.93345  10.34815   0.00000   0.00014   0.00000
   Bi     5.79582   1.93345   1.76345   0.00000   0.00057   0.00000
   Bi     3.86691   3.90726   4.28990  -0.00136   0.00000  -0.00000
   Bi     3.86691   3.86955   7.80447  -0.00006   0.00000  -0.00000
   Bi     5.79772   5.80036  10.35727  -0.00000   0.00006   0.00000
   Bi     5.76001   5.80036   1.76402  -0.00000   0.00136   0.00000
   Se     0.00000   7.71618   0.02988   0.00002  -0.00000  -0.00000
   Se     1.95109   1.93345   6.02403   0.00000  -0.00002   0.00000
   Se     0.00000   3.88454   0.02988  -0.00002  -0.00000   0.00000
   Se     3.86691   7.72892  12.10481   0.00016   0.00000  -0.00000
   Se     1.93835   5.80036   6.05694  -0.00000  -0.00016   0.00000
   Se     5.78273   1.93345   6.02403   0.00000   0.00002  -0.00000
   Se     3.86691   3.87180  12.10481  -0.00016   0.00000   0.00000
   Se     5.79547   5.80036   6.05694  -0.00000   0.00016  -0.00000
   O      0.00000   1.93345   3.02696   0.00000  -0.00000   0.00000
   O      0.00000   5.80036   9.07997   0.00000  -0.00000   0.00000
   O      0.00000   5.80036   3.00091  -0.00000   0.00000  -0.00000
   O      0.00000   1.93345   9.08087  -0.00000   0.00000   0.00000
   O      5.80902   0.00866   3.02696  -0.03511  -0.03511  -0.00000
   O      1.92979   0.00367   9.08087   0.00400  -0.00400   0.00000
   O      1.92479   0.00866   3.02696  -0.03511   0.03511   0.00000
   O      5.80403   0.00367   9.08087   0.00400   0.00400  -0.00000
   O      1.92979   3.86324   9.08087  -0.00400  -0.00400   0.00000
   O      1.92479   3.85825   3.02696   0.03511   0.03511   0.00000
   O      3.86691   1.93345   3.05300  -0.00000   0.00000   0.00000
   O      3.86691   1.93345   9.08178   0.00000   0.00000  -0.00000
   O      3.86691   5.80036   9.08087   0.00000  -0.00000  -0.00000
   O      5.80403   3.86324   9.08087  -0.00400   0.00400  -0.00000
   O      5.80902   3.85825   3.02696   0.03511  -0.03511  -0.00000
PRIMCOORD   93
     39   1
   Bi     0.00000   7.72928   4.29046   0.00000  -0.00020   0.00077
   Bi     0.00000   7.72993   7.81360   0.00000   0.00022   0.00059
   Bi     1.93734   1.93345  10.34815   0.00022   0.00000   0.00059
   Bi     1.93800   1.93345   1.76345  -0.00020   0.00000   0.00077
   Bi     0.00000   3.87145   4.29046   0.00000   0.00020   0.00077
   Bi     0.00000   3.87080   7.81360   0.00000  -0.00022   0.00059
   Bi     3.86691   7.69346   4.28990  -0.00000  -0.00013  -0.00034
   Bi     3.86691   7.73117   7.80447   0.00000   0.00026  -0.00027
   Bi     1.93610   5.80036  10.35727   0.00026  -0.00000  -0.00027
   Bi     1.97381   5.80036   1.76402  -0.00013  -0.00000  -0.00034
   Bi     5.79647   1.93345  10.34815  -0.00022   0.00000   0.00059
   Bi     5.79582   1.93345   1.76345   0.00020   0.00000   0.00077
   Bi     3.86691   3.90726   4.28990  -0.00000   0.00013  -0.00034
   Bi     3.86691   3.86955   7.80447   0.00000  -0.00026  -0.00027
   Bi     5.79772   5.80036  10.35727  -0.00026   0.00000  -0.00027
   Bi     5.76001   5.80036   1.76402   0.00013  -0.00000  -0.00034
   Se     0.00000   7.71618   0.02988  -0.00000  -0.00011   0.00041
   Se     1.95109   1.93345   6.02403  -0.00011  -0.00000   0.00041
   Se     0.00000   3.88454   0.02988   0.00000   0.00011   0.00041
   Se     3.86691   7.72892  12.10481   0.00000  -0.00011   0.00069
   Se     1.93835   5.80036   6.05694  -0.00011   0.00000   0.00069
   Se     5.78273   1.93345   6.02403   0.00011  -0.00000   0.00041
   Se     3.86691   3.87180  12.10481   0.00000   0.00011   0.00069
   Se     5.79547   5.80036   6.05694   0.00011   0.00000   0.00069
   O      0.00000   1.93345   3.02696   0.00000  -0.00000  -0.06169
   O      0.00000   5.80036   9.07997   0.00000  -0.00000  -0.01046
   O      0.00000   5.80036   3.00091  -0.00000   0.00000  -0.03158
   O      0.00000   1.93345   9.08087  -0.00000  -0.00000  -0.03805
   O      5.80902   0.00866   3.02696   0.00077  -0.00077   0.02254
   O      1.92979   0.00367   9.08087   0.00121   0.00121   0.00290
   O      1.92479   0.00866   3.02696  -0.00077  -0.00077   0.02254
   O      5.80403   0.00367   9.08087  -0.00121   0.00121   0.00290
   O      1.92979   3.86324   9.08087   0.00121  -0.00121   0.00290
   O      1.92479   3.85825   3.02696  -0.00077   0.00077   0.02254
   O      3.86691   1.93345   3.05300  -0.00000  -0.00000  -0.03158
   O      3.86691   1.93345   9.08178  -0.00000   0.00000  -0.01046
   O      3.86691   5.80036   9.08087   0.00000   0.00000   0.02103
   O      5.80403   3.86324   9.08087  -0.00121  -0.00121   0.00290
   O      5.80902   3.85825   3.02696   0.00077   0.00077   0.02254
PRIMCOORD   94
     39   1
   Bi     0.00000   7.72928   4.29046   0.00000   0.00006  -0.00008
   Bi     0.00000   7.72993   7.81360  -0.00000  -0.00004  -0.00025
   Bi     1.93734   1.93345  10.34815  -0.00004  -0.00000  -0.00025
   Bi     1.93800   1.93345   1.76345   0.00006   0.00000  -0.00008
   Bi     0.00000   3.87145   4.29046   0.00000  -0.00006  -0.00008
   Bi     0.00000   3.87080   7.81360  -0.00000   0.00004  -0.00025
   Bi     3.86691   7.69346   4.28990   0.00000   0.00006   0.00005
   Bi     3.86691   7.73117   7.80447   0.00000  -0.00002   0.00009
   Bi     1.93610   5.80036  10.35727  -0.00002   0.00000   0.00009
   Bi     1.97381   5.80036   1.76402   0.00006   0.00000   0.00005
   Bi     5.79647   1.93345  10.34815   0.00004  -0.00000  -0.00025
   Bi     5.79582   1.93345   1.76345  -0.00006   0.00000  -0.00008
   Bi     3.86691   3.90726   4.28990   0.00000  -0.00006   0.00005
   Bi     3.86691   3.86955   7.80447   0.00000   0.00002   0.00009
   Bi     5.79772   5.80036  10.35727   0.00002   0.00000   0.00009
   Bi     5.76001   5.80036   1.76402  -0.00006  -0.00000   0.00005
   Se     0.00000   7.71618   0.02988   0.00000   0.00007  -0.00017
   Se     1.95109   1.93345   6.02403   0.00007   0.00000  -0.00017
   Se     0.00000   3.88454   0.02988   0.00000  -0.00007  -0.00017
   Se     3.86691   7.72892  12.10481  -0.00000   0.00001  -0.00018
   Se     1.93835   5.80036   6.05694   0.00001  -0.00000  -0.00018
   Se     5.78273   1.93345   6.02403  -0.00007   0.00000  -0.00017
   Se     3.86691   3.87180  12.10481  -0.00000  -0.00001  -0.00018
   Se     5.79547   5.80036   6.05694  -0.00001  -0.00000  -0.00018
   O      0.00000   1.93345   3.02696  -0.00000  -0.00000   0.00924
   O      0.00000   5.80036   9.07997  -0.00000   0.00000  -0.03340
   O      0.00000   5.80036   3.00091   0.00000  -0.00000   0.00398
   O      0.00000   1.93345   9.08087  -0.00000   0.00000  -0.02298
   O      5.80902   0.00866   3.02696   0.00014  -0.00014  -0.00222
   O      1.92979   0.00367   9.08087  -0.00211  -0.00211   0.03577
   O      1.92479   0.00866   3.02696  -0.00014  -0.00014  -0.00222
   O      5.80403   0.00367   9.08087   0.00211  -0.00211   0.03577
   O      1.92979   3.86324   9.08087  -0.00211   0.00211   0.03577
   O      1.92479   3.85825   3.02696  -0.00014   0.00014  -0.00222
   O      3.86691   1.93345   3.05300  -0.00000  -0.00000   0.00398
   O      3.86691   1.93345   9.08178  -0.00000   0.00000  -0.03340
   O      3.86691   5.80036   9.08087   0.00000  -0.00000  -0.04414
   O      5.80403   3.86324   9.08087   0.00211   0.00211   0.03577
   O      5.80902   3.85825   3.02696   0.00014   0.00014  -0.00222
PRIMCOORD   95
     39   1
   Bi     0.00000   7.72928   4.29046  -0.00015   0.00000  -0.00000
   Bi     0.00000   7.72993   7.81360   0.00050   0.00000   0.00000
   Bi     1.93734   1.93345  10.34815   0.00000   0.00050   0.00000
   Bi     1.93800   1.93345   1.76345   0.00000  -0.00015  -0.00000
   Bi     0.00000   3.87145   4.29046   0.00015  -0.00000   0.00000
   Bi     0.00000   3.87080   7.81360  -0.00050   0.00000  -0.00000
   Bi     3.86691   7.69346   4.28990  -0.00009  -0.00000   0.00000
   Bi     3.86691   7.73117   7.80447   0.00038  -0.00000  -0.00000
   Bi     1.93610   5.80036  10.35727  -0.00000   0.00038  -0.00000
   Bi     1.97381   5.80036   1.76402   0.00000  -0.00009   0.00000
   Bi     5.79647   1.93345  10.34815   0.00000  -0.00050  -0.00000
   Bi     5.79582   1.93345   1.76345  -0.00000   0.00015   0.00000
   Bi     3.86691   3.90726   4.28990   0.00009   0.00000   0.00000
   Bi     3.86691   3.86955   7.80447  -0.00038  -0.00000   0.00000
   Bi     5.79772   5.80036  10.35727  -0.00000  -0.00038  -0.00000
   Bi     5.76001   5.80036   1.76402   0.00000   0.00009   0.00000
   Se     0.00000   7.71618   0.02988   0.00020   0.00000  -0.00000
   Se     1.95109   1.93345   6.02403  -0.00000   0.00020  -0.00000
   Se     0.00000   3.88454   0.02988  -0.00020   0.00000   0.00000
   Se     3.86691   7.72892  12.10481   0.00023  -0.00000   0.00000
   Se     1.93835   5.80036   6.05694  -0.00000   0.00023   0.00000
   Se     5.78273   1.93345   6.02403   0.00000  -0.00020   0.00000
   Se     3.86691   3.87180  12.10481  -0.00023  -0.00000  -0.00000
   Se     5.79547   5.80036   6.05694   0.00000  -0.00023  -0.00000
   O      0.00000   1.93345   3.02696  -0.00000   0.00000   0.00000
   O      0.00000   5.80036   9.07997   0.00000  -0.00000  -0.00000
   O      0.00000   5.80036   3.00091  -0.00000   0.00000  -0.00000
   O      0.00000   1.93345   9.08087  -0.00000  -0.00000  -0.00000
   O      5.80902   0.00866   3.02696   0.01203  -0.01203   0.00053
   O      1.92979   0.00367   9.08087  -0.03321  -0.03321  -0.00208
   O      1.92479   0.00866   3.02696   0.01203   0.01203  -0.00053
   O      5.80403   0.00367   9.08087  -0.03321   0.03321   0.00208
   O      1.92979   3.86324   9.08087   0.03321  -0.03321   0.00208
   O      1.92479   3.85825   3.02696  -0.01203   0.01203   0.00053
   O      3.86691   1.93345   3.05300  -0.00000  -0.00000  -0.00000
   O      3.86691   1.93345   9.08178  -0.00000   0.00000  -0.00000
   O      3.86691   5.80036   9.08087   0.00000   0.00000  -0.00000
   O      5.80403   3.86324   9.08087   0.03321   0.03321  -0.00208
   O      5.80902   3.85825   3.02696  -0.01203  -0.01203  -0.00053
PRIMCOORD   96
     39   1
   Bi     0.00000   7.72928   4.29046   0.00000  -0.00025   0.00135
   Bi     0.00000   7.72993   7.81360   0.00000  -0.00019   0.00119
   Bi     1.93734   1.93345  10.34815  -0.00019   0.00000   0.00119
   Bi     1.93800   1.93345   1.76345  -0.00025   0.00000   0.00135
   Bi     0.00000   3.87145   4.29046  -0.00000   0.00025   0.00135
   Bi     0.00000   3.87080   7.81360   0.00000   0.00019   0.00119
   Bi     3.86691   7.69346   4.28990   0.00000  -0.00014   0.00095
   Bi     3.86691   7.73117   7.80447  -0.00000  -0.00017   0.00092
   Bi     1.93610   5.80036  10.35727  -0.00017  -0.00000   0.00092
   Bi     1.97381   5.80036   1.76402  -0.00014  -0.00000   0.00095
   Bi     5.79647   1.93345  10.34815   0.00019  -0.00000   0.00119
   Bi     5.79582   1.93345   1.76345   0.00025   0.00000   0.00135
   Bi     3.86691   3.90726   4.28990  -0.00000   0.00014   0.00095
   Bi     3.86691   3.86955   7.80447  -0.00000   0.00017   0.00092
   Bi     5.79772   5.80036  10.35727   0.00017  -0.00000   0.00092
   Bi     5.76001   5.80036   1.76402   0.00014  -0.00000   0.00095
   Se     0.00000   7.71618   0.02988   0.00000   0.00052   0.00343
   Se     1.95109   1.93345   6.02403   0.00052  -0.00000   0.00343
   Se     0.00000   3.88454   0.02988  -0.00000  -0.00052   0.00343
   Se     3.86691   7.72892  12.10481   0.00000   0.00056   0.00334
   Se     1.93835   5.80036   6.05694   0.00056   0.00000   0.00334
   Se     5.78273   1.93345   6.02403  -0.00052  -0.00000   0.00343
   Se     3.86691   3.87180  12.10481   0.00000  -0.00056   0.00334
   Se     5.79547   5.80036   6.05694  -0.00056   0.00000   0.00334
   O      0.00000   1.93345   3.02696  -0.00000   0.00000  -0.02211
   O      0.00000   5.80036   9.07997  -0.00000   0.00000  -0.02412
   O      0.00000   5.80036   3.00091   0.00000   0.00000  -0.01168
   O      0.00000   1.93345   9.08087   0.00000   0.00000  -0.02705
   O      5.80902   0.00866   3.02696  -0.00239   0.00239  -0.03476
   O      1.92979   0.00367   9.08087   0.00483   0.00483  -0.02100
   O      1.92479   0.00866   3.02696   0.00239   0.00239  -0.03476
   O      5.80403   0.00367   9.08087  -0.00483   0.00483  -0.02100
   O      1.92979   3.86324   9.08087   0.00483  -0.00483  -0.02100
   O      1.92479   3.85825   3.02696   0.00239  -0.00239  -0.03476
   O      3.86691   1.93345   3.05300  -0.00000  -0.00000  -0.01168
   O      3.86691   1.93345   9.08178   0.00000  -0.00000  -0.02412
   O      3.86691   5.80036   9.08087  -0.00000  -0.00000  -0.01999
   O      5.80403   3.86324   9.08087  -0.00483  -0.00483  -0.02100
   O      5.80902   3.85825   3.02696  -0.00239  -0.00239  -0.03476
PRIMCOORD   97
     39   1
   Bi     0.00000   7.72928   4.29046  -0.00005   0.00001   0.00001
   Bi     0.00000   7.72993   7.81360   0.00001   0.00064   0.00000
   Bi     1.93734   1.93345  10.34815  -0.00060  -0.00001  -0.00000
   Bi     1.93800   1.93345   1.76345  -0.00001   0.00006  -0.00001
   Bi     0.00000   3.87145   4.29046  -0.00005   0.00001  -0.00001
   Bi     0.00000   3.87080   7.81360   0.00001   0.00064  -0.00000
   Bi     3.86691   7.69346   4.28990   0.00002  -0.00005  -0.00001
   Bi     3.86691   7.73117   7.80447  -0.00002  -0.00065   0.00001
   Bi     1.93610   5.80036  10.35727   0.00060   0.00002  -0.00001
   Bi     1.97381   5.80036   1.76402   0.00004  -0.00003   0.00001
   Bi     5.79647   1.93345  10.34815  -0.00060  -0.00001   0.00000
   Bi     5.79582   1.93345   1.76345  -0.00001   0.00006   0.00001
   Bi     3.86691   3.90726   4.28990   0.00002  -0.00005   0.00001
   Bi     3.86691   3.86955   7.80447  -0.00002  -0.00065  -0.00001
   Bi     5.79772   5.80036  10.35727   0.00060   0.00002   0.00001
   Bi     5.76001   5.80036   1.76402   0.00004  -0.00003  -0.00001
   Se     0.00000   7.71618   0.02988   0.00005   0.00041   0.00002
   Se     1.95109   1.93345   6.02403  -0.00038  -0.00006  -0.00002
   Se     0.00000   3.88454   0.02988   0.00005   0.00041  -0.00002
   Se     3.86691   7.72892  12.10481  -0.00002  -0.00036   0.00006
   Se     1.93835   5.80036   6.05694   0.00033   0.00002  -0.00005
   Se     5.78273   1.93345   6.02403  -0.00038  -0.00006   0.00002
   Se     3.86691   3.87180  12.10481  -0.00002  -0.00036  -0.00006
   Se     5.79547   5.80036   6.05694   0.00033   0.00002   0.00005
   O      0.00000   1.93345   3.02696  -0.00209   0.00225   0.00000
   O      0.00000   5.80036   9.07997  -0.03497  -0.03673   0.00000
   O      0.00000   5.80036   3.00091   0.00540   0.00545   0.00000
   O      0.00000   1.93345   9.08087   0.03180  -0.03431   0.00000
   O      5.80902   0.00866   3.02696   0.00004  -0.00013  -0.00075
   O      1.92979   0.00367   9.08087   0.00043  -0.00050  -0.00000
   O      1.92479   0.00866   3.02696   0.00119  -0.00119  -0.00003
   O      5.80403   0.00367   9.08087   0.00091  -0.00095  -0.00012
   O      1.92979   3.86324   9.08087   0.00091  -0.00095   0.00012
   O      1.92479   3.85825   3.02696   0.00004  -0.00013   0.00075
   O      3.86691   1.93345   3.05300  -0.00505  -0.00583   0.00000
   O      3.86691   1.93345   9.08178   0.03404   0.03773   0.00000
   O      3.86691   5.80036   9.08087  -0.03408   0.03677   0.00000
   O      5.80403   3.86324   9.08087   0.00043  -0.00050   0.00000
   O      5.80902   3.85825   3.02696   0.00119  -0.00119   0.00003
PRIMCOORD   98
     39   1
   Bi     0.00000   7.72928   4.29046  -0.00006  -0.00001  -0.00001
   Bi     0.00000   7.72993   7.81360   0.00001  -0.00060  -0.00000
   Bi     1.93734   1.93345  10.34815  -0.00064   0.00001  -0.00000
   Bi     1.93800   1.93345   1.76345  -0.00001  -0.00005  -0.00001
   Bi     0.00000   3.87145   4.29046  -0.00006  -0.00001   0.00001
   Bi     0.00000   3.87080   7.81360   0.00001  -0.00060   0.00000
   Bi     3.86691   7.69346   4.28990   0.00003   0.00004   0.00001
   Bi     3.86691   7.73117   7.80447  -0.00002   0.00060  -0.00001
   Bi     1.93610   5.80036  10.35727   0.00065  -0.00002  -0.00001
   Bi     1.97381   5.80036   1.76402   0.00005   0.00002   0.00001
   Bi     5.79647   1.93345  10.34815  -0.00064   0.00001   0.00000
   Bi     5.79582   1.93345   1.76345  -0.00001  -0.00005   0.00001
   Bi     3.86691   3.90726   4.28990   0.00003   0.00004  -0.00001
   Bi     3.86691   3.86955   7.80447  -0.00002   0.00060   0.00001
   Bi     5.79772   5.80036  10.35727   0.00065  -0.00002   0.00001
   Bi     5.76001   5.80036   1.76402   0.00005   0.00002  -0.00001
   Se     0.00000   7.71618   0.02988   0.00006  -0.00038  -0.00002
   Se     1.95109   1.93345   6.02403  -0.00041   0.00005  -0.00002
   Se     0.00000   3.88454   0.02988   0.00006  -0.00038   0.00002
   Se     3.86691   7.72892  12.10481  -0.00002   0.00033  -0.00005
   Se     1.93835   5.80036   6.05694   0.00036  -0.00002  -0.00006
   Se     5.78273   1.93345   6.02403  -0.00041   0.00005   0.00002
   Se     3.86691   3.87180  12.10481  -0.00002   0.00033   0.00005
   Se     5.79547   5.80036   6.05694   0.00036  -0.00002   0.00006
   O      0.00000   1.93345   3.02696  -0.00225  -0.00209   0.00000
   O      0.00000   5.80036   9.07997  -0.03773   0.03404   0.00000
   O      0.00000   5.80036   3.00091   0.00583  -0.00505   0.00000
   O      0.00000   1.93345   9.08087   0.03431   0.03180   0.00000
   O      5.80902   0.00866   3.02696   0.00119   0.00119  -0.00003
   O      1.92979   0.00367   9.08087   0.00095   0.00091   0.00012
   O      1.92479   0.00866   3.02696   0.00013   0.00004   0.00075
   O      5.80403   0.00367   9.08087   0.00050   0.00043  -0.00000
   O      1.92979   3.86324   9.08087   0.00050   0.00043   0.00000
   O      1.92479   3.85825   3.02696   0.00119   0.00119   0.00003
   O      3.86691   1.93345   3.05300  -0.00545   0.00540   0.00000
   O      3.86691   1.93345   9.08178   0.03673  -0.03497   0.00000
   O      3.86691   5.80036   9.08087  -0.03677  -0.03408   0.00000
   O      5.80403   3.86324   9.08087   0.00095   0.00091  -0.00012
   O      5.80902   3.85825   3.02696   0.00013   0.00004  -0.00075
PRIMCOORD   99
     39   1
   Bi     0.00000   7.72928   4.29046   0.00055  -0.00000   0.00000
   Bi     0.00000   7.72993   7.81360   0.00034   0.00000  -0.00000
   Bi     1.93734   1.93345  10.34815   0.00000   0.00034  -0.00000
   Bi     1.93800   1.93345   1.76345   0.00000   0.00055   0.00000
   Bi     0.00000   3.87145   4.29046  -0.00055   0.00000  -0.00000
   Bi     0.00000   3.87080   7.81360  -0.00034   0.00000   0.00000
   Bi     3.86691   7.69346   4.28990   0.00058  -0.00000  -0.00000
   Bi     3.86691   7.73117   7.80447   0.00015  -0.00000  -0.00000
   Bi     1.93610   5.80036  10.35727  -0.00000   0.00015  -0.00000
   Bi     1.97381   5.80036   1.76402   0.00000   0.00058  -0.00000
   Bi     5.79647   1.93345  10.34815   0.00000  -0.00034   0.00000
   Bi     5.79582   1.93345   1.76345  -0.00000  -0.00055  -0.00000
   Bi     3.86691   3.90726   4.28990  -0.00058   0.00000  -0.00000
   Bi     3.86691   3.86955   7.80447  -0.00015  -0.00000  -0.00000
   Bi     5.79772   5.80036  10.35727  -0.00000  -0.00015  -0.00000
   Bi     5.76001   5.80036   1.76402  -0.00000  -0.00058  -0.00000
   Se     0.00000   7.71618   0.02988   0.00058   0.00000   0.00000
   Se     1.95109   1.93345   6.02403  -0.00000   0.00058  -0.00000
   Se     0.00000   3.88454   0.02988  -0.00058   0.00000  -0.00000
   Se     3.86691   7.72892  12.10481   0.00044   0.00000  -0.00000
   Se     1.93835   5.80036   6.05694  -0.00000   0.00044  -0.00000
   Se     5.78273   1.93345   6.02403   0.00000  -0.00058  -0.00000
   Se     3.86691   3.87180  12.10481  -0.00044  -0.00000  -0.00000
   Se     5.79547   5.80036   6.05694   0.00000  -0.00044  -0.00000
   O      0.00000   1.93345   3.02696   0.00000   0.00000  -0.00000
   O      0.00000   5.80036   9.07997   0.00000  -0.00000   0.00000
   O      0.00000   5.80036   3.00091  -0.00000   0.00000  -0.00000
   O      0.00000   1.93345   9.08087  -0.00000  -0.00000  -0.00000
   O      5.80902   0.00866   3.02696  -0.03324   0.03324   0.00014
   O      1.92979   0.00367   9.08087  -0.01196  -0.01196  -0.00159
   O      1.92479   0.00866   3.02696  -0.03324  -0.03324  -0.00014
   O      5.80403   0.00367   9.08087  -0.01196   0.01196   0.00159
   O      1.92979   3.86324   9.08087   0.01196  -0.01196   0.00159
   O      1.92479   3.85825   3.02696   0.03324  -0.03324   0.00014
   O      3.86691   1.93345   3.05300   0.00000  -0.00000  -0.00000
   O      3.86691   1.93345   9.08178  -0.00000   0.00000   0.00000
   O      3.86691   5.80036   9.08087   0.00000   0.00000   0.00000
   O      5.80403   3.86324   9.08087   0.01196   0.01196  -0.00159
   O      5.80902   3.85825   3.02696   0.03324   0.03324  -0.00014
PRIMCOORD  100
     39   1
   Bi     0.00000   7.72928   4.29046  -0.00018   0.00000  -0.00000
   Bi     0.00000   7.72993   7.81360  -0.00074  -0.00000   0.00000
   Bi     1.93734   1.93345  10.34815   0.00000   0.00074  -0.00000
   Bi     1.93800   1.93345   1.76345  -0.00000   0.00018  -0.00000
   Bi     0.00000   3.87145   4.29046   0.00018  -0.00000   0.00000
   Bi     0.00000   3.87080   7.81360   0.00074  -0.00000  -0.00000
   Bi     3.86691   7.69346   4.28990  -0.00019  -0.00000  -0.00000
   Bi     3.86691   7.73117   7.80447  -0.00059   0.00000   0.00000
   Bi     1.93610   5.80036  10.35727  -0.00000   0.00059   0.00000
   Bi     1.97381   5.80036   1.76402  -0.00000   0.00019  -0.00000
   Bi     5.79647   1.93345  10.34815   0.00000  -0.00074  -0.00000
   Bi     5.79582   1.93345   1.76345   0.00000  -0.00018  -0.00000
   Bi     3.86691   3.90726   4.28990   0.00019  -0.00000  -0.00000
   Bi     3.86691   3.86955   7.80447   0.00059   0.00000  -0.00000
   Bi     5.79772   5.80036  10.35727  -0.00000  -0.00059   0.00000
   Bi     5.76001   5.80036   1.76402   0.00000  -0.00019   0.00000
   Se     0.00000   7.71618   0.02988  -0.00041  -0.00000  -0.00000
   Se     1.95109   1.93345   6.02403   0.00000   0.00041  -0.00000
   Se     0.00000   3.88454   0.02988   0.00041  -0.00000   0.00000
   Se     3.86691   7.72892  12.10481  -0.00030  -0.00000   0.00000
   Se     1.93835   5.80036   6.05694  -0.00000   0.00030  -0.00000
   Se     5.78273   1.93345   6.02403   0.00000  -0.00041   0.00000
   Se     3.86691   3.87180  12.10481   0.00030   0.00000   0.00000
   Se     5.79547   5.80036   6.05694  -0.00000  -0.00030  -0.00000
   O      0.00000   1.93345   3.02696   0.00000  -0.00000  -0.00000
   O      0.00000   5.80036   9.07997   0.00000   0.00000  -0.00000
   O      0.00000   5.80036   3.00091  -0.00000  -0.00000  -0.00000
   O      0.00000   1.93345   9.08087  -0.00000   0.00000  -0.00000
   O      5.80902   0.00866   3.02696   0.00390   0.00390   0.00000
   O      1.92979   0.00367   9.08087   0.03513  -0.03513   0.00000
   O      1.92479   0.00866   3.02696   0.00390  -0.00390   0.00000
   O      5.80403   0.00367   9.08087   0.03513   0.03513   0.00000
   O      1.92979   3.86324   9.08087  -0.03513  -0.03513   0.00000
   O      1.92479   3.85825   3.02696  -0.00390  -0.00390  -0.00000
   O      3.86691   1.93345   3.05300   0.00000   0.00000   0.00000
   O      3.86691   1.93345   9.08178  -0.00000  -0.00000   0.00000
   O      3.86691   5.80036   9.08087   0.00000  -0.00000   0.00000
   O      5.80403   3.86324   9.08087  -0.03513   0.03513   0.00000
   O      5.80902   3.85825   3.02696  -0.00390   0.00390   0.00000
PRIMCOORD  101
     39   1
   Bi     0.00000   7.72928   4.29046  -0.00000   0.00100  -0.00011
   Bi     0.00000   7.72993   7.81360   0.00000   0.00030   0.00026
   Bi     1.93734   1.93345  10.34815  -0.00030  -0.00000  -0.00026
   Bi     1.93800   1.93345   1.76345  -0.00100   0.00000   0.00011
   Bi     0.00000   3.87145   4.29046  -0.00000  -0.00100  -0.00011
   Bi     0.00000   3.87080   7.81360  -0.00000  -0.00030   0.00026
   Bi     3.86691   7.69346   4.28990   0.00000   0.00062  -0.00083
   Bi     3.86691   7.73117   7.80447   0.00000   0.00025  -0.00024
   Bi     1.93610   5.80036  10.35727  -0.00025  -0.00000   0.00024
   Bi     1.97381   5.80036   1.76402  -0.00062   0.00000   0.00083
   Bi     5.79647   1.93345  10.34815   0.00030   0.00000  -0.00026
   Bi     5.79582   1.93345   1.76345   0.00100   0.00000   0.00011
   Bi     3.86691   3.90726   4.28990   0.00000  -0.00062  -0.00083
   Bi     3.86691   3.86955   7.80447  -0.00000  -0.00025  -0.00024
   Bi     5.79772   5.80036  10.35727   0.00025   0.00000   0.00024
   Bi     5.76001   5.80036   1.76402   0.00062  -0.00000   0.00083
   Se     0.00000   7.71618   0.02988   0.00000  -0.00143  -0.00056
   Se     1.95109   1.93345   6.02403   0.00143  -0.00000   0.00056
   Se     0.00000   3.88454   0.02988  -0.00000   0.00143  -0.00056
   Se     3.86691   7.72892  12.10481  -0.00000  -0.00201   0.00058
   Se     1.93835   5.80036   6.05694   0.00201   0.00000  -0.00058
   Se     5.78273   1.93345   6.02403  -0.00143  -0.00000   0.00056
   Se     3.86691   3.87180  12.10481  -0.00000   0.00201   0.00058
   Se     5.79547   5.80036   6.05694  -0.00201   0.00000  -0.00058
   O      0.00000   1.93345   3.02696  -0.00000   0.00000  -0.00000
   O      0.00000   5.80036   9.07997   0.00000   0.00000  -0.01258
   O      0.00000   5.80036   3.00091   0.00000   0.00000   0.00249
   O      0.00000   1.93345   9.08087  -0.00000   0.00000  -0.00000
   O      5.80902   0.00866   3.02696  -0.03334  -0.03334  -0.00000
   O      1.92979   0.00367   9.08087   0.00963  -0.00963   0.00000
   O      1.92479   0.00866   3.02696   0.03334  -0.03334   0.00000
   O      5.80403   0.00367   9.08087  -0.00963  -0.00963   0.00000
   O      1.92979   3.86324   9.08087   0.00963   0.00963  -0.00000
   O      1.92479   3.85825   3.02696   0.03334   0.03334   0.00000
   O      3.86691   1.93345   3.05300  -0.00000  -0.00000  -0.00249
   O      3.86691   1.93345   9.08178  -0.00000  -0.00000   0.01258
   O      3.86691   5.80036   9.08087   0.00000  -0.00000  -0.00000
   O      5.80403   3.86324   9.08087  -0.00963   0.00963  -0.00000
   O      5.80902   3.85825   3.02696  -0.03334   0.03334   0.00000
PRIMCOORD  102
     39   1
   Bi     0.00000   7.72928   4.29046  -0.00066   0.00045  -0.00013
   Bi     0.00000   7.72993   7.81360  -0.00009   0.00012   0.00008
   Bi     1.93734   1.93345  10.34815   0.00013  -0.00009   0.00008
   Bi     1.93800   1.93345   1.76345   0.00045  -0.00065  -0.00013
   Bi     0.00000   3.87145   4.29046  -0.00066   0.00045   0.00013
   Bi     0.00000   3.87080   7.81360  -0.00009   0.00012  -0.00008
   Bi     3.86691   7.69346   4.28990   0.00042  -0.00026  -0.00007
   Bi     3.86691   7.73117   7.80447   0.00010  -0.00011   0.00008
   Bi     1.93610   5.80036  10.35727  -0.00012   0.00010   0.00008
   Bi     1.97381   5.80036   1.76402  -0.00027   0.00041  -0.00007
   Bi     5.79647   1.93345  10.34815   0.00013  -0.00009  -0.00008
   Bi     5.79582   1.93345   1.76345   0.00045  -0.00065   0.00013
   Bi     3.86691   3.90726   4.28990   0.00042  -0.00026   0.00007
   Bi     3.86691   3.86955   7.80447   0.00010  -0.00011  -0.00008
   Bi     5.79772   5.80036  10.35727  -0.00012   0.00010  -0.00008
   Bi     5.76001   5.80036   1.76402  -0.00027   0.00041   0.00007
   Se     0.00000   7.71618   0.02988   0.00081   0.00027  -0.00013
   Se     1.95109   1.93345   6.02403   0.00028   0.00080  -0.00013
   Se     0.00000   3.88454   0.02988   0.00081   0.00027   0.00013
   Se     3.86691   7.72892  12.10481  -0.00080  -0.00054  -0.00027
   Se     1.93835   5.80036   6.05694  -0.00054  -0.00079  -0.00027
   Se     5.78273   1.93345   6.02403   0.00028   0.00080   0.00013
   Se     3.86691   3.87180  12.10481  -0.00080  -0.00054   0.00027
   Se     5.79547   5.80036   6.05694  -0.00054  -0.00079   0.00027
   O      0.00000   1.93345   3.02696  -0.01231  -0.01213  -0.00000
   O      0.00000   5.80036   9.07997   0.00774  -0.00764  -0.00000
   O      0.00000   5.80036   3.00091   0.04758  -0.04783  -0.00000
   O      0.00000   1.93345   9.08087   0.00076   0.00075  -0.00000
   O      5.80902   0.00866   3.02696   0.00792   0.00791  -0.00004
   O      1.92979   0.00367   9.08087  -0.00061  -0.00060  -0.00440
   O      1.92479   0.00866   3.02696   0.00075   0.00064   0.00511
   O      5.80403   0.00367   9.08087  -0.00060  -0.00059   0.00003
   O      1.92979   3.86324   9.08087  -0.00060  -0.00059  -0.00003
   O      1.92479   3.85825   3.02696   0.00792   0.00791   0.00004
   O      3.86691   1.93345   3.05300  -0.04854   0.04688  -0.00000
   O      3.86691   1.93345   9.08178  -0.00775   0.00763  -0.00000
   O      3.86691   5.80036   9.08087   0.00094   0.00093  -0.00000
   O      5.80403   3.86324   9.08087  -0.00061  -0.00060   0.00440
   O      5.80902   3.85825   3.02696   0.00075   0.00064  -0.00511
PRIMCOORD  103
     39   1
   Bi     0.00000   7.72928   4.29046   0.00065   0.00045  -0.00013
   Bi     0.00000   7.72993   7.81360   0.00009   0.00013   0.00008
   Bi     1.93734   1.93345  10.34815  -0.00012  -0.00009  -0.00008
   Bi     1.93800   1.93345   1.76345  -0.00045  -0.00066   0.00013
   Bi     0.00000   3.87145   4.29046   0.00065   0.00045   0.00013
   Bi     0.00000   3.87080   7.81360   0.00009   0.00013  -0.00008
   Bi     3.86691   7.69346   4.28990  -0.00041  -0.00027  -0.00007
   Bi     3.86691   7.73117   7.80447  -0.00010  -0.00012   0.00008
   Bi     1.93610   5.80036  10.35727   0.00011   0.00010  -0.00008
   Bi     1.97381   5.80036   1.76402   0.00026   0.00042   0.00007
   Bi     5.79647   1.93345  10.34815  -0.00012  -0.00009   0.00008
   Bi     5.79582   1.93345   1.76345  -0.00045  -0.00066  -0.00013
   Bi     3.86691   3.90726   4.28990  -0.00041  -0.00027   0.00007
   Bi     3.86691   3.86955   7.80447  -0.00010  -0.00012  -0.00008
   Bi     5.79772   5.80036  10.35727   0.00011   0.00010   0.00008
   Bi     5.76001   5.80036   1.76402   0.00026   0.00042  -0.00007
   Se     0.00000   7.71618   0.02988  -0.00080   0.00028  -0.00013
   Se     1.95109   1.93345   6.02403  -0.00027   0.00081   0.00013
   Se     0.00000   3.88454   0.02988  -0.00080   0.00028   0.00013
   Se     3.86691   7.72892  12.10481   0.00079  -0.00054  -0.00027
   Se     1.93835   5.80036   6.05694   0.00054  -0.00080   0.00027
   Se     5.78273   1.93345   6.02403  -0.00027   0.00081  -0.00013
   Se     3.86691   3.87180  12.10481   0.00079  -0.00054   0.00027
   Se     5.79547   5.80036   6.05694   0.00054  -0.00080  -0.00027
   O      0.00000   1.93345   3.02696   0.01213  -0.01231  -0.00000
   O      0.00000   5.80036   9.07997  -0.00763  -0.00775  -0.00000
   O      0.00000   5.80036   3.00091  -0.04688  -0.04854   0.00000
   O      0.00000   1.93345   9.08087  -0.00075   0.00076  -0.00000
   O      5.80902   0.00866   3.02696  -0.00064   0.00075   0.00511
   O      1.92979   0.00367   9.08087   0.00059  -0.00060  -0.00003
   O      1.92479   0.00866   3.02696  -0.00791   0.00792   0.00004
   O      5.80403   0.00367   9.08087   0.00060  -0.00061  -0.00440
   O      1.92979   3.86324   9.08087   0.00060  -0.00061   0.00440
   O      1.92479   3.85825   3.02696  -0.00064   0.00075  -0.00511
   O      3.86691   1.93345   3.05300   0.04783   0.04758  -0.00000
   O      3.86691   1.93345   9.08178   0.00764   0.00774   0.00000
   O      3.86691   5.80036   9.08087  -0.00093   0.00094  -0.00000
   O      5.80403   3.86324   9.08087   0.00059  -0.00060   0.00003
   O      5.80902   3.85825   3.02696  -0.00791   0.00792  -0.00004
PRIMCOORD  104
     39   1
   Bi     0.00000   7.72928   4.29046  -0.00000  -0.00077  -0.00018
   Bi     0.00000   7.72993   7.81360   0.00000  -0.00037   0.00001
   Bi     1.93734   1.93345  10.34815  -0.00037   0.00000   0.00001
   Bi     1.93800   1.93345   1.76345  -0.00077  -0.00000  -0.00018
   Bi     0.00000   3.87145   4.29046  -0.00000   0.00077  -0.00018
   Bi     0.00000   3.87080   7.81360   0.00000   0.00037   0.00001
   Bi     3.86691   7.69346   4.28990   0.00000  -0.00082  -0.00022
   Bi     3.86691   7.73117   7.80447  -0.00000  -0.00042  -0.00021
   Bi     1.93610   5.80036  10.35727  -0.00042  -0.00000  -0.00021
   Bi     1.97381   5.80036   1.76402  -0.00082   0.00000  -0.00022
   Bi     5.79647   1.93345  10.34815   0.00037   0.00000   0.00001
   Bi     5.79582   1.93345   1.76345   0.00077  -0.00000  -0.00018
   Bi     3.86691   3.90726   4.28990   0.00000   0.00082  -0.00022
   Bi     3.86691   3.86955   7.80447  -0.00000   0.00042  -0.00021
   Bi     5.79772   5.80036  10.35727   0.00042  -0.00000  -0.00021
   Bi     5.76001   5.80036   1.76402   0.00082   0.00000  -0.00022
   Se     0.00000   7.71618   0.02988   0.00000   0.00136  -0.00044
   Se     1.95109   1.93345   6.02403   0.00136   0.00000  -0.00044
   Se     0.00000   3.88454   0.02988   0.00000  -0.00136  -0.00044
   Se     3.86691   7.72892  12.10481   0.00000   0.00182  -0.00066
   Se     1.93835   5.80036   6.05694   0.00182  -0.00000  -0.00066
   Se     5.78273   1.93345   6.02403  -0.00136   0.00000  -0.00044
   Se     3.86691   3.87180  12.10481   0.00000  -0.00182  -0.00066
   Se     5.79547   5.80036   6.05694  -0.00182   0.00000  -0.00066
   O      0.00000   1.93345   3.02696  -0.00000  -0.00000   0.01010
   O      0.00000   5.80036   9.07997  -0.00000  -0.00000   0.00077
   O      0.00000   5.80036   3.00091   0.00000  -0.00000   0.00431
   O      0.00000   1.93345   9.08087  -0.00000  -0.00000  -0.00829
   O      5.80902   0.00866   3.02696  -0.02935   0.02935   0.00404
   O      1.92979   0.00367   9.08087   0.01819   0.01819   0.00380
   O      1.92479   0.00866   3.02696   0.02935   0.02935   0.00404
   O      5.80403   0.00367   9.08087  -0.01819   0.01819   0.00380
   O      1.92979   3.86324   9.08087   0.01819  -0.01819   0.00380
   O      1.92479   3.85825   3.02696   0.02935  -0.02935   0.00404
   O      3.86691   1.93345   3.05300  -0.00000   0.00000   0.00431
   O      3.86691   1.93345   9.08178   0.00000  -0.00000   0.00077
   O      3.86691   5.80036   9.08087   0.00000   0.00000   0.00987
   O      5.80403   3.86324   9.08087  -0.01819  -0.01819   0.00380
   O      5.80902   3.85825   3.02696  -0.02935  -0.02935   0.00404
PRIMCOORD  105
     39   1
   Bi     0.00000   7.72928   4.29046  -0.00012   0.00012   0.00009
   Bi     0.00000   7.72993   7.81360   0.00078   0.00005   0.00004
   Bi     1.93734   1.93345  10.34815   0.00005   0.00075   0.00004
   Bi     1.93800   1.93345   1.76345   0.00012  -0.00012   0.00009
   Bi     0.00000   3.87145   4.29046  -0.00012   0.00012  -0.00009
   Bi     0.00000   3.87080   7.81360   0.00078   0.00005  -0.00004
   Bi     3.86691   7.69346   4.28990   0.00001  -0.00003   0.00019
   Bi     3.86691   7.73117   7.80447  -0.00075  -0.00005   0.00002
   Bi     1.93610   5.80036  10.35727  -0.00005  -0.00073   0.00002
   Bi     1.97381   5.80036   1.76402  -0.00003   0.00001   0.00020
   Bi     5.79647   1.93345  10.34815   0.00005   0.00075  -0.00004
   Bi     5.79582   1.93345   1.76345   0.00012  -0.00012  -0.00009
   Bi     3.86691   3.90726   4.28990   0.00001  -0.00003  -0.00019
   Bi     3.86691   3.86955   7.80447  -0.00075  -0.00005  -0.00002
   Bi     5.79772   5.80036  10.35727  -0.00005  -0.00073  -0.00002
   Bi     5.76001   5.80036   1.76402  -0.00003   0.00001  -0.00020
   Se     0.00000   7.71618   0.02988  -0.00137  -0.00004  -0.00016
   Se     1.95109   1.93345   6.02403  -0.00004  -0.00133  -0.00016
   Se     0.00000   3.88454   0.02988  -0.00137  -0.00004   0.00016
   Se     3.86691   7.72892  12.10481   0.00147  -0.00025  -0.00038
   Se     1.93835   5.80036   6.05694  -0.00026   0.00142  -0.00039
   Se     5.78273   1.93345   6.02403  -0.00004  -0.00133   0.00016
   Se     3.86691   3.87180  12.10481   0.00147  -0.00025   0.00038
   Se     5.79547   5.80036   6.05694  -0.00026   0.00142   0.00039
   O      0.00000   1.93345   3.02696  -0.01098  -0.01066  -0.00000
   O      0.00000   5.80036   9.07997  -0.03437   0.03120   0.00000
   O      0.00000   5.80036   3.00091   0.00044  -0.00656  -0.00000
   O      0.00000   1.93345   9.08087  -0.03726  -0.03615   0.00000
   O      5.80902   0.00866   3.02696   0.00603   0.00593   0.00010
   O      1.92979   0.00367   9.08087   0.00183   0.00182   0.00413
   O      1.92479   0.00866   3.02696   0.00345   0.00327  -0.00636
   O      5.80403   0.00367   9.08087   0.00058   0.00053  -0.00006
   O      1.92979   3.86324   9.08087   0.00058   0.00053   0.00006
   O      1.92479   3.85825   3.02696   0.00603   0.00593  -0.00010
   O      3.86691   1.93345   3.05300  -0.00676   0.00043  -0.00000
   O      3.86691   1.93345   9.08178   0.03216  -0.03335  -0.00000
   O      3.86691   5.80036   9.08087   0.03472   0.03369  -0.00000
   O      5.80403   3.86324   9.08087   0.00183   0.00182  -0.00413
   O      5.80902   3.85825   3.02696   0.00345   0.00327   0.00636
PRIMCOORD  106
     39   1
   Bi     0.00000   7.72928   4.29046  -0.00012  -0.00012  -0.00009
   Bi     0.00000   7.72993   7.81360   0.00075  -0.00005  -0.00004
   Bi     1.93734   1.93345  10.34815   0.00005  -0.00078   0.00004
   Bi     1.93800   1.93345   1.76345   0.00012   0.00012   0.00009
   Bi     0.00000   3.87145   4.29046  -0.00012  -0.00012   0.00009
   Bi     0.00000   3.87080   7.81360   0.00075  -0.00005   0.00004
   Bi     3.86691   7.69346   4.28990   0.00001   0.00003  -0.00020
   Bi     3.86691   7.73117   7.80447  -0.00073   0.00005  -0.00002
   Bi     1.93610   5.80036  10.35727  -0.00005   0.00075   0.00002
   Bi     1.97381   5.80036   1.76402  -0.00003  -0.00001   0.00019
   Bi     5.79647   1.93345  10.34815   0.00005  -0.00078  -0.00004
   Bi     5.79582   1.93345   1.76345   0.00012   0.00012  -0.00009
   Bi     3.86691   3.90726   4.28990   0.00001   0.00003   0.00020
   Bi     3.86691   3.86955   7.80447  -0.00073   0.00005   0.00002
   Bi     5.79772   5.80036  10.35727  -0.00005   0.00075  -0.00002
   Bi     5.76001   5.80036   1.76402  -0.00003  -0.00001  -0.00019
   Se     0.00000   7.71618   0.02988  -0.00133   0.00004   0.00016
   Se     1.95109   1.93345   6.02403  -0.00004   0.00137  -0.00016
   Se     0.00000   3.88454   0.02988  -0.00133   0.00004  -0.00016
   Se     3.86691   7.72892  12.10481   0.00142   0.00026   0.00039
   Se     1.93835   5.80036   6.05694  -0.00025  -0.00147  -0.00038
   Se     5.78273   1.93345   6.02403  -0.00004   0.00137   0.00016
   Se     3.86691   3.87180  12.10481   0.00142   0.00026  -0.00039
   Se     5.79547   5.80036   6.05694  -0.00025  -0.00147   0.00038
   O      0.00000   1.93345   3.02696  -0.01066   0.01098  -0.00000
   O      0.00000   5.80036   9.07997  -0.03335  -0.03216  -0.00000
   O      0.00000   5.80036   3.00091   0.00043   0.00676  -0.00000
   O      0.00000   1.93345   9.08087  -0.03615   0.03726   0.00000
   O      5.80902   0.00866   3.02696   0.00327  -0.00345   0.00636
   O      1.92979   0.00367   9.08087   0.00053  -0.00058  -0.00006
   O      1.92479   0.00866   3.02696   0.00593  -0.00603   0.00010
   O      5.80403   0.00367   9.08087   0.00182  -0.00183  -0.00413
   O      1.92979   3.86324   9.08087   0.00182  -0.00183   0.00413
   O      1.92479   3.85825   3.02696   0.00327  -0.00345  -0.00636
   O      3.86691   1.93345   3.05300  -0.00656  -0.00044   0.00000
   O      3.86691   1.93345   9.08178   0.03120   0.03437   0.00000
   O      3.86691   5.80036   9.08087   0.03369  -0.03472   0.00000
   O      5.80403   3.86324   9.08087   0.00053  -0.00058   0.00006
   O      5.80902   3.85825   3.02696   0.00593  -0.00603  -0.00010
PRIMCOORD  107
     39   1
   Bi     0.00000   7.72928   4.29046  -0.00000  -0.00025  -0.00011
   Bi     0.00000   7.72993   7.81360   0.00000   0.00095  -0.00014
   Bi     1.93734   1.93345  10.34815  -0.00095  -0.00000   0.00014
   Bi     1.93800   1.93345   1.76345   0.00025   0.00000   0.00011
   Bi     0.00000   3.87145   4.29046  -0.00000   0.00025  -0.00011
   Bi     0.00000   3.87080   7.81360   0.00000  -0.00095  -0.00014
   Bi     3.86691   7.69346   4.28990   0.00000  -0.00015   0.00037
   Bi     3.86691   7.73117   7.80447  -0.00000   0.00090   0.00002
   Bi     1.93610   5.80036  10.35727  -0.00090   0.00000  -0.00002
   Bi     1.97381   5.80036   1.76402   0.00015  -0.00000  -0.00037
   Bi     5.79647   1.93345  10.34815   0.00095  -0.00000   0.00014
   Bi     5.79582   1.93345   1.76345  -0.00025   0.00000   0.00011
   Bi     3.86691   3.90726   4.28990   0.00000   0.00015   0.00037
   Bi     3.86691   3.86955   7.80447  -0.00000  -0.00090   0.00002
   Bi     5.79772   5.80036  10.35727   0.00090   0.00000  -0.00002
   Bi     5.76001   5.80036   1.76402  -0.00015  -0.00000  -0.00037
   Se     0.00000   7.71618   0.02988  -0.00000  -0.00079   0.00038
   Se     1.95109   1.93345   6.02403   0.00079   0.00000  -0.00038
   Se     0.00000   3.88454   0.02988  -0.00000   0.00079   0.00038
   Se     3.86691   7.72892  12.10481   0.00000  -0.00084  -0.00037
   Se     1.93835   5.80036   6.05694   0.00084  -0.00000   0.00037
   Se     5.78273   1.93345   6.02403  -0.00079   0.00000  -0.00038
   Se     3.86691   3.87180  12.10481   0.00000   0.00084  -0.00037
   Se     5.79547   5.80036   6.05694  -0.00084  -0.00000   0.00037
   O      0.00000   1.93345   3.02696  -0.00000   0.00000   0.00000
   O      0.00000   5.80036   9.07997  -0.00000  -0.00000   0.00099
   O      0.00000   5.80036   3.00091   0.00000   0.00000   0.00469
   O      0.00000   1.93345   9.08087  -0.00000   0.00000   0.00000
   O      5.80902   0.00866   3.02696   0.00991   0.00991   0.00000
   O      1.92979   0.00367   9.08087   0.03383  -0.03383  -0.00000
   O      1.92479   0.00866   3.02696  -0.00991   0.00991   0.00000
   O      5.80403   0.00367   9.08087  -0.03383  -0.03383  -0.00000
   O      1.92979   3.86324   9.08087   0.03383   0.03383   0.00000
   O      1.92479   3.85825   3.02696  -0.00991  -0.00991  -0.00000
   O      3.86691   1.93345   3.05300  -0.00000  -0.00000  -0.00469
   O      3.86691   1.93345   9.08178   0.00000   0.00000  -0.00099
   O      3.86691   5.80036   9.08087   0.00000  -0.00000   0.00000
   O      5.80403   3.86324   9.08087  -0.03383   0.03383   0.00000
   O      5.80902   3.85825   3.02696   0.00991  -0.00991  -0.00000
PRIMCOORD  108
     39   1
   Bi     0.00000   7.72928   4.29046   0.00000   0.00044  -0.00014
   Bi     0.00000   7.72993   7.81360  -0.00000  -0.00083  -0.00032
   Bi     1.93734   1.93345  10.34815  -0.00083  -0.00000  -0.00032
   Bi     1.93800   1.93345   1.76345   0.00044   0.00000  -0.00014
   Bi     0.00000   3.87145   4.29046   0.00000  -0.00044  -0.00014
   Bi     0.00000   3.87080   7.81360  -0.00000   0.00083  -0.00032
   Bi     3.86691   7.69346   4.28990  -0.00000   0.00048   0.00015
   Bi     3.86691   7.73117   7.80447   0.00000  -0.00083  -0.00011
   Bi     1.93610   5.80036  10.35727  -0.00083   0.00000  -0.00011
   Bi     1.97381   5.80036   1.76402   0.00048  -0.00000   0.00015
   Bi     5.79647   1.93345  10.34815   0.00083  -0.00000  -0.00032
   Bi     5.79582   1.93345   1.76345  -0.00044   0.00000  -0.00014
   Bi     3.86691   3.90726   4.28990  -0.00000  -0.00048   0.00015
   Bi     3.86691   3.86955   7.80447   0.00000   0.00083  -0.00011
   Bi     5.79772   5.80036  10.35727   0.00083   0.00000  -0.00011
   Bi     5.76001   5.80036   1.76402  -0.00048  -0.00000   0.00015
   Se     0.00000   7.71618   0.02988   0.00000   0.00048   0.00004
   Se     1.95109   1.93345   6.02403   0.00048   0.00000   0.00004
   Se     0.00000   3.88454   0.02988   0.00000  -0.00048   0.00004
   Se     3.86691   7.72892  12.10481  -0.00000   0.00037  -0.00059
   Se     1.93835   5.80036   6.05694   0.00037  -0.00000  -0.00059
   Se     5.78273   1.93345   6.02403  -0.00048   0.00000   0.00004
   Se     3.86691   3.87180  12.10481  -0.00000  -0.00037  -0.00059
   Se     5.79547   5.80036   6.05694  -0.00037  -0.00000  -0.00059
   O      0.00000   1.93345   3.02696   0.00000   0.00000   0.00269
   O      0.00000   5.80036   9.07997   0.00000  -0.00000   0.00234
   O      0.00000   5.80036   3.00091  -0.00000   0.00000   0.00082
   O      0.00000   1.93345   9.08087   0.00000   0.00000   0.00407
   O      5.80902   0.00866   3.02696   0.01884  -0.01884   0.00004
   O      1.92979   0.00367   9.08087   0.02961   0.02961   0.00496
   O      1.92479   0.00866   3.02696  -0.01884  -0.01884   0.00004
   O      5.80403   0.00367   9.08087  -0.02961   0.02961   0.00496
   O      1.92979   3.86324   9.08087   0.02961  -0.02961   0.00496
   O      1.92479   3.85825   3.02696  -0.01884   0.01884   0.00004
   O      3.86691   1.93345   3.05300   0.00000  -0.00000   0.00082
   O      3.86691   1.93345   9.08178  -0.00000   0.00000   0.00234
   O      3.86691   5.80036   9.08087  -0.00000  -0.00000   0.00056
   O      5.80403   3.86324   9.08087  -0.02961  -0.02961   0.00496
   O      5.80902   3.85825   3.02696   0.01884   0.01884   0.00004
PRIMCOORD  109
     39   1
   Bi     0.00000   7.72928   4.29046  -0.00022  -0.00030   0.00020
   Bi     0.00000   7.72993   7.81360   0.00009  -0.00005   0.00010
   Bi     1.93734   1.93345  10.34815  -0.00002   0.00018   0.00005
   Bi     1.93800   1.93345   1.76345  -0.00016  -0.00042   0.00010
   Bi     0.00000   3.87145   4.29046  -0.00022  -0.00030  -0.00020
   Bi     0.00000   3.87080   7.81360   0.00009  -0.00005  -0.00010
   Bi     3.86691   7.69346   4.28990   0.00046  -0.00016  -0.00046
   Bi     3.86691   7.73117   7.80447  -0.00010  -0.00000   0.00011
   Bi     1.93610   5.80036  10.35727  -0.00000  -0.00019   0.00006
   Bi     1.97381   5.80036   1.76402  -0.00008   0.00089  -0.00024
   Bi     5.79647   1.93345  10.34815  -0.00002   0.00018  -0.00005
   Bi     5.79582   1.93345   1.76345  -0.00016  -0.00042  -0.00010
   Bi     3.86691   3.90726   4.28990   0.00046  -0.00016   0.00046
   Bi     3.86691   3.86955   7.80447  -0.00010  -0.00000  -0.00011
   Bi     5.79772   5.80036  10.35727  -0.00000  -0.00019  -0.00006
   Bi     5.76001   5.80036   1.76402  -0.00008   0.00089   0.00024
   Se     0.00000   7.71618   0.02988   0.00008   0.00040  -0.00038
   Se     1.95109   1.93345   6.02403   0.00021   0.00015  -0.00020
   Se     0.00000   3.88454   0.02988   0.00008   0.00040   0.00038
   Se     3.86691   7.72892  12.10481  -0.00064   0.00074  -0.00030
   Se     1.93835   5.80036   6.05694   0.00038  -0.00123  -0.00016
   Se     5.78273   1.93345   6.02403   0.00021   0.00015   0.00020
   Se     3.86691   3.87180  12.10481  -0.00064   0.00074   0.00030
   Se     5.79547   5.80036   6.05694   0.00038  -0.00123   0.00016
   O      0.00000   1.93345   3.02696   0.03143   0.06061   0.00000
   O      0.00000   5.80036   9.07997  -0.00241   0.01384  -0.00000
   O      0.00000   5.80036   3.00091   0.01739   0.00481   0.00000
   O      0.00000   1.93345   9.08087  -0.00280  -0.00540  -0.00000
   O      5.80902   0.00866   3.02696  -0.01891  -0.02795   0.00005
   O      1.92979   0.00367   9.08087  -0.00245  -0.00395  -0.00088
   O      1.92479   0.00866   3.02696  -0.00682  -0.02167   0.00016
   O      5.80403   0.00367   9.08087  -0.00135  -0.00338  -0.00028
   O      1.92979   3.86324   9.08087  -0.00135  -0.00338   0.00028
   O      1.92479   3.85825   3.02696  -0.01891  -0.02795  -0.00005
   O      3.86691   1.93345   3.05300   0.00250   0.03353  -0.00000
   O      3.86691   1.93345   9.08178   0.00718  -0.00465   0.00000
   O      3.86691   5.80036   9.08087   0.00626   0.01206  -0.00000
   O      5.80403   3.86324   9.08087  -0.00245  -0.00395   0.00088
   O      5.80902   3.85825   3.02696  -0.00682  -0.02167  -0.00016
PRIMCOORD  110
     39   1
   Bi     0.00000   7.72928   4.29046   0.00042  -0.00016   0.00010
   Bi     0.00000   7.72993   7.81360  -0.00018  -0.00002   0.00005
   Bi     1.93734   1.93345  10.34815   0.00005   0.00009  -0.00010
   Bi     1.93800   1.93345   1.76345   0.00030  -0.00022  -0.00020
   Bi     0.00000   3.87145   4.29046   0.00042  -0.00016  -0.00010
   Bi     0.00000   3.87080   7.81360  -0.00018  -0.00002  -0.00005
   Bi     3.86691   7.69346   4.28990  -0.00089  -0.00008  -0.00024
   Bi     3.86691   7.73117   7.80447   0.00019  -0.00000   0.00006
   Bi     1.93610   5.80036  10.35727   0.00000  -0.00010  -0.00011
   Bi     1.97381   5.80036   1.76402   0.00016   0.00046   0.00046
   Bi     5.79647   1.93345  10.34815   0.00005   0.00009   0.00010
   Bi     5.79582   1.93345   1.76345   0.00030  -0.00022   0.00020
   Bi     3.86691   3.90726   4.28990  -0.00089  -0.00008   0.00024
   Bi     3.86691   3.86955   7.80447   0.00019  -0.00000  -0.00006
   Bi     5.79772   5.80036  10.35727   0.00000  -0.00010   0.00011
   Bi     5.76001   5.80036   1.76402   0.00016   0.00046  -0.00046
   Se     0.00000   7.71618   0.02988  -0.00015   0.00021  -0.00020
   Se     1.95109   1.93345   6.02403  -0.00040   0.00008   0.00038
   Se     0.00000   3.88454   0.02988  -0.00015   0.00021   0.00020
   Se     3.86691   7.72892  12.10481   0.00123   0.00038  -0.00016
   Se     1.93835   5.80036   6.05694  -0.00074  -0.00064   0.00030
   Se     5.78273   1.93345   6.02403  -0.00040   0.00008  -0.00038
   Se     3.86691   3.87180  12.10481   0.00123   0.00038   0.00016
   Se     5.79547   5.80036   6.05694  -0.00074  -0.00064  -0.00030
   O      0.00000   1.93345   3.02696  -0.06061   0.03143  -0.00000
   O      0.00000   5.80036   9.07997   0.00465   0.00718  -0.00000
   O      0.00000   5.80036   3.00091  -0.03353   0.00250  -0.00000
   O      0.00000   1.93345   9.08087   0.00540  -0.00280  -0.00000
   O      5.80902   0.00866   3.02696   0.02167  -0.00682   0.00016
   O      1.92979   0.00367   9.08087   0.00338  -0.00135   0.00028
   O      1.92479   0.00866   3.02696   0.02795  -0.01891  -0.00005
   O      5.80403   0.00367   9.08087   0.00395  -0.00245  -0.00088
   O      1.92979   3.86324   9.08087   0.00395  -0.00245   0.00088
   O      1.92479   3.85825   3.02696   0.02167  -0.00682  -0.00016
   O      3.86691   1.93345   3.05300  -0.00481   0.01739   0.00000
   O      3.86691   1.93345   9.08178  -0.01384  -0.00241  -0.00000
   O      3.86691   5.80036   9.08087  -0.01206   0.00626  -0.00000
   O      5.80403   3.86324   9.08087   0.00338  -0.00135  -0.00028
   O      5.80902   3.85825   3.02696   0.02795  -0.01891   0.00005
PRIMCOORD  111
     39   1
   Bi     0.00000   7.72928   4.29046   0.00005   0.00002  -0.00001
   Bi     0.00000   7.72993   7.81360  -0.00016  -0.00007   0.00002
   Bi     1.93734   1.93345  10.34815   0.00025   0.00004  -0.00006
   Bi     1.93800   1.93345   1.76345  -0.00007  -0.00001   0.00005
   Bi     0.00000   3.87145   4.29046   0.00005   0.00002   0.00001
   Bi     0.00000   3.87080   7.81360  -0.00016  -0.00007  -0.00002
   Bi     3.86691   7.69346   4.28990   0.00005   0.00002   0.00001
   Bi     3.86691   7.73117   7.80447  -0.00017  -0.00005   0.00001
   Bi     1.93610   5.80036  10.35727   0.00020   0.00005  -0.00002
   Bi     1.97381   5.80036   1.76402  -0.00006  -0.00001  -0.00004
   Bi     5.79647   1.93345  10.34815   0.00025   0.00004   0.00006
   Bi     5.79582   1.93345   1.76345  -0.00007  -0.00001  -0.00005
   Bi     3.86691   3.90726   4.28990   0.00005   0.00002  -0.00001
   Bi     3.86691   3.86955   7.80447  -0.00017  -0.00005  -0.00001
   Bi     5.79772   5.80036  10.35727   0.00020   0.00005   0.00002
   Bi     5.76001   5.80036   1.76402  -0.00006  -0.00001   0.00004
   Se     0.00000   7.71618   0.02988   0.00079   0.00015   0.00003
   Se     1.95109   1.93345   6.02403  -0.00055  -0.00021  -0.00010
   Se     0.00000   3.88454   0.02988   0.00079   0.00015  -0.00003
   Se     3.86691   7.72892  12.10481   0.00057   0.00017   0.00001
   Se     1.93835   5.80036   6.05694  -0.00063  -0.00015  -0.00004
   Se     5.78273   1.93345   6.02403  -0.00055  -0.00021   0.00010
   Se     3.86691   3.87180  12.10481   0.00057   0.00017  -0.00001
   Se     5.79547   5.80036   6.05694  -0.00063  -0.00015   0.00004
   O      0.00000   1.93345   3.02696   0.00937  -0.00253   0.00000
   O      0.00000   5.80036   9.07997  -0.03270   0.01027  -0.00000
   O      0.00000   5.80036   3.00091   0.00544   0.00007  -0.00000
   O      0.00000   1.93345   9.08087  -0.03391   0.00917   0.00000
   O      5.80902   0.00866   3.02696  -0.00300   0.00002  -0.00083
   O      1.92979   0.00367   9.08087   0.03283  -0.00802   0.00015
   O      1.92479   0.00866   3.02696  -0.00346   0.00173   0.00048
   O      5.80403   0.00367   9.08087   0.03333  -0.00987  -0.00026
   O      1.92979   3.86324   9.08087   0.03333  -0.00987   0.00026
   O      1.92479   3.85825   3.02696  -0.00300   0.00002   0.00083
   O      3.86691   1.93345   3.05300  -0.00027  -0.00147  -0.00000
   O      3.86691   1.93345   9.08178  -0.03796   0.00884   0.00000
   O      3.86691   5.80036   9.08087  -0.03332   0.00901   0.00000
   O      5.80403   3.86324   9.08087   0.03283  -0.00802  -0.00015
   O      5.80902   3.85825   3.02696  -0.00346   0.00173  -0.00048
PRIMCOORD  112
     39   1
   Bi     0.00000   7.72928   4.29046  -0.00001   0.00007  -0.00005
   Bi     0.00000   7.72993   7.81360   0.00004  -0.00025   0.00006
   Bi     1.93734   1.93345  10.34815  -0.00007   0.00016   0.00002
   Bi     1.93800   1.93345   1.76345   0.00002  -0.00005  -0.00001
   Bi     0.00000   3.87145   4.29046  -0.00001   0.00007   0.00005
   Bi     0.00000   3.87080   7.81360   0.00004  -0.00025  -0.00006
   Bi     3.86691   7.69346   4.28990  -0.00001   0.00006   0.00004
   Bi     3.86691   7.73117   7.80447   0.00005  -0.00020   0.00002
   Bi     1.93610   5.80036  10.35727  -0.00005   0.00017   0.00001
   Bi     1.97381   5.80036   1.76402   0.00002  -0.00005   0.00001
   Bi     5.79647   1.93345  10.34815  -0.00007   0.00016  -0.00002
   Bi     5.79582   1.93345   1.76345   0.00002  -0.00005   0.00001
   Bi     3.86691   3.90726   4.28990  -0.00001   0.00006  -0.00004
   Bi     3.86691   3.86955   7.80447   0.00005  -0.00020  -0.00002
   Bi     5.79772   5.80036  10.35727  -0.00005   0.00017  -0.00001
   Bi     5.76001   5.80036   1.76402   0.00002  -0.00005  -0.00001
   Se     0.00000   7.71618   0.02988  -0.00021   0.00055   0.00010
   Se     1.95109   1.93345   6.02403   0.00015  -0.00079   0.00003
   Se     0.00000   3.88454   0.02988  -0.00021   0.00055  -0.00010
   Se     3.86691   7.72892  12.10481  -0.00015   0.00063   0.00004
   Se     1.93835   5.80036   6.05694   0.00017  -0.00057   0.00001
   Se     5.78273   1.93345   6.02403   0.00015  -0.00079  -0.00003
   Se     3.86691   3.87180  12.10481  -0.00015   0.00063  -0.00004
   Se     5.79547   5.80036   6.05694   0.00017  -0.00057  -0.00001
   O      0.00000   1.93345   3.02696  -0.00253  -0.00937   0.00000
   O      0.00000   5.80036   9.07997   0.00884   0.03796   0.00000
   O      0.00000   5.80036   3.00091  -0.00147   0.00027   0.00000
   O      0.00000   1.93345   9.08087   0.00917   0.03391   0.00000
   O      5.80902   0.00866   3.02696   0.00173   0.00346  -0.00048
   O      1.92979   0.00367   9.08087  -0.00987  -0.03333  -0.00026
   O      1.92479   0.00866   3.02696   0.00002   0.00300  -0.00083
   O      5.80403   0.00367   9.08087  -0.00802  -0.03283  -0.00015
   O      1.92979   3.86324   9.08087  -0.00802  -0.03283   0.00015
   O      1.92479   3.85825   3.02696   0.00173   0.00346   0.00048
   O      3.86691   1.93345   3.05300   0.00007  -0.00544   0.00000
   O      3.86691   1.93345   9.08178   0.01027   0.03270   0.00000
   O      3.86691   5.80036   9.08087   0.00901   0.03332   0.00000
   O      5.80403   3.86324   9.08087  -0.00987  -0.03333   0.00026
   O      5.80902   3.85825   3.02696   0.00002   0.00300   0.00083
PRIMCOORD  113
     39   1
   Bi     0.00000   7.72928   4.29046  -0.00021  -0.00002   0.00043
   Bi     0.00000   7.72993   7.81360   0.00005  -0.00002   0.00020
   Bi     1.93734   1.93345  10.34815  -0.00002   0.00005   0.00020
   Bi     1.93800   1.93345   1.76345  -0.00002  -0.00021   0.00042
   Bi     0.00000   3.87145   4.29046  -0.00021  -0.00002  -0.00043
   Bi     0.00000   3.87080   7.81360   0.00005  -0.00002  -0.00020
   Bi     3.86691   7.69346   4.28990   0.00015   0.00003  -0.00039
   Bi     3.86691   7.73117   7.80447  -0.00005   0.00002  -0.00016
   Bi     1.93610   5.80036  10.35727   0.00002  -0.00005  -0.00016
   Bi     1.97381   5.80036   1.76402   0.00003   0.00015  -0.00038
   Bi     5.79647   1.93345  10.34815  -0.00002   0.00005  -0.00020
   Bi     5.79582   1.93345   1.76345  -0.00002  -0.00021  -0.00042
   Bi     3.86691   3.90726   4.28990   0.00015   0.00003   0.00039
   Bi     3.86691   3.86955   7.80447  -0.00005   0.00002   0.00016
   Bi     5.79772   5.80036  10.35727   0.00002  -0.00005   0.00016
   Bi     5.76001   5.80036   1.76402   0.00003   0.00015   0.00038
   Se     0.00000   7.71618   0.02988   0.00044  -0.00007  -0.00090
   Se     1.95109   1.93345   6.02403  -0.00007   0.00045  -0.00089
   Se     0.00000   3.88454   0.02988   0.00044  -0.00007   0.00090
   Se     3.86691   7.72892  12.10481   0.00003  -0.00012   0.00065
   Se     1.93835   5.80036   6.05694  -0.00012   0.00003   0.00064
   Se     5.78273   1.93345   6.02403  -0.00007   0.00045   0.00089
   Se     3.86691   3.87180  12.10481   0.00003  -0.00012  -0.00065
   Se     5.79547   5.80036   6.05694  -0.00012   0.00003  -0.00064
   O      0.00000   1.93345   3.02696   0.02047   0.02062   0.00000
   O      0.00000   5.80036   9.07997   0.01182   0.01238   0.00000
   O      0.00000   5.80036   3.00091  -0.02389  -0.03185  -0.00000
   O      0.00000   1.93345   9.08087  -0.01216  -0.01225   0.00000
   O      5.80902   0.00866   3.02696  -0.01111  -0.01091   0.00000
   O      1.92979   0.00367   9.08087  -0.01219  -0.01210  -0.00154
   O      1.92479   0.00866   3.02696   0.02770   0.02762   0.00031
   O      5.80403   0.00367   9.08087   0.01277   0.01268  -0.00001
   O      1.92979   3.86324   9.08087   0.01277   0.01268   0.00001
   O      1.92479   3.85825   3.02696  -0.01111  -0.01091  -0.00000
   O      3.86691   1.93345   3.05300  -0.03162  -0.02406  -0.00000
   O      3.86691   1.93345   9.08178   0.01229   0.01190   0.00000
   O      3.86691   5.80036   9.08087  -0.01243  -0.01252   0.00000
   O      5.80403   3.86324   9.08087  -0.01219  -0.01210   0.00154
   O      5.80902   3.85825   3.02696   0.02770   0.02762  -0.00031
PRIMCOORD  114
     39   1
   Bi     0.00000   7.72928   4.29046   0.00021  -0.00002   0.00042
   Bi     0.00000   7.72993   7.81360  -0.00005  -0.00002   0.00020
   Bi     1.93734   1.93345  10.34815   0.00002   0.00005  -0.00020
   Bi     1.93800   1.93345   1.76345   0.00002  -0.00021  -0.00043
   Bi     0.00000   3.87145   4.29046   0.00021  -0.00002  -0.00042
   Bi     0.00000   3.87080   7.81360  -0.00005  -0.00002  -0.00020
   Bi     3.86691   7.69346   4.28990  -0.00015   0.00003  -0.00038
   Bi     3.86691   7.73117   7.80447   0.00005   0.00002  -0.00016
   Bi     1.93610   5.80036  10.35727  -0.00002  -0.00005   0.00016
   Bi     1.97381   5.80036   1.76402  -0.00003   0.00015   0.00039
   Bi     5.79647   1.93345  10.34815   0.00002   0.00005   0.00020
   Bi     5.79582   1.93345   1.76345   0.00002  -0.00021   0.00043
   Bi     3.86691   3.90726   4.28990  -0.00015   0.00003   0.00038
   Bi     3.86691   3.86955   7.80447   0.00005   0.00002   0.00016
   Bi     5.79772   5.80036  10.35727  -0.00002  -0.00005  -0.00016
   Bi     5.76001   5.80036   1.76402  -0.00003   0.00015  -0.00039
   Se     0.00000   7.71618   0.02988  -0.00045  -0.00007  -0.00089
   Se     1.95109   1.93345   6.02403   0.00007   0.00044   0.00090
   Se     0.00000   3.88454   0.02988  -0.00045  -0.00007   0.00089
   Se     3.86691   7.72892  12.10481  -0.00003  -0.00012   0.00064
   Se     1.93835   5.80036   6.05694   0.00012   0.00003  -0.00065
   Se     5.78273   1.93345   6.02403   0.00007   0.00044  -0.00090
   Se     3.86691   3.87180  12.10481  -0.00003  -0.00012  -0.00064
   Se     5.79547   5.80036   6.05694   0.00012   0.00003   0.00065
   O      0.00000   1.93345   3.02696  -0.02062   0.02047  -0.00000
   O      0.00000   5.80036   9.07997  -0.01190   0.01229  -0.00000
   O      0.00000   5.80036   3.00091   0.02406  -0.03162  -0.00000
   O      0.00000   1.93345   9.08087   0.01225  -0.01216  -0.00000
   O      5.80902   0.00866   3.02696  -0.02762   0.02770   0.00031
   O      1.92979   0.00367   9.08087  -0.01268   0.01277   0.00001
   O      1.92479   0.00866   3.02696   0.01091  -0.01111  -0.00000
   O      5.80403   0.00367   9.08087   0.01210  -0.01219  -0.00154
   O      1.92979   3.86324   9.08087   0.01210  -0.01219   0.00154
   O      1.92479   3.85825   3.02696  -0.02762   0.02770  -0.00031
   O      3.86691   1.93345   3.05300   0.03185  -0.02389  -0.00000
   O      3.86691   1.93345   9.08178  -0.01238   0.01182  -0.00000
   O      3.86691   5.80036   9.08087   0.01252  -0.01243  -0.00000
   O      5.80403   3.86324   9.08087  -0.01268   0.01277  -0.00001
   O      5.80902   3.85825   3.02696   0.01091  -0.01111   0.00000
PRIMCOORD  115
     39   1
   Bi     0.00000   7.72928   4.29046   0.00014   0.00002  -0.00041
   Bi     0.00000   7.72993   7.81360  -0.00000   0.00002   0.00056
   Bi     1.93734   1.93345  10.34815   0.00002  -0.00000   0.00056
   Bi     1.93800   1.93345   1.76345   0.00002   0.00014  -0.00041
   Bi     0.00000   3.87145   4.29046   0.00014   0.00002   0.00041
   Bi     0.00000   3.87080   7.81360  -0.00000   0.00002  -0.00056
   Bi     3.86691   7.69346   4.28990  -0.00012   0.00002   0.00038
   Bi     3.86691   7.73117   7.80447  -0.00002   0.00002  -0.00050
   Bi     1.93610   5.80036  10.35727   0.00002  -0.00002  -0.00050
   Bi     1.97381   5.80036   1.76402   0.00002  -0.00012   0.00038
   Bi     5.79647   1.93345  10.34815   0.00002  -0.00000  -0.00056
   Bi     5.79582   1.93345   1.76345   0.00002   0.00014   0.00041
   Bi     3.86691   3.90726   4.28990  -0.00012   0.00002  -0.00038
   Bi     3.86691   3.86955   7.80447  -0.00002   0.00002   0.00050
   Bi     5.79772   5.80036  10.35727   0.00002  -0.00002   0.00050
   Bi     5.76001   5.80036   1.76402   0.00002  -0.00012  -0.00038
   Se     0.00000   7.71618   0.02988  -0.00035   0.00011  -0.00013
   Se     1.95109   1.93345   6.02403   0.00011  -0.00035  -0.00013
   Se     0.00000   3.88454   0.02988  -0.00035   0.00011   0.00013
   Se     3.86691   7.72892  12.10481   0.00007   0.00003   0.00026
   Se     1.93835   5.80036   6.05694   0.00003   0.00007   0.00026
   Se     5.78273   1.93345   6.02403   0.00011  -0.00035   0.00013
   Se     3.86691   3.87180  12.10481   0.00007   0.00003  -0.00026
   Se     5.79547   5.80036   6.05694   0.00003   0.00007  -0.00026
   O      0.00000   1.93345   3.02696  -0.01277  -0.01277   0.00000
   O      0.00000   5.80036   9.07997   0.02074   0.02067  -0.00000
   O      0.00000   5.80036   3.00091   0.01351   0.01744   0.00000
   O      0.00000   1.93345   9.08087  -0.02298  -0.02298  -0.00000
   O      5.80902   0.00866   3.02696   0.00679   0.00679   0.00000
   O      1.92979   0.00367   9.08087  -0.02133  -0.02133  -0.00072
   O      1.92479   0.00866   3.02696  -0.01540  -0.01540   0.00042
   O      5.80403   0.00367   9.08087   0.02242   0.02242  -0.00000
   O      1.92979   3.86324   9.08087   0.02242   0.02242   0.00000
   O      1.92479   3.85825   3.02696   0.00679   0.00679   0.00000
   O      3.86691   1.93345   3.05300   0.01744   0.01351   0.00000
   O      3.86691   1.93345   9.08178   0.02067   0.02074  -0.00000
   O      3.86691   5.80036   9.08087  -0.02191  -0.02191  -0.00000
   O      5.80403   3.86324   9.08087  -0.02133  -0.02133   0.00072
   O      5.80902   3.85825   3.02696  -0.01540  -0.01540  -0.00042
PRIMCOORD  116
     39   1
   Bi     0.00000   7.72928   4.29046   0.00014  -0.00002   0.00041
   Bi     0.00000   7.72993   7.81360  -0.00000  -0.00002  -0.00056
   Bi     1.93734   1.93345  10.34815   0.00002   0.00000   0.00056
   Bi     1.93800   1.93345   1.76345   0.00002  -0.00014  -0.00041
   Bi     0.00000   3.87145   4.29046   0.00014  -0.00002  -0.00041
   Bi     0.00000   3.87080   7.81360  -0.00000  -0.00002   0.00056
   Bi     3.86691   7.69346   4.28990  -0.00012  -0.00002  -0.00038
   Bi     3.86691   7.73117   7.80447  -0.00002  -0.00002   0.00050
   Bi     1.93610   5.80036  10.35727   0.00002   0.00002  -0.00050
   Bi     1.97381   5.80036   1.76402   0.00002   0.00012   0.00038
   Bi     5.79647   1.93345  10.34815   0.00002   0.00000  -0.00056
   Bi     5.79582   1.93345   1.76345   0.00002  -0.00014   0.00041
   Bi     3.86691   3.90726   4.28990  -0.00012  -0.00002   0.00038
   Bi     3.86691   3.86955   7.80447  -0.00002  -0.00002  -0.00050
   Bi     5.79772   5.80036  10.35727   0.00002   0.00002   0.00050
   Bi     5.76001   5.80036   1.76402   0.00002   0.00012  -0.00038
   Se     0.00000   7.71618   0.02988  -0.00035  -0.00011   0.00013
   Se     1.95109   1.93345   6.02403   0.00011   0.00035  -0.00013
   Se     0.00000   3.88454   0.02988  -0.00035  -0.00011  -0.00013
   Se     3.86691   7.72892  12.10481   0.00007  -0.00003  -0.00026
   Se     1.93835   5.80036   6.05694   0.00003  -0.00007   0.00026
   Se     5.78273   1.93345   6.02403   0.00011   0.00035   0.00013
   Se     3.86691   3.87180  12.10481   0.00007  -0.00003   0.00026
   Se     5.79547   5.80036   6.05694   0.00003  -0.00007  -0.00026
   O      0.00000   1.93345   3.02696  -0.01277   0.01277   0.00000
   O      0.00000   5.80036   9.07997   0.02074  -0.02067  -0.00000
   O      0.00000   5.80036   3.00091   0.01351  -0.01744   0.00000
   O      0.00000   1.93345   9.08087  -0.02298   0.02298  -0.00000
   O      5.80902   0.00866   3.02696  -0.01540   0.01540  -0.00042
   O      1.92979   0.00367   9.08087   0.02242  -0.02242  -0.00000
   O      1.92479   0.00866   3.02696   0.00679  -0.00679   0.00000
   O      5.80403   0.00367   9.08087  -0.02133   0.02133   0.00072
   O      1.92979   3.86324   9.08087  -0.02133   0.02133  -0.00072
   O      1.92479   3.85825   3.02696  -0.01540   0.01540   0.00042
   O      3.86691   1.93345   3.05300   0.01744  -0.01351   0.00000
   O      3.86691   1.93345   9.08178   0.02067  -0.02074  -0.00000
   O      3.86691   5.80036   9.08087  -0.02191   0.02191  -0.00000
   O      5.80403   3.86324   9.08087   0.02242  -0.02242   0.00000
   O      5.80902   3.85825   3.02696   0.00679  -0.00679   0.00000
PRIMCOORD  117
     39   1
   Bi     0.00000   7.72928   4.29046  -0.00000   0.00015  -0.00190
   Bi     0.00000   7.72993   7.81360  -0.00000   0.00001   0.00180
   Bi     1.93734   1.93345  10.34815   0.00001  -0.00000   0.00180
   Bi     1.93800   1.93345   1.76345   0.00015  -0.00000  -0.00190
   Bi     0.00000   3.87145   4.29046  -0.00000  -0.00015  -0.00190
   Bi     0.00000   3.87080   7.81360  -0.00000  -0.00001   0.00180
   Bi     3.86691   7.69346   4.28990   0.00000  -0.00011  -0.00140
   Bi     3.86691   7.73117   7.80447   0.00000  -0.00003   0.00190
   Bi     1.93610   5.80036  10.35727  -0.00003   0.00000   0.00190
   Bi     1.97381   5.80036   1.76402  -0.00011   0.00000  -0.00140
   Bi     5.79647   1.93345  10.34815  -0.00001  -0.00000   0.00180
   Bi     5.79582   1.93345   1.76345  -0.00015  -0.00000  -0.00190
   Bi     3.86691   3.90726   4.28990   0.00000   0.00011  -0.00140
   Bi     3.86691   3.86955   7.80447   0.00000   0.00003   0.00190
   Bi     5.79772   5.80036  10.35727   0.00003   0.00000   0.00190
   Bi     5.76001   5.80036   1.76402   0.00011   0.00000  -0.00140
   Se     0.00000   7.71618   0.02988   0.00000  -0.00067   0.00054
   Se     1.95109   1.93345   6.02403  -0.00067   0.00000   0.00054
   Se     0.00000   3.88454   0.02988   0.00000   0.00067   0.00054
   Se     3.86691   7.72892  12.10481  -0.00000  -0.00033   0.00031
   Se     1.93835   5.80036   6.05694  -0.00033  -0.00000   0.00031
   Se     5.78273   1.93345   6.02403   0.00067   0.00000   0.00054
   Se     3.86691   3.87180  12.10481  -0.00000   0.00033   0.00031
   Se     5.79547   5.80036   6.05694   0.00033  -0.00000   0.00031
   O      0.00000   1.93345   3.02696   0.00000   0.00000   0.02780
   O      0.00000   5.80036   9.07997  -0.00000  -0.00000  -0.02623
   O      0.00000   5.80036   3.00091  -0.00000  -0.00000   0.01945
   O      0.00000   1.93345   9.08087   0.00000   0.00000  -0.02396
   O      5.80902   0.00866   3.02696   0.00228  -0.00228   0.02651
   O      1.92979   0.00367   9.08087   0.00147   0.00147  -0.02613
   O      1.92479   0.00866   3.02696  -0.00228  -0.00228   0.02651
   O      5.80403   0.00367   9.08087  -0.00147   0.00147  -0.02613
   O      1.92979   3.86324   9.08087   0.00147  -0.00147  -0.02613
   O      1.92479   3.85825   3.02696  -0.00228   0.00228   0.02651
   O      3.86691   1.93345   3.05300  -0.00000  -0.00000   0.01945
   O      3.86691   1.93345   9.08178  -0.00000  -0.00000  -0.02623
   O      3.86691   5.80036   9.08087   0.00000   0.00000  -0.02940
   O      5.80403   3.86324   9.08087  -0.00147  -0.00147  -0.02613
   O      5.80902   3.85825   3.02696   0.00228   0.00228   0.02651
