Attaching 20430 to 996781.pbshpc
Attaching 17453 to 996781.pbshpc
Attaching 12781 to 996781.pbshpc

     Program PWSCF v.7.3.1 starts on 25Aug2026 at  1:46:29 

     This program is part of the open-source Quantum ESPRESSO suite
     for quantum simulation of materials; please cite
         "P. Giannozzi et al., J. Phys.:Condens. Matter 21 395502 (2009);
         "P. Giannozzi et al., J. Phys.:Condens. Matter 29 465901 (2017);
         "P. Giannozzi et al., J. Chem. Phys. 152 154105 (2020);
          URL http://www.quantum-espresso.org", 
     in publications or presentations arising from this work. More details at
     http://www.quantum-espresso.org/quote

     Parallel version (MPI & OpenMP), running on      32 processor cores
     Number of MPI processes:                32
     Threads/MPI process:                     1

     MPI processes distributed on     4 nodes
     50371 MiB available memory on the printing compute node when the environment starts
 
     Reading input from scfvo.in

     Current dimensions of program PWSCF are:
     Max number of different atomic species (ntypx) = 10
     Max number of k-points (npk) =  40000
     Max angular momentum in pseudopotentials (lmaxx) =  4

     IMPORTANT: XC functional enforced from input :
     Exchange-correlation= LDA
                           (   1   1   0   0   0   0   0)
     Any further DFT definition will be discarded
     Please, verify this is what you really want

     Message from routine setup:
     using ibrav=0 with symmetry is DISCOURAGED, use correct ibrav instead
 
     R & G space division:  proc/nbgrp/npool/nimage =      32
     Subspace diagonalization in iterative solution of the eigenvalue problem:
     one sub-group per band group will be used
     scalapack distributed-memory algorithm (size of sub-group:  2*  2 procs)

 
     Parallelization info
     --------------------
     sticks:   dense  smooth     PW     G-vecs:    dense   smooth      PW
     Min         254     126     34                27112     9576    1358
     Max         255     127     35                27118     9585    1367
     Sum        8129    4061   1109               867655   306621   43583
 
     Using Slab Decomposition
 


     bravais-lattice index     =            0
     lattice parameter (alat)  =      14.6148  a.u.
     unit-cell volume          =    4887.0957 (a.u.)^3
     number of atoms/cell      =           39
     number of atomic types    =            3
     number of electrons       =       458.00
     number of Kohn-Sham states=          229
     kinetic-energy cutoff     =      60.0000  Ry
     charge density cutoff     =     480.0000  Ry
     scf convergence threshold =      1.0E-10
     mixing beta               =       0.4000
     number of iterations used =            8  plain     mixing
     Exchange-correlation= LDA
                           (   1   1   0   0   0   0   0)

     celldm(1)=  14.614797  celldm(2)=   0.000000  celldm(3)=   0.000000
     celldm(4)=   0.000000  celldm(5)=   0.000000  celldm(6)=   0.000000

     crystal axes: (cart. coord. in units of alat)
               a(1) = (   1.000000   0.000000   0.000000 )  
               a(2) = (   0.000000   1.000000   0.000000 )  
               a(3) = (   0.000000   0.000000   1.565570 )  

     reciprocal axes: (cart. coord. in units 2 pi/alat)
               b(1) = (  1.000000  0.000000  0.000000 )  
               b(2) = (  0.000000  1.000000  0.000000 )  
               b(3) = (  0.000000  0.000000  0.638745 )  


     PseudoPot. # 1 for Bi read from file:
     ./Bi.upf
     MD5 check sum: 6872f064adb6bc5e400c0fc6d475decc
     Pseudo is Norm-conserving + core correction, Zval = 15.0
     Generated using ONCVPSP code by D. R. Hamann
     Using radial grid of 1562 points,  6 beta functions with: 
                l(1) =   0
                l(2) =   0
                l(3) =   1
                l(4) =   1
                l(5) =   2
                l(6) =   2

     PseudoPot. # 2 for O  read from file:
     ./O.upf
     MD5 check sum: a1969bbd51a79f57ce766e937222aee4
     Pseudo is Norm-conserving + core correction, Zval =  6.0
     Generated using ONCVPSP code by D. R. Hamann
     Using radial grid of  936 points,  5 beta functions with: 
                l(1) =   0
                l(2) =   0
                l(3) =   1
                l(4) =   1
                l(5) =   2

     PseudoPot. # 3 for Se read from file:
     ./Se.upf
     MD5 check sum: 666d3fce17080e2232e5bf8193ff52c1
     Pseudo is Norm-conserving + core correction, Zval = 16.0
     Generated using ONCVPSP code by D. R. Hamann
     Using radial grid of 1214 points,  6 beta functions with: 
                l(1) =   0
                l(2) =   0
                l(3) =   1
                l(4) =   1
                l(5) =   2
                l(6) =   2

     atomic species   valence    mass     pseudopotential
     Bi               15.00   208.98040     Bi( 1.00)
     O                 6.00    15.99940     O ( 1.00)
     Se               16.00    78.96000     Se( 1.00)

      8 Sym. Ops. (no inversion) found ( 6 have fractional translation)



   Cartesian axes

     site n.     atom                  positions (alat units)
         1        Bi     tau(   1) = (   0.0000000   0.9994129   0.5547664  )
         2        Bi     tau(   2) = (   0.0000000   0.9994972   1.0103158  )
         3        Bi     tau(   3) = (   0.2505028   0.2500001   1.3380391  )
         4        Bi     tau(   4) = (   0.2505872   0.2500001   0.2280186  )
         5        Bi     tau(   5) = (   0.0000000   0.5005871   0.5547664  )
         6        Bi     tau(   6) = (   0.0000000   0.5005028   1.0103158  )
         7        Bi     tau(   7) = (   0.5000000   0.9947823   0.5546931  )
         8        Bi     tau(   8) = (   0.5000000   0.9996581   1.0091361  )
         9        Bi     tau(   9) = (   0.2503420   0.7500000   1.3392188  )
        10        Bi     tau(  10) = (   0.2552178   0.7500000   0.2280919  )
        11        Bi     tau(  11) = (   0.7494972   0.2500001   1.3380391  )
        12        Bi     tau(  12) = (   0.7494129   0.2500001   0.2280186  )
        13        Bi     tau(  13) = (   0.5000000   0.5052178   0.5546931  )
        14        Bi     tau(  14) = (   0.5000000   0.5003420   1.0091361  )
        15        Bi     tau(  15) = (   0.7496580   0.7500000   1.3392188  )
        16        Bi     tau(  16) = (   0.7447822   0.7500000   0.2280919  )
        17        Se     tau(  17) = (   0.0000000   0.9977200   0.0038639  )
        18        Se     tau(  18) = (   0.2522801   0.2500001   0.7789212  )
        19        Se     tau(  19) = (   0.0000000   0.5022800   0.0038639  )
        20        Se     tau(  20) = (   0.5000000   0.9993673   1.5651794  )
        21        Se     tau(  21) = (   0.2506328   0.7500000   0.7831757  )
        22        Se     tau(  22) = (   0.7477200   0.2500001   0.7789212  )
        23        Se     tau(  23) = (   0.5000000   0.5006327   1.5651794  )
        24        Se     tau(  24) = (   0.7493673   0.7500000   0.7831757  )
        25        O      tau(  25) = (   0.0000000   0.2500001   0.3913925  )
        26        O      tau(  26) = (   0.0000000   0.7500000   1.1740599  )
        27        O      tau(  27) = (   0.0000000   0.7500000   0.3880248  )
        28        O      tau(  28) = (   0.0000000   0.2500001   1.1741775  )
        29        O      tau(  29) = (   0.7511200   0.0011200   0.3913925  )
        30        O      tau(  30) = (   0.2495259   0.0004742   1.1741775  )
        31        O      tau(  31) = (   0.2488801   0.0011200   0.3913925  )
        32        O      tau(  32) = (   0.7504741   0.0004742   1.1741775  )
        33        O      tau(  33) = (   0.2495259   0.4995259   1.1741775  )
        34        O      tau(  34) = (   0.2488801   0.4988800   0.3913925  )
        35        O      tau(  35) = (   0.5000000   0.2500001   0.3947601  )
        36        O      tau(  36) = (   0.5000000   0.2500001   1.1742951  )
        37        O      tau(  37) = (   0.5000000   0.7500000   1.1741775  )
        38        O      tau(  38) = (   0.7504741   0.4995259   1.1741775  )
        39        O      tau(  39) = (   0.7511200   0.4988800   0.3913925  )

     number of k points=    40
                       cart. coord. in units 2pi/alat
        k(    1) = (   0.0000000   0.0000000   0.0000000), wk =   0.0092593
        k(    2) = (   0.0000000   0.0000000   0.1064575), wk =   0.0185185
        k(    3) = (   0.0000000   0.0000000   0.2129150), wk =   0.0185185
        k(    4) = (   0.0000000   0.0000000  -0.3193725), wk =   0.0092593
        k(    5) = (   0.0000000   0.1666667   0.0000000), wk =   0.0370370
        k(    6) = (   0.0000000   0.1666667   0.1064575), wk =   0.0740741
        k(    7) = (   0.0000000   0.1666667   0.2129150), wk =   0.0740741
        k(    8) = (   0.0000000   0.1666667  -0.3193725), wk =   0.0370370
        k(    9) = (   0.0000000   0.3333333   0.0000000), wk =   0.0370370
        k(   10) = (   0.0000000   0.3333333   0.1064575), wk =   0.0740741
        k(   11) = (   0.0000000   0.3333333   0.2129150), wk =   0.0740741
        k(   12) = (   0.0000000   0.3333333  -0.3193725), wk =   0.0370370
        k(   13) = (   0.0000000  -0.5000000   0.0000000), wk =   0.0185185
        k(   14) = (   0.0000000  -0.5000000   0.1064575), wk =   0.0370370
        k(   15) = (   0.0000000  -0.5000000   0.2129150), wk =   0.0370370
        k(   16) = (   0.0000000  -0.5000000  -0.3193725), wk =   0.0185185
        k(   17) = (   0.1666667   0.1666667   0.0000000), wk =   0.0370370
        k(   18) = (   0.1666667   0.1666667   0.1064575), wk =   0.0740741
        k(   19) = (   0.1666667   0.1666667   0.2129150), wk =   0.0740741
        k(   20) = (   0.1666667   0.1666667  -0.3193725), wk =   0.0370370
        k(   21) = (   0.1666667   0.3333333   0.0000000), wk =   0.0740741
        k(   22) = (   0.1666667   0.3333333   0.1064575), wk =   0.1481481
        k(   23) = (   0.1666667   0.3333333   0.2129150), wk =   0.1481481
        k(   24) = (   0.1666667   0.3333333  -0.3193725), wk =   0.0740741
        k(   25) = (   0.1666667  -0.5000000   0.0000000), wk =   0.0370370
        k(   26) = (   0.1666667  -0.5000000   0.1064575), wk =   0.0740741
        k(   27) = (   0.1666667  -0.5000000   0.2129150), wk =   0.0740741
        k(   28) = (   0.1666667  -0.5000000  -0.3193725), wk =   0.0370370
        k(   29) = (   0.3333333   0.3333333   0.0000000), wk =   0.0370370
        k(   30) = (   0.3333333   0.3333333   0.1064575), wk =   0.0740741
        k(   31) = (   0.3333333   0.3333333   0.2129150), wk =   0.0740741
        k(   32) = (   0.3333333   0.3333333  -0.3193725), wk =   0.0370370
        k(   33) = (   0.3333333  -0.5000000   0.0000000), wk =   0.0370370
        k(   34) = (   0.3333333  -0.5000000   0.1064575), wk =   0.0740741
        k(   35) = (   0.3333333  -0.5000000   0.2129150), wk =   0.0740741
        k(   36) = (   0.3333333  -0.5000000  -0.3193725), wk =   0.0370370
        k(   37) = (  -0.5000000  -0.5000000   0.0000000), wk =   0.0092593
        k(   38) = (  -0.5000000  -0.5000000   0.1064575), wk =   0.0185185
        k(   39) = (  -0.5000000  -0.5000000   0.2129150), wk =   0.0185185
        k(   40) = (  -0.5000000  -0.5000000  -0.3193725), wk =   0.0092593

     Dense  grid:   867655 G-vectors     FFT dimensions: ( 108, 108, 160)

     Smooth grid:   306621 G-vectors     FFT dimensions: (  80,  80, 120)

     Estimated max dynamical RAM per process >     226.50 MB

     Estimated total dynamical RAM >       7.08 GB

     Initial potential from superposition of free atoms

     starting charge     457.9836, renormalised to     458.0000
     Starting wfcs are  276 randomized atomic wfcs

     total cpu time spent up to now is       18.5 secs

     Self-consistent Calculation

     iteration #  1     ecut=    60.00 Ry     beta= 0.40
     Davidson diagonalization with overlap
     ethr =  1.00E-02,  avg # of iterations =  2.0

     total cpu time spent up to now is       63.7 secs

     total energy              =   -5040.34286304 Ry
     estimated scf accuracy    <       8.32606526 Ry

     iteration #  2     ecut=    60.00 Ry     beta= 0.40
     Davidson diagonalization with overlap
     ethr =  1.82E-03,  avg # of iterations =  3.8

     total cpu time spent up to now is      121.8 secs

     total energy              =   -5042.48272751 Ry
     estimated scf accuracy    <       3.26910271 Ry

     iteration #  3     ecut=    60.00 Ry     beta= 0.40
     Davidson diagonalization with overlap
     ethr =  7.14E-04,  avg # of iterations =  4.5

     total cpu time spent up to now is      177.7 secs

     total energy              =   -5043.02429171 Ry
     estimated scf accuracy    <       0.15978978 Ry

     iteration #  4     ecut=    60.00 Ry     beta= 0.40
     Davidson diagonalization with overlap
     ethr =  3.49E-05,  avg # of iterations =  4.7

     total cpu time spent up to now is      235.0 secs

     total energy              =   -5043.03157625 Ry
     estimated scf accuracy    <       0.07689542 Ry

     iteration #  5     ecut=    60.00 Ry     beta= 0.40
     Davidson diagonalization with overlap
     ethr =  1.68E-05,  avg # of iterations =  5.3

     total cpu time spent up to now is      292.6 secs

     total energy              =   -5043.03532757 Ry
     estimated scf accuracy    <       0.08687834 Ry

     iteration #  6     ecut=    60.00 Ry     beta= 0.40
     Davidson diagonalization with overlap
     ethr =  1.68E-05,  avg # of iterations =  4.8

     total cpu time spent up to now is      346.2 secs

     total energy              =   -5043.04245841 Ry
     estimated scf accuracy    <       0.03120600 Ry

     iteration #  7     ecut=    60.00 Ry     beta= 0.40
     Davidson diagonalization with overlap
     ethr =  6.81E-06,  avg # of iterations =  2.2

     total cpu time spent up to now is      390.6 secs

     total energy              =   -5043.04077158 Ry
     estimated scf accuracy    <       0.01008643 Ry

     iteration #  8     ecut=    60.00 Ry     beta= 0.40
     Davidson diagonalization with overlap
     ethr =  2.20E-06,  avg # of iterations =  5.4

     total cpu time spent up to now is      449.6 secs

     total energy              =   -5043.04336814 Ry
     estimated scf accuracy    <       0.00137636 Ry

     iteration #  9     ecut=    60.00 Ry     beta= 0.40
     Davidson diagonalization with overlap
     ethr =  3.01E-07,  avg # of iterations =  2.8

     total cpu time spent up to now is      496.2 secs

     total energy              =   -5043.04330739 Ry
     estimated scf accuracy    <       0.00054952 Ry

     iteration # 10     ecut=    60.00 Ry     beta= 0.40
     Davidson diagonalization with overlap
     ethr =  1.20E-07,  avg # of iterations =  5.0

     total cpu time spent up to now is      551.6 secs

     total energy              =   -5043.04338229 Ry
     estimated scf accuracy    <       0.00004483 Ry

     iteration # 11     ecut=    60.00 Ry     beta= 0.40
     Davidson diagonalization with overlap
     ethr =  9.79E-09,  avg # of iterations =  5.2

     total cpu time spent up to now is      613.9 secs

     total energy              =   -5043.04339401 Ry
     estimated scf accuracy    <       0.00003352 Ry

     iteration # 12     ecut=    60.00 Ry     beta= 0.40
     Davidson diagonalization with overlap
     ethr =  7.32E-09,  avg # of iterations =  3.0

     total cpu time spent up to now is      660.9 secs

     total energy              =   -5043.04339558 Ry
     estimated scf accuracy    <       0.00000846 Ry

     iteration # 13     ecut=    60.00 Ry     beta= 0.40
     Davidson diagonalization with overlap
     ethr =  1.85E-09,  avg # of iterations =  5.3

     total cpu time spent up to now is      722.5 secs

     total energy              =   -5043.04339510 Ry
     estimated scf accuracy    <       0.00001688 Ry

     iteration # 14     ecut=    60.00 Ry     beta= 0.40
     Davidson diagonalization with overlap
     ethr =  1.85E-09,  avg # of iterations =  3.5

     total cpu time spent up to now is      773.2 secs

     total energy              =   -5043.04339639 Ry
     estimated scf accuracy    <       0.00000073 Ry

     iteration # 15     ecut=    60.00 Ry     beta= 0.40
     Davidson diagonalization with overlap
     ethr =  1.59E-10,  avg # of iterations =  6.2

     total cpu time spent up to now is      842.0 secs

     total energy              =   -5043.04339659 Ry
     estimated scf accuracy    <       0.00000118 Ry

     iteration # 16     ecut=    60.00 Ry     beta= 0.40
     Davidson diagonalization with overlap
     ethr =  1.59E-10,  avg # of iterations =  3.1

     total cpu time spent up to now is      889.9 secs

     total energy              =   -5043.04339667 Ry
     estimated scf accuracy    <       0.00000008 Ry

     iteration # 17     ecut=    60.00 Ry     beta= 0.40
     Davidson diagonalization with overlap
     ethr =  1.70E-11,  avg # of iterations =  5.8

     total cpu time spent up to now is      952.9 secs

     total energy              =   -5043.04339668 Ry
     estimated scf accuracy    <       0.00000002 Ry

     iteration # 18     ecut=    60.00 Ry     beta= 0.40
     Davidson diagonalization with overlap
     ethr =  4.45E-12,  avg # of iterations =  3.1

     total cpu time spent up to now is      999.4 secs

     total energy              =   -5043.04339669 Ry
     estimated scf accuracy    <          1.6E-09 Ry

     iteration # 19     ecut=    60.00 Ry     beta= 0.40
     Davidson diagonalization with overlap
     ethr =  3.51E-13,  avg # of iterations =  6.0

     total cpu time spent up to now is     1064.3 secs

     total energy              =   -5043.04339669 Ry
     estimated scf accuracy    <          7.8E-10 Ry

     iteration # 20     ecut=    60.00 Ry     beta= 0.40
     Davidson diagonalization with overlap
     ethr =  1.70E-13,  avg # of iterations =  4.5

     total cpu time spent up to now is     1116.7 secs

     End of self-consistent calculation

          k = 0.0000 0.0000 0.0000 ( 38233 PWs)   bands (ev):

   -34.9954 -34.9953 -34.9911 -34.9890 -34.9889 -34.9804 -34.9765 -34.9765
   -34.9764 -34.9713 -34.9711 -34.9683 -34.9683 -34.9665 -34.9665 -34.9650
   -34.9637 -34.9634 -34.9631 -34.9625 -34.9625 -34.9616 -34.9614 -34.9598
   -34.9569 -34.9569 -34.9564 -34.9557 -34.9556 -34.9542 -34.9520 -34.9518
   -34.9518 -34.9470 -34.9462 -34.9461 -34.9455 -34.9439 -34.9428 -34.9327
   -11.5399 -11.5378 -11.5320 -11.5002 -11.4804 -11.4701 -11.4664 -11.4664
   -11.4641 -11.4607 -11.4275 -11.4275 -11.3996 -11.3185 -11.3106 -11.3106
   -11.3023 -11.3021 -11.3018 -11.3018 -11.2917 -11.2856 -11.2855 -11.2842
   -11.2841 -11.2776 -11.2766 -11.2766 -11.2600 -11.2600 -11.2534 -11.2479
   -11.2478 -11.2462 -11.2443 -11.2409 -11.2400 -11.2400 -11.2400 -11.2376
   -11.2352 -11.2309 -11.2309 -11.2309 -11.2272 -11.2266 -11.2266 -11.2263
   -11.2235 -11.2235 -11.2205 -11.2117 -11.2087 -11.2087 -11.2055 -11.2050
   -11.2050 -11.2049 -11.2031 -11.2031 -11.1952 -11.1927 -11.1829 -11.1807
   -11.1801 -11.1801 -11.1742 -11.1703 -11.1703 -11.1668 -11.1642 -11.1641
   -11.1639 -11.1571 -11.1509 -11.1490 -11.1490 -11.1430 -11.1430 -11.1365
    -8.4470  -8.2435  -6.9790  -6.9790  -6.9636  -6.9605  -6.9605  -6.9580
    -6.8627  -6.6599  -6.6116  -6.5857  -6.5824  -5.8758  -5.7461  -1.9703
    -1.4189  -0.5348  -0.5290  -0.5289  -0.5236  -0.1503  -0.1502   0.0791
     0.0791   0.2082   0.2100   0.3670   0.3670   0.5846   0.5938   0.5939
     0.9907   1.2680   1.2870   1.2870   1.5638   2.5490   3.3096   5.4636
     5.4924   5.4924   5.5770   5.6914   5.6914   5.8234   6.0184   6.0585
     6.0799   6.0799   6.1684   6.2249   6.2721   6.2721   6.4576   6.4576
     6.4848   6.8556   6.9015   6.9236   6.9236   6.9283   6.9477   7.0513
     7.0513   7.0749   7.3863   7.3863   7.5745   7.6228   7.6494   7.8109
     7.8109   8.2629   8.4605   8.5155   8.5155   8.5504   8.5800   8.5801
     8.5989   8.9660   9.0676   9.0676   9.1298   9.2367   9.3320   9.3320
     9.7133   9.9224   9.9304   9.9328   9.9328  10.0051  10.0051  10.1780
    10.1781  10.2358  10.4242  10.4242  10.6841  10.6847  10.6848  10.7720
    10.9187  11.0162  11.0165  11.0275  11.0276

          k = 0.0000 0.0000 0.1065 ( 38305 PWs)   bands (ev):

   -34.9932 -34.9931 -34.9911 -34.9885 -34.9884 -34.9839 -34.9795 -34.9795
   -34.9794 -34.9762 -34.9752 -34.9725 -34.9704 -34.9704 -34.9677 -34.9675
   -34.9674 -34.9673 -34.9663 -34.9654 -34.9654 -34.9649 -34.9625 -34.9624
   -34.9599 -34.9598 -34.9598 -34.9597 -34.9585 -34.9585 -34.9581 -34.9566
   -34.9541 -34.9521 -34.9521 -34.9489 -34.9463 -34.9463 -34.9442 -34.9348
   -11.5395 -11.5377 -11.5320 -11.5010 -11.4804 -11.4708 -11.4664 -11.4664
   -11.4637 -11.4609 -11.4276 -11.4276 -11.3997 -11.3176 -11.3103 -11.3103
   -11.3025 -11.3018 -11.3015 -11.3015 -11.2916 -11.2856 -11.2855 -11.2842
   -11.2841 -11.2796 -11.2765 -11.2764 -11.2612 -11.2611 -11.2542 -11.2489
   -11.2489 -11.2468 -11.2431 -11.2411 -11.2407 -11.2407 -11.2401 -11.2400
   -11.2331 -11.2305 -11.2305 -11.2304 -11.2266 -11.2266 -11.2263 -11.2260
   -11.2218 -11.2218 -11.2192 -11.2114 -11.2089 -11.2089 -11.2049 -11.2049
   -11.2049 -11.2048 -11.2025 -11.2025 -11.1960 -11.1927 -11.1829 -11.1812
   -11.1803 -11.1803 -11.1745 -11.1705 -11.1705 -11.1672 -11.1642 -11.1642
   -11.1641 -11.1575 -11.1509 -11.1491 -11.1491 -11.1431 -11.1430 -11.1365
    -8.4469  -8.2436  -6.9783  -6.9783  -6.9636  -6.9613  -6.9613  -6.9579
    -6.8629  -6.6599  -6.6114  -6.5859  -6.5824  -5.8758  -5.7461  -1.9426
    -1.4709  -0.5347  -0.5280  -0.5279  -0.5231  -0.1445  -0.1445   0.0666
     0.0666   0.1875   0.3118   0.3737   0.3737   0.5845   0.5913   0.5914
     0.9886   1.2559   1.2889   1.2889   1.4650   2.6320   3.2818   5.4905
     5.4951   5.4951   5.5984   5.6857   5.6857   5.7872   5.9614   6.0026
     6.0646   6.0646   6.1932   6.2750   6.2751   6.2866   6.4860   6.4860
     6.5011   6.8559   6.9022   6.9230   6.9230   6.9269   6.9461   7.0026
     7.0026   7.0234   7.4089   7.4090   7.5408   7.7020   7.7487   7.8310
     7.8310   8.2631   8.4587   8.5223   8.5223   8.5705   8.5868   8.5868
     8.6333   8.9006   9.0077   9.0673   9.0673   9.1545   9.3318   9.3318
     9.7112   9.9172   9.9218   9.9218   9.9366  10.0282  10.0282  10.1545
    10.1546  10.2658  10.3911  10.3911  10.6735  10.6836  10.6836  10.7706
    10.9432  11.0160  11.0176  11.0278  11.0279

          k = 0.0000 0.0000 0.2129 ( 38296 PWs)   bands (ev):

   -34.9914 -34.9909 -34.9909 -34.9876 -34.9876 -34.9853 -34.9784 -34.9784
   -34.9783 -34.9761 -34.9761 -34.9749 -34.9739 -34.9739 -34.9691 -34.9691
   -34.9676 -34.9668 -34.9658 -34.9653 -34.9652 -34.9651 -34.9618 -34.9618
   -34.9600 -34.9599 -34.9595 -34.9592 -34.9592 -34.9591 -34.9562 -34.9548
   -34.9548 -34.9548 -34.9503 -34.9457 -34.9457 -34.9453 -34.9415 -34.9330
   -11.5383 -11.5372 -11.5320 -11.5026 -11.4804 -11.4720 -11.4662 -11.4662
   -11.4629 -11.4612 -11.4278 -11.4278 -11.3999 -11.3155 -11.3097 -11.3096
   -11.3029 -11.3014 -11.3008 -11.3008 -11.2911 -11.2855 -11.2854 -11.2842
   -11.2841 -11.2831 -11.2763 -11.2763 -11.2632 -11.2632 -11.2555 -11.2509
   -11.2509 -11.2486 -11.2435 -11.2421 -11.2421 -11.2414 -11.2405 -11.2399
   -11.2300 -11.2300 -11.2295 -11.2293 -11.2262 -11.2258 -11.2258 -11.2250
   -11.2192 -11.2192 -11.2162 -11.2108 -11.2091 -11.2091 -11.2047 -11.2047
   -11.2046 -11.2036 -11.2013 -11.2013 -11.1979 -11.1928 -11.1829 -11.1822
   -11.1806 -11.1806 -11.1750 -11.1711 -11.1711 -11.1679 -11.1644 -11.1644
   -11.1643 -11.1581 -11.1510 -11.1493 -11.1493 -11.1431 -11.1431 -11.1366
    -8.4466  -8.2440  -6.9766  -6.9766  -6.9636  -6.9630  -6.9630  -6.9576
    -6.8632  -6.6599  -6.6109  -6.5864  -6.5825  -5.8758  -5.7461  -1.8632
    -1.5951  -0.5347  -0.5261  -0.5260  -0.5221  -0.1313  -0.1312   0.0411
     0.0411   0.1877   0.3860   0.3860   0.4969   0.5866   0.5867   0.6061
     0.9825   1.1370   1.2928   1.2929   1.3376   2.7958   3.2065   5.5008
     5.5008   5.5674   5.6524   5.6745   5.6745   5.7362   5.8322   5.9193
     6.0407   6.0407   6.1557   6.2669   6.2670   6.4317   6.5787   6.5787
     6.5953   6.8568   6.8837   6.8837   6.8916   6.9038   6.9236   6.9236
     6.9252   6.9441   7.4235   7.4510   7.4510   7.8700   7.8700   7.9493
     8.0059   8.2629   8.4505   8.5330   8.5330   8.5978   8.6042   8.6043
     8.6716   8.7093   8.7524   9.0109   9.0672   9.0672   9.3319   9.3319
     9.7106   9.8997   9.8998   9.9029   9.9897  10.0907  10.0907  10.1083
    10.1083  10.2367  10.3061  10.3061  10.6822  10.6822  10.6912  10.7653
    11.0162  11.0191  11.0211  11.0284  11.0284

          k = 0.0000 0.0000-0.3194 ( 38240 PWs)   bands (ev):

   -34.9925 -34.9925 -34.9871 -34.9870 -34.9834 -34.9831 -34.9764 -34.9764
   -34.9757 -34.9745 -34.9728 -34.9726 -34.9726 -34.9726 -34.9698 -34.9698
   -34.9664 -34.9660 -34.9641 -34.9640 -34.9636 -34.9622 -34.9606 -34.9606
   -34.9606 -34.9593 -34.9580 -34.9575 -34.9575 -34.9556 -34.9539 -34.9539
   -34.9522 -34.9456 -34.9455 -34.9411 -34.9398 -34.9398 -34.9363 -34.9329
   -11.5377 -11.5370 -11.5319 -11.5034 -11.4804 -11.4725 -11.4661 -11.4661
   -11.4624 -11.4615 -11.4279 -11.4279 -11.3999 -11.3141 -11.3093 -11.3093
   -11.3034 -11.3013 -11.3004 -11.3004 -11.2908 -11.2854 -11.2853 -11.2848
   -11.2841 -11.2841 -11.2761 -11.2761 -11.2642 -11.2642 -11.2561 -11.2519
   -11.2518 -11.2500 -11.2435 -11.2427 -11.2427 -11.2414 -11.2406 -11.2398
   -11.2297 -11.2297 -11.2286 -11.2265 -11.2261 -11.2257 -11.2252 -11.2252
   -11.2181 -11.2181 -11.2147 -11.2105 -11.2092 -11.2092 -11.2046 -11.2046
   -11.2045 -11.2026 -11.2008 -11.2008 -11.1993 -11.1927 -11.1829 -11.1828
   -11.1808 -11.1808 -11.1752 -11.1713 -11.1713 -11.1683 -11.1645 -11.1645
   -11.1644 -11.1585 -11.1510 -11.1493 -11.1493 -11.1432 -11.1432 -11.1365
    -8.4464  -8.2441  -6.9755  -6.9755  -6.9640  -6.9640  -6.9636  -6.9575
    -6.8633  -6.6599  -6.6107  -6.5867  -6.5826  -5.8759  -5.7461  -1.7602
    -1.7187  -0.5347  -0.5251  -0.5251  -0.5215  -0.1233  -0.1232   0.0274
     0.0274   0.1892   0.3915   0.3915   0.5493   0.5844   0.5844   0.7567
     0.9149   1.0007   1.2948   1.2948   1.3198   2.8965   3.1432   5.5035
     5.5035   5.6683   5.6683   5.6820   5.6871   5.6944   5.7247   5.8695
     6.0305   6.0305   6.1235   6.2594   6.2594   6.5323   6.6797   6.6797
     6.6912   6.7644   6.7745   6.7746   6.8574   6.9049   6.9234   6.9234
     6.9246   6.9435   7.3554   7.4707   7.4707   7.8899   7.8899   8.1888
     8.2621   8.3438   8.3534   8.3582   8.5195   8.5390   8.5390   8.6150
     8.6150   8.6410   8.8264   8.9068   9.0674   9.0674   9.3318   9.3318
     9.7122   9.8884   9.8885   9.8917  10.0724  10.0796  10.0797  10.1499
    10.1697  10.1697  10.2209  10.2210  10.6821  10.6821  10.7143  10.7596
    11.0163  11.0197  11.0286  11.0287  11.0834

          k = 0.0000 0.1667 0.0000 ( 38340 PWs)   bands (ev):

   -34.9917 -34.9915 -34.9891 -34.9872 -34.9868 -34.9851 -34.9812 -34.9792
   -34.9778 -34.9770 -34.9746 -34.9738 -34.9730 -34.9718 -34.9714 -34.9698
   -34.9686 -34.9683 -34.9682 -34.9677 -34.9664 -34.9662 -34.9657 -34.9642
   -34.9627 -34.9620 -34.9611 -34.9606 -34.9593 -34.9586 -34.9576 -34.9568
   -34.9558 -34.9558 -34.9552 -34.9521 -34.9487 -34.9482 -34.9467 -34.9409
   -11.5351 -11.5333 -11.5298 -11.4955 -11.4893 -11.4789 -11.4712 -11.4694
   -11.4660 -11.4349 -11.4321 -11.4276 -11.3861 -11.3187 -11.3100 -11.3098
   -11.3040 -11.2998 -11.2993 -11.2979 -11.2908 -11.2898 -11.2826 -11.2819
   -11.2790 -11.2769 -11.2763 -11.2751 -11.2600 -11.2594 -11.2541 -11.2526
   -11.2480 -11.2471 -11.2441 -11.2428 -11.2419 -11.2396 -11.2393 -11.2374
   -11.2374 -11.2362 -11.2353 -11.2304 -11.2280 -11.2270 -11.2262 -11.2228
   -11.2224 -11.2206 -11.2193 -11.2125 -11.2102 -11.2095 -11.2088 -11.2077
   -11.2052 -11.2043 -11.2033 -11.2030 -11.1949 -11.1935 -11.1876 -11.1851
   -11.1808 -11.1787 -11.1772 -11.1741 -11.1688 -11.1678 -11.1669 -11.1647
   -11.1646 -11.1583 -11.1517 -11.1509 -11.1486 -11.1464 -11.1446 -11.1372
    -8.3936  -8.1997  -7.3326  -7.2162  -6.9564  -6.9375  -6.9375  -6.7392
    -6.6382  -6.6132  -6.6118  -6.6059  -6.5605  -5.8985  -5.7780  -1.9174
    -1.3774  -0.7774  -0.6075  -0.5025  -0.5023  -0.1645  -0.1590   0.0817
     0.1034   0.2186   0.2524   0.4192   0.4713   0.5496   0.5785   0.8109
     0.9685   1.1103   1.2356   1.4592   1.6135   2.5270   3.1719   5.3956
     5.4838   5.5062   5.5378   5.5726   5.7105   5.7782   5.9122   5.9288
     5.9358   5.9480   6.0676   6.0786   6.2821   6.3759   6.3839   6.5375
     6.5405   6.6736   6.7751   7.0035   7.0262   7.1582   7.1607   7.2281
     7.3103   7.3243   7.4618   7.5454   7.6674   7.7732   7.8015   7.8536
     7.9525   8.0597   8.3206   8.4075   8.4658   8.5237   8.5514   8.5524
     8.7182   8.9768   9.0085   9.0334   9.1648   9.2328   9.2415   9.2565
     9.6640   9.7451   9.8921   9.9192   9.9880  10.0212  10.0221  10.0272
    10.0618  10.3248  10.4076  10.4280  10.5133  10.5540  10.5664  10.7131
    10.7606  10.7766  10.8941  11.0005  11.0964

          k = 0.0000 0.1667 0.1065 ( 38331 PWs)   bands (ev):

   -34.9929 -34.9929 -34.9895 -34.9876 -34.9873 -34.9862 -34.9827 -34.9799
   -34.9771 -34.9741 -34.9739 -34.9727 -34.9722 -34.9710 -34.9707 -34.9702
   -34.9698 -34.9688 -34.9681 -34.9681 -34.9677 -34.9664 -34.9662 -34.9639
   -34.9622 -34.9617 -34.9617 -34.9602 -34.9601 -34.9594 -34.9568 -34.9552
   -34.9544 -34.9533 -34.9523 -34.9495 -34.9478 -34.9475 -34.9452 -34.9406
   -11.5346 -11.5331 -11.5298 -11.4962 -11.4892 -11.4789 -11.4711 -11.4698
   -11.4661 -11.4355 -11.4323 -11.4269 -11.3864 -11.3179 -11.3096 -11.3095
   -11.3037 -11.2995 -11.2992 -11.2979 -11.2906 -11.2897 -11.2825 -11.2819
   -11.2790 -11.2787 -11.2762 -11.2751 -11.2610 -11.2605 -11.2549 -11.2529
   -11.2484 -11.2478 -11.2453 -11.2432 -11.2417 -11.2398 -11.2397 -11.2378
   -11.2375 -11.2358 -11.2329 -11.2301 -11.2267 -11.2262 -11.2259 -11.2224
   -11.2216 -11.2195 -11.2184 -11.2122 -11.2102 -11.2098 -11.2087 -11.2075
   -11.2052 -11.2042 -11.2026 -11.2025 -11.1955 -11.1936 -11.1877 -11.1852
   -11.1812 -11.1788 -11.1774 -11.1743 -11.1690 -11.1681 -11.1670 -11.1648
   -11.1647 -11.1586 -11.1517 -11.1509 -11.1486 -11.1465 -11.1447 -11.1372
    -8.3935  -8.1999  -7.3324  -7.2163  -6.9557  -6.9383  -6.9374  -6.7393
    -6.6379  -6.6134  -6.6116  -6.6059  -6.5606  -5.8985  -5.7779  -1.8902
    -1.4280  -0.7663  -0.6191  -0.5022  -0.5016  -0.1608  -0.1559   0.0703
     0.0960   0.2262   0.3265   0.4231   0.4748   0.5547   0.5771   0.7642
     0.9885   1.1487   1.2370   1.3748   1.5861   2.5915   3.1474   5.4101
     5.4940   5.5063   5.5405   5.5707   5.6950   5.7752   5.8345   5.8679
     5.8952   5.9989   6.0875   6.1529   6.2373   6.4233   6.4449   6.5382
     6.5886   6.6988   6.7741   6.9376   6.9717   7.0967   7.2065   7.2395
     7.3106   7.3231   7.4444   7.5267   7.6128   7.8204   7.8287   7.9281
     8.0215   8.0595   8.3338   8.4328   8.4691   8.5360   8.5546   8.5583
     8.7086   8.9063   8.9582   9.0123   9.0766   9.1397   9.2590   9.2604
     9.6495   9.8197   9.8894   9.9236   9.9813  10.0270  10.0469  10.0595
    10.0828  10.2770  10.4045  10.4083  10.5111  10.5640  10.5751  10.7057
    10.7532  10.7736  10.9013  10.9937  11.1323

          k = 0.0000 0.1667 0.2129 ( 38347 PWs)   bands (ev):

   -34.9926 -34.9924 -34.9894 -34.9892 -34.9876 -34.9857 -34.9829 -34.9811
   -34.9772 -34.9771 -34.9753 -34.9752 -34.9738 -34.9726 -34.9716 -34.9711
   -34.9707 -34.9699 -34.9692 -34.9679 -34.9679 -34.9670 -34.9662 -34.9656
   -34.9641 -34.9631 -34.9616 -34.9605 -34.9604 -34.9592 -34.9588 -34.9578
   -34.9559 -34.9550 -34.9529 -34.9504 -34.9481 -34.9458 -34.9427 -34.9362
   -11.5335 -11.5327 -11.5297 -11.4978 -11.4890 -11.4790 -11.4708 -11.4707
   -11.4661 -11.4365 -11.4327 -11.4256 -11.3870 -11.3160 -11.3089 -11.3086
   -11.3032 -11.2993 -11.2990 -11.2979 -11.2904 -11.2895 -11.2824 -11.2822
   -11.2814 -11.2789 -11.2760 -11.2751 -11.2631 -11.2624 -11.2559 -11.2538
   -11.2505 -11.2495 -11.2474 -11.2441 -11.2418 -11.2403 -11.2396 -11.2380
   -11.2372 -11.2348 -11.2293 -11.2289 -11.2258 -11.2255 -11.2238 -11.2216
   -11.2208 -11.2175 -11.2162 -11.2117 -11.2103 -11.2102 -11.2084 -11.2072
   -11.2050 -11.2036 -11.2019 -11.2015 -11.1970 -11.1937 -11.1878 -11.1853
   -11.1821 -11.1792 -11.1777 -11.1748 -11.1694 -11.1688 -11.1671 -11.1651
   -11.1650 -11.1593 -11.1517 -11.1511 -11.1487 -11.1466 -11.1448 -11.1373
    -8.3932  -8.2002  -7.3321  -7.2167  -6.9541  -6.9399  -6.9373  -6.7393
    -6.6374  -6.6140  -6.6115  -6.6059  -6.5609  -5.8985  -5.7780  -1.8121
    -1.5491  -0.7367  -0.6495  -0.5020  -0.5000  -0.1527  -0.1492   0.0498
     0.0811   0.2356   0.4303   0.4621   0.5260   0.5745   0.5773   0.7010
     0.9918   1.1233   1.2396   1.2983   1.5156   2.7239   3.0819   5.4460
     5.5037   5.5168   5.5463   5.5657   5.6660   5.7577   5.7655   5.7915
     5.8689   5.9302   6.0919   6.2895   6.3146   6.4776   6.5215   6.5388
     6.6645   6.7587   6.7609   6.7994   6.8992   6.9863   7.2257   7.2550
     7.3116   7.3201   7.4340   7.5227   7.5463   7.8670   7.8676   8.0568
     8.1005   8.1909   8.3434   8.4762   8.5177   8.5434   8.5606   8.6012
     8.6627   8.7228   8.7382   8.9143   9.0367   9.0449   9.2636   9.2675
     9.6458   9.8791   9.8952   9.9380   9.9831  10.0760  10.0816  10.1060
    10.1363  10.1796  10.3374  10.3613  10.5216  10.5890  10.5963  10.6833
    10.7364  10.7661  10.9206  10.9750  11.2203

          k = 0.0000 0.1667-0.3194 ( 38346 PWs)   bands (ev):

   -34.9911 -34.9905 -34.9896 -34.9893 -34.9882 -34.9850 -34.9840 -34.9807
   -34.9776 -34.9767 -34.9758 -34.9747 -34.9733 -34.9728 -34.9715 -34.9712
   -34.9709 -34.9692 -34.9690 -34.9685 -34.9684 -34.9664 -34.9660 -34.9653
   -34.9652 -34.9634 -34.9626 -34.9614 -34.9603 -34.9591 -34.9586 -34.9576
   -34.9567 -34.9550 -34.9522 -34.9495 -34.9470 -34.9455 -34.9445 -34.9387
   -11.5329 -11.5325 -11.5297 -11.4986 -11.4889 -11.4790 -11.4712 -11.4707
   -11.4661 -11.4369 -11.4329 -11.4250 -11.3874 -11.3149 -11.3086 -11.3080
   -11.3033 -11.2994 -11.2987 -11.2979 -11.2903 -11.2894 -11.2836 -11.2821
   -11.2815 -11.2789 -11.2759 -11.2751 -11.2640 -11.2634 -11.2563 -11.2539
   -11.2525 -11.2503 -11.2478 -11.2446 -11.2423 -11.2405 -11.2391 -11.2382
   -11.2369 -11.2343 -11.2289 -11.2264 -11.2254 -11.2253 -11.2232 -11.2212
   -11.2206 -11.2165 -11.2151 -11.2115 -11.2105 -11.2102 -11.2083 -11.2070
   -11.2049 -11.2031 -11.2017 -11.2011 -11.1979 -11.1938 -11.1878 -11.1854
   -11.1825 -11.1793 -11.1779 -11.1751 -11.1697 -11.1691 -11.1672 -11.1652
   -11.1651 -11.1596 -11.1518 -11.1512 -11.1488 -11.1466 -11.1448 -11.1373
    -8.3930  -8.2004  -7.3320  -7.2168  -6.9531  -6.9408  -6.9373  -6.7394
    -6.6371  -6.6143  -6.6114  -6.6059  -6.5610  -5.8985  -5.7780  -1.7116
    -1.6694  -0.7067  -0.6798  -0.5020  -0.4991  -0.1481  -0.1456   0.0398
     0.0737   0.2396   0.4337   0.4719   0.5686   0.5732   0.6477   0.7474
     0.9015   1.0316   1.2409   1.3831   1.4351   2.8063   3.0283   5.4713
     5.5013   5.5294   5.5494   5.5637   5.6519   5.7135   5.7501   5.7792
     5.8605   5.8988   6.0721   6.3778   6.3900   6.4979   6.5386   6.5545
     6.6861   6.7014   6.7794   6.7933   6.8302   6.9502   7.2027   7.2726
     7.3115   7.3176   7.4342   7.5223   7.5314   7.8865   7.8891   8.0568
     8.2276   8.3443   8.3591   8.4794   8.5090   8.5196   8.5422   8.5674
     8.6129   8.6340   8.7324   8.7754   9.0242   9.0415   9.2651   9.2689
     9.6476   9.8731   9.9007   9.9259  10.0569  10.0881  10.0886  10.0911
    10.1879  10.2040  10.2606  10.2919  10.5312  10.5989  10.6254  10.6576
    10.7264  10.7615  10.9415  10.9543  11.2750

          k = 0.0000 0.3333 0.0000 ( 38336 PWs)   bands (ev):

   -34.9902 -34.9900 -34.9873 -34.9857 -34.9853 -34.9835 -34.9834 -34.9824
   -34.9781 -34.9766 -34.9756 -34.9742 -34.9739 -34.9730 -34.9723 -34.9706
   -34.9703 -34.9699 -34.9680 -34.9674 -34.9673 -34.9646 -34.9640 -34.9639
   -34.9619 -34.9614 -34.9608 -34.9597 -34.9592 -34.9579 -34.9578 -34.9576
   -34.9561 -34.9551 -34.9539 -34.9526 -34.9513 -34.9479 -34.9463 -34.9395
   -11.5250 -11.5218 -11.5206 -11.5043 -11.4844 -11.4824 -11.4811 -11.4760
   -11.4636 -11.4450 -11.4402 -11.3852 -11.3597 -11.3186 -11.3127 -11.3080
   -11.3011 -11.2967 -11.2952 -11.2949 -11.2903 -11.2879 -11.2796 -11.2787
   -11.2763 -11.2745 -11.2726 -11.2680 -11.2676 -11.2647 -11.2604 -11.2583
   -11.2564 -11.2482 -11.2472 -11.2455 -11.2451 -11.2447 -11.2420 -11.2407
   -11.2387 -11.2333 -11.2311 -11.2269 -11.2267 -11.2249 -11.2224 -11.2204
   -11.2201 -11.2188 -11.2178 -11.2159 -11.2158 -11.2129 -11.2128 -11.2089
   -11.2054 -11.2041 -11.2033 -11.2012 -11.1962 -11.1956 -11.1951 -11.1943
   -11.1858 -11.1811 -11.1781 -11.1777 -11.1753 -11.1703 -11.1679 -11.1665
   -11.1644 -11.1622 -11.1550 -11.1528 -11.1521 -11.1487 -11.1457 -11.1389
    -8.2388  -8.0808  -7.6859  -7.4972  -6.8935  -6.8735  -6.8727  -6.7148
    -6.7089  -6.6862  -6.6834  -6.3562  -6.2949  -5.9611  -5.8766  -1.7600
    -1.2585  -1.1593  -0.8267  -0.4303  -0.4286  -0.2257  -0.2190   0.0935
     0.1989   0.2674   0.3403   0.4595   0.5370   0.6165   0.6257   0.8034
     0.9279   1.0946   1.2742   1.5492   1.8949   2.4649   2.7905   5.3024
     5.3504   5.4144   5.5284   5.5464   5.5519   5.6778   5.7131   5.7350
     5.7853   5.8934   5.9192   6.0266   6.1926   6.2235   6.4919   6.6296
     6.6459   6.8854   6.9434   6.9887   7.0922   7.2477   7.5105   7.5790
     7.6774   7.6974   7.7270   7.8113   7.8207   7.8771   7.9071   8.0216
     8.0266   8.1893   8.2433   8.2949   8.3304   8.3467   8.4404   8.4797
     8.6959   8.7828   8.7945   9.0326   9.1168   9.2019   9.2911   9.3275
     9.6547   9.7401   9.7693   9.8813   9.8976   9.9672  10.0168  10.0310
    10.0590  10.1622  10.1949  10.2029  10.2188  10.2524  10.3530  10.3913
    10.5570  10.6186  10.6592  10.8699  11.5125

          k = 0.0000 0.3333 0.1065 ( 38328 PWs)   bands (ev):

   -34.9898 -34.9891 -34.9863 -34.9854 -34.9847 -34.9838 -34.9836 -34.9831
   -34.9767 -34.9762 -34.9744 -34.9743 -34.9726 -34.9720 -34.9717 -34.9712
   -34.9706 -34.9692 -34.9677 -34.9676 -34.9663 -34.9655 -34.9654 -34.9644
   -34.9629 -34.9619 -34.9615 -34.9597 -34.9596 -34.9583 -34.9573 -34.9562
   -34.9553 -34.9551 -34.9524 -34.9522 -34.9511 -34.9465 -34.9459 -34.9390
   -11.5250 -11.5213 -11.5203 -11.5042 -11.4841 -11.4830 -11.4810 -11.4761
   -11.4639 -11.4453 -11.4404 -11.3847 -11.3603 -11.3179 -11.3120 -11.3077
   -11.3014 -11.2965 -11.2950 -11.2947 -11.2905 -11.2879 -11.2795 -11.2784
   -11.2765 -11.2748 -11.2725 -11.2685 -11.2681 -11.2656 -11.2613 -11.2592
   -11.2550 -11.2506 -11.2476 -11.2462 -11.2443 -11.2441 -11.2414 -11.2413
   -11.2380 -11.2327 -11.2308 -11.2268 -11.2261 -11.2241 -11.2221 -11.2205
   -11.2198 -11.2179 -11.2175 -11.2159 -11.2155 -11.2129 -11.2125 -11.2086
   -11.2056 -11.2041 -11.2029 -11.2015 -11.1962 -11.1961 -11.1946 -11.1937
   -11.1860 -11.1814 -11.1782 -11.1780 -11.1753 -11.1706 -11.1682 -11.1666
   -11.1646 -11.1624 -11.1552 -11.1528 -11.1522 -11.1487 -11.1457 -11.1390
    -8.2386  -8.0810  -7.6857  -7.4973  -6.8929  -6.8741  -6.8726  -6.7148
    -6.7085  -6.6866  -6.6835  -6.3561  -6.2950  -5.9611  -5.8766  -1.7342
    -1.3044  -1.1399  -0.8539  -0.4305  -0.4281  -0.2251  -0.2187   0.0881
     0.1976   0.2919   0.3854   0.4591   0.5426   0.6206   0.6265   0.8031
     0.9247   1.0947   1.2142   1.5716   1.8782   2.4870   2.7766   5.2887
     5.3393   5.4147   5.4920   5.5188   5.5425   5.6788   5.7304   5.7714
     5.8069   5.8773   5.9414   6.0712   6.1926   6.1958   6.5109   6.6752
     6.6793   6.9023   6.9061   6.9914   7.0882   7.2308   7.4940   7.5964
     7.6612   7.6983   7.7257   7.7795   7.7922   7.8554   7.8993   8.0150
     8.0384   8.2175   8.2898   8.3021   8.3306   8.3632   8.4674   8.4751
     8.6863   8.7566   8.7731   8.9860   9.1118   9.1436   9.2432   9.2548
     9.6067   9.7861   9.8133   9.9233   9.9387   9.9708  10.0576  10.0626
    10.0759  10.1746  10.1755  10.2261  10.2326  10.2526  10.3520  10.4361
    10.5297  10.6149  10.6727  10.8554  11.5151

          k = 0.0000 0.3333 0.2129 ( 38325 PWs)   bands (ev):

   -34.9894 -34.9889 -34.9865 -34.9854 -34.9845 -34.9840 -34.9830 -34.9823
   -34.9758 -34.9748 -34.9741 -34.9735 -34.9726 -34.9722 -34.9711 -34.9710
   -34.9697 -34.9693 -34.9678 -34.9676 -34.9666 -34.9660 -34.9652 -34.9637
   -34.9633 -34.9624 -34.9616 -34.9602 -34.9593 -34.9578 -34.9565 -34.9564
   -34.9552 -34.9546 -34.9537 -34.9525 -34.9496 -34.9474 -34.9458 -34.9394
   -11.5249 -11.5203 -11.5199 -11.5041 -11.4845 -11.4835 -11.4806 -11.4765
   -11.4645 -11.4461 -11.4410 -11.3836 -11.3618 -11.3165 -11.3103 -11.3072
   -11.3021 -11.2962 -11.2947 -11.2943 -11.2913 -11.2878 -11.2794 -11.2780
   -11.2778 -11.2743 -11.2724 -11.2698 -11.2692 -11.2666 -11.2614 -11.2607
   -11.2569 -11.2511 -11.2476 -11.2467 -11.2449 -11.2437 -11.2421 -11.2417
   -11.2361 -11.2312 -11.2302 -11.2270 -11.2246 -11.2222 -11.2219 -11.2204
   -11.2183 -11.2174 -11.2167 -11.2155 -11.2149 -11.2131 -11.2120 -11.2081
   -11.2056 -11.2041 -11.2025 -11.2021 -11.1966 -11.1962 -11.1942 -11.1926
   -11.1865 -11.1818 -11.1787 -11.1785 -11.1754 -11.1712 -11.1686 -11.1669
   -11.1648 -11.1628 -11.1554 -11.1529 -11.1524 -11.1488 -11.1459 -11.1390
    -8.2383  -8.0814  -7.6855  -7.4976  -6.8916  -6.8754  -6.8726  -6.7147
    -6.7077  -6.6874  -6.6837  -6.3561  -6.2950  -5.9611  -5.8766  -1.6607
    -1.4148  -1.0876  -0.9220  -0.4308  -0.4271  -0.2239  -0.2181   0.0797
     0.1952   0.3064   0.4584   0.5189   0.5736   0.6282   0.6305   0.8012
     0.9060   1.0751   1.0950   1.6306   1.8278   2.5384   2.7411   5.2622
     5.3167   5.3904   5.4262   5.5202   5.5732   5.6827   5.7192   5.7720
     5.8434   5.8446   6.0282   6.1238   6.1933   6.2028   6.5316   6.7542
     6.7771   6.8162   6.8964   7.0032   7.1021   7.2159   7.4514   7.6134
     7.6313   7.6798   7.6995   7.7273   7.7743   7.8377   7.8849   8.0048
     8.0555   8.2640   8.3072   8.3213   8.3844   8.4017   8.4674   8.5130
     8.6733   8.7084   8.7310   8.8410   9.0513   9.0965   9.1804   9.2025
     9.5529   9.7580   9.8514  10.0016  10.0178  10.0412  10.0710  10.1208
    10.1228  10.1709  10.1960  10.2129  10.2849  10.3075  10.3833  10.4587
    10.4855  10.6000  10.7098  10.8165  11.5234

          k = 0.0000 0.3333-0.3194 ( 38304 PWs)   bands (ev):

   -34.9898 -34.9897 -34.9866 -34.9852 -34.9836 -34.9836 -34.9821 -34.9815
   -34.9754 -34.9744 -34.9726 -34.9712 -34.9709 -34.9706 -34.9703 -34.9689
   -34.9685 -34.9674 -34.9669 -34.9665 -34.9657 -34.9652 -34.9643 -34.9637
   -34.9618 -34.9609 -34.9602 -34.9595 -34.9582 -34.9567 -34.9558 -34.9557
   -34.9552 -34.9541 -34.9537 -34.9509 -34.9493 -34.9492 -34.9447 -34.9398
   -11.5248 -11.5197 -11.5196 -11.5040 -11.4853 -11.4832 -11.4804 -11.4767
   -11.4648 -11.4465 -11.4412 -11.3830 -11.3626 -11.3157 -11.3095 -11.3069
   -11.3024 -11.2960 -11.2945 -11.2940 -11.2919 -11.2877 -11.2795 -11.2787
   -11.2776 -11.2737 -11.2723 -11.2706 -11.2698 -11.2668 -11.2613 -11.2607
   -11.2592 -11.2506 -11.2480 -11.2467 -11.2452 -11.2437 -11.2421 -11.2420
   -11.2355 -11.2304 -11.2299 -11.2271 -11.2240 -11.2218 -11.2210 -11.2203
   -11.2176 -11.2174 -11.2162 -11.2151 -11.2148 -11.2132 -11.2117 -11.2079
   -11.2055 -11.2044 -11.2023 -11.2023 -11.1968 -11.1961 -11.1941 -11.1920
   -11.1868 -11.1821 -11.1792 -11.1787 -11.1754 -11.1715 -11.1688 -11.1670
   -11.1650 -11.1631 -11.1556 -11.1529 -11.1524 -11.1488 -11.1459 -11.1390
    -8.2381  -8.0816  -7.6854  -7.4977  -6.8908  -6.8762  -6.8725  -6.7146
    -6.7073  -6.6878  -6.6838  -6.3561  -6.2951  -5.9611  -5.8766  -1.5685
    -1.5241  -1.0266  -0.9905  -0.4310  -0.4266  -0.2232  -0.2178   0.0761
     0.1939   0.3098   0.4580   0.5427   0.6291   0.6308   0.7146   0.7816
     0.8460   0.9996   1.0952   1.6815   1.7802   2.5719   2.7153   5.2495
     5.3055   5.3726   5.4020   5.5338   5.6106   5.6835   5.6854   5.7712
     5.8268   5.8502   6.0861   6.1144   6.1931   6.2554   6.5367   6.7541
     6.8164   6.8186   6.8787   7.0043   7.1158   7.2277   7.4233   7.5827
     7.6252   7.6522   7.7004   7.7295   7.7718   7.8300   7.8773   8.0000
     8.0607   8.2777   8.3088   8.3288   8.4057   8.4363   8.4613   8.5546
     8.6862   8.6924   8.7002   8.7294   9.0058   9.0889   9.1622   9.1968
     9.5309   9.7415   9.8575  10.0075  10.0657  10.0728  10.1043  10.1288
    10.1431  10.1495  10.2039  10.2343  10.3592  10.3609  10.3740  10.3773
    10.5153  10.5827  10.7523  10.7731  11.5293

          k = 0.0000-0.5000 0.0000 ( 38340 PWs)   bands (ev):

   -34.9931 -34.9907 -34.9893 -34.9844 -34.9842 -34.9841 -34.9833 -34.9829
   -34.9761 -34.9754 -34.9750 -34.9741 -34.9740 -34.9740 -34.9731 -34.9720
   -34.9717 -34.9696 -34.9669 -34.9669 -34.9665 -34.9655 -34.9654 -34.9652
   -34.9636 -34.9620 -34.9603 -34.9590 -34.9582 -34.9581 -34.9579 -34.9578
   -34.9569 -34.9564 -34.9558 -34.9532 -34.9524 -34.9449 -34.9447 -34.9372
   -11.5196 -11.5152 -11.5063 -11.5052 -11.4998 -11.4929 -11.4760 -11.4680
   -11.4596 -11.4593 -11.4441 -11.3488 -11.3336 -11.3327 -11.3180 -11.3147
   -11.3070 -11.2970 -11.2922 -11.2904 -11.2880 -11.2834 -11.2817 -11.2797
   -11.2795 -11.2787 -11.2777 -11.2592 -11.2592 -11.2586 -11.2586 -11.2583
   -11.2576 -11.2559 -11.2556 -11.2527 -11.2518 -11.2477 -11.2453 -11.2396
   -11.2325 -11.2317 -11.2291 -11.2261 -11.2243 -11.2239 -11.2228 -11.2194
   -11.2194 -11.2173 -11.2169 -11.2153 -11.2136 -11.2122 -11.2114 -11.2111
   -11.2101 -11.2055 -11.2053 -11.2042 -11.1996 -11.1989 -11.1969 -11.1932
   -11.1889 -11.1849 -11.1779 -11.1775 -11.1759 -11.1718 -11.1697 -11.1692
   -11.1675 -11.1634 -11.1550 -11.1550 -11.1534 -11.1491 -11.1452 -11.1400
    -8.0099  -7.9852  -7.9737  -7.6577  -6.8164  -6.7908  -6.7876  -6.7865
    -6.7758  -6.7748  -6.7093  -6.2477  -6.0489  -6.0480  -6.0154  -1.5116
    -1.4938  -1.1145  -1.0121  -0.3404  -0.3352  -0.3145  -0.3118   0.0971
     0.3045   0.3311   0.3840   0.4006   0.4536   0.6490   0.7585   0.8490
     0.9589   1.0090   1.0650   1.8892   2.2527   2.2786   2.4170   5.3118
     5.3124   5.3576   5.3669   5.3920   5.5238   5.6981   5.7099   5.7513
     5.7676   5.8651   5.9149   5.9501   6.0191   6.2200   6.4582   6.7730
     6.8057   6.8333   6.9272   7.3110   7.3467   7.3768   7.5170   7.5607
     7.5785   7.7076   7.7766   7.9133   7.9367   8.0225   8.0418   8.0883
     8.0963   8.1389   8.2503   8.3020   8.3381   8.3394   8.4449   8.4517
     8.5111   8.5661   8.7889   9.1865   9.3481   9.4556   9.4817   9.4894
     9.5475   9.5568   9.5619   9.6060   9.7476   9.7477   9.8266   9.8691
     9.8948   9.9974  10.1377  10.1628  10.2845  10.3196  10.3699  10.3828
    10.4289  10.4993  10.6656  10.7370  11.7073

          k = 0.0000-0.5000 0.1065 ( 38320 PWs)   bands (ev):

   -34.9911 -34.9890 -34.9872 -34.9847 -34.9840 -34.9834 -34.9833 -34.9823
   -34.9738 -34.9735 -34.9735 -34.9724 -34.9719 -34.9718 -34.9713 -34.9713
   -34.9709 -34.9686 -34.9678 -34.9676 -34.9661 -34.9653 -34.9644 -34.9640
   -34.9636 -34.9613 -34.9603 -34.9600 -34.9584 -34.9577 -34.9575 -34.9565
   -34.9553 -34.9545 -34.9544 -34.9537 -34.9527 -34.9456 -34.9445 -34.9377
   -11.5195 -11.5151 -11.5059 -11.5050 -11.4994 -11.4928 -11.4762 -11.4686
   -11.4598 -11.4598 -11.4444 -11.3485 -11.3345 -11.3326 -11.3175 -11.3137
   -11.3067 -11.2968 -11.2920 -11.2911 -11.2882 -11.2842 -11.2812 -11.2799
   -11.2787 -11.2784 -11.2772 -11.2623 -11.2615 -11.2603 -11.2589 -11.2584
   -11.2568 -11.2563 -11.2545 -11.2534 -11.2494 -11.2454 -11.2453 -11.2402
   -11.2330 -11.2319 -11.2289 -11.2259 -11.2243 -11.2242 -11.2220 -11.2191
   -11.2190 -11.2171 -11.2165 -11.2149 -11.2138 -11.2118 -11.2115 -11.2106
   -11.2094 -11.2056 -11.2055 -11.2045 -11.1995 -11.1982 -11.1968 -11.1936
   -11.1889 -11.1848 -11.1780 -11.1777 -11.1764 -11.1720 -11.1698 -11.1694
   -11.1676 -11.1635 -11.1552 -11.1551 -11.1534 -11.1491 -11.1452 -11.1400
    -8.0090  -7.9851  -7.9746  -7.6578  -6.8160  -6.7901  -6.7880  -6.7864
    -6.7764  -6.7747  -6.7094  -6.2477  -6.0489  -6.0480  -6.0154  -1.4908
    -1.4688  -1.1465  -1.0563  -0.3411  -0.3351  -0.3145  -0.3117   0.0952
     0.3048   0.3425   0.3842   0.4403   0.4890   0.6533   0.7583   0.8413
     0.9587   0.9884   1.0396   1.8891   2.2548   2.2776   2.4082   5.2764
     5.2887   5.3209   5.3428   5.4105   5.5329   5.7346   5.7468   5.7582
     5.7907   5.8705   5.9154   5.9453   6.0482   6.2128   6.4573   6.7851
     6.8168   6.8463   6.9336   7.3353   7.3526   7.3792   7.5170   7.5574
     7.5766   7.7024   7.7463   7.8642   7.8908   8.0254   8.0424   8.0692
     8.0856   8.1449   8.2466   8.3050   8.3316   8.3578   8.4499   8.4798
     8.5237   8.5804   8.7649   9.0908   9.3071   9.4230   9.4446   9.4470
     9.4766   9.5338   9.5391   9.5693   9.7987   9.8463   9.9213   9.9634
     9.9658  10.0408  10.1542  10.1743  10.3059  10.3241  10.3868  10.3886
    10.4476  10.4998  10.6453  10.7143  11.6804

          k = 0.0000-0.5000 0.2129 ( 38308 PWs)   bands (ev):

   -34.9884 -34.9870 -34.9857 -34.9853 -34.9840 -34.9837 -34.9830 -34.9816
   -34.9754 -34.9748 -34.9737 -34.9717 -34.9716 -34.9702 -34.9700 -34.9696
   -34.9690 -34.9677 -34.9673 -34.9668 -34.9653 -34.9650 -34.9644 -34.9640
   -34.9626 -34.9606 -34.9606 -34.9601 -34.9580 -34.9561 -34.9559 -34.9552
   -34.9552 -34.9535 -34.9531 -34.9525 -34.9523 -34.9478 -34.9473 -34.9410
   -11.5194 -11.5150 -11.5049 -11.5046 -11.4986 -11.4926 -11.4765 -11.4698
   -11.4609 -11.4602 -11.4451 -11.3478 -11.3363 -11.3324 -11.3165 -11.3116
   -11.3062 -11.2964 -11.2928 -11.2917 -11.2888 -11.2848 -11.2805 -11.2802
   -11.2778 -11.2774 -11.2764 -11.2655 -11.2651 -11.2633 -11.2588 -11.2587
   -11.2574 -11.2568 -11.2537 -11.2519 -11.2470 -11.2454 -11.2425 -11.2414
   -11.2338 -11.2322 -11.2286 -11.2255 -11.2251 -11.2242 -11.2206 -11.2185
   -11.2181 -11.2164 -11.2158 -11.2137 -11.2137 -11.2116 -11.2110 -11.2099
   -11.2081 -11.2065 -11.2056 -11.2049 -11.1994 -11.1969 -11.1966 -11.1945
   -11.1887 -11.1846 -11.1781 -11.1781 -11.1775 -11.1724 -11.1700 -11.1700
   -11.1680 -11.1638 -11.1556 -11.1552 -11.1535 -11.1492 -11.1453 -11.1401
    -8.0071  -7.9850  -7.9766  -7.6580  -6.8152  -6.7887  -6.7884  -6.7861
    -6.7781  -6.7747  -6.7096  -6.2477  -6.0489  -6.0480  -6.0155  -1.4331
    -1.3971  -1.2257  -1.1637  -0.3425  -0.3350  -0.3143  -0.3115   0.0924
     0.3053   0.3500   0.3847   0.5559   0.5589   0.6741   0.7578   0.8032
     0.9459   0.9581   0.9753   1.8890   2.2602   2.2756   2.3898   5.2205
     5.2447   5.2655   5.3001   5.4725   5.5614   5.6683   5.8139   5.8273
     5.8365   5.8844   5.9164   5.9361   6.1146   6.2071   6.4556   6.8131
     6.8418   6.8760   6.9477   7.3416   7.3921   7.4050   7.5091   7.5520
     7.5655   7.6851   7.6877   7.7672   7.8008   8.0246   8.0319   8.0437
     8.0795   8.1451   8.2380   8.3095   8.3158   8.4109   8.4568   8.5445
     8.5640   8.6033   8.7232   8.8882   9.2251   9.3269   9.3598   9.3652
     9.4120   9.5615   9.5645   9.5709   9.8545   9.9739  10.0159  10.0717
    10.1047  10.1213  10.1840  10.1950  10.3376  10.3660  10.3957  10.4400
    10.4964  10.4995  10.5911  10.6544  11.6271

          k = 0.0000-0.5000-0.3194 ( 38336 PWs)   bands (ev):

   -34.9921 -34.9897 -34.9891 -34.9861 -34.9849 -34.9848 -34.9844 -34.9810
   -34.9771 -34.9750 -34.9735 -34.9726 -34.9724 -34.9714 -34.9709 -34.9705
   -34.9699 -34.9697 -34.9676 -34.9662 -34.9661 -34.9659 -34.9658 -34.9653
   -34.9632 -34.9623 -34.9606 -34.9592 -34.9586 -34.9586 -34.9585 -34.9565
   -34.9556 -34.9556 -34.9548 -34.9534 -34.9532 -34.9481 -34.9472 -34.9411
   -11.5193 -11.5150 -11.5045 -11.5043 -11.4983 -11.4925 -11.4767 -11.4705
   -11.4614 -11.4604 -11.4454 -11.3475 -11.3372 -11.3322 -11.3159 -11.3105
   -11.3059 -11.2962 -11.2937 -11.2915 -11.2893 -11.2849 -11.2806 -11.2797
   -11.2775 -11.2769 -11.2761 -11.2667 -11.2666 -11.2644 -11.2590 -11.2588
   -11.2576 -11.2571 -11.2538 -11.2510 -11.2461 -11.2454 -11.2419 -11.2416
   -11.2342 -11.2323 -11.2285 -11.2254 -11.2254 -11.2242 -11.2202 -11.2182
   -11.2177 -11.2160 -11.2155 -11.2135 -11.2129 -11.2116 -11.2106 -11.2096
   -11.2075 -11.2069 -11.2057 -11.2051 -11.1994 -11.1965 -11.1963 -11.1950
   -11.1886 -11.1845 -11.1783 -11.1782 -11.1782 -11.1726 -11.1703 -11.1701
   -11.1682 -11.1639 -11.1558 -11.1553 -11.1536 -11.1493 -11.1454 -11.1401
    -8.0061  -7.9849  -7.9776  -7.6581  -6.8149  -6.7891  -6.7873  -6.7860
    -6.7793  -6.7747  -6.7098  -6.2477  -6.0489  -6.0479  -6.0155  -1.3749
    -1.2941  -1.2928  -1.2845  -0.3431  -0.3349  -0.3142  -0.3115   0.0913
     0.3055   0.3515   0.3849   0.5878   0.6681   0.7040   0.7281   0.7574
     0.9273   0.9287   0.9578   1.8890   2.2636   2.2747   2.3800   5.1970
     5.2244   5.2425   5.2808   5.5496   5.5804   5.5868   5.8141   5.8622
     5.8666   5.8937   5.9174   5.9342   6.1492   6.2089   6.4550   6.8294
     6.8559   6.8929   6.9561   7.3337   7.4195   7.4371   7.4902   7.5518
     7.5575   7.6570   7.6708   7.7174   7.7550   8.0072   8.0358   8.0443
     8.0757   8.1414   8.2328   8.3071   8.3114   8.4413   8.4588   8.5766
     8.6125   8.6601   8.7104   8.7133   9.1883   9.2759   9.3279   9.3323
     9.3922   9.5717   9.5762   9.5903   9.8759  10.0251  10.0362  10.1161
    10.1625  10.1645  10.1974  10.2053  10.3468  10.4012  10.4064  10.4888
    10.4958  10.5344  10.5628  10.5872  11.6005

          k = 0.1667 0.1667 0.0000 ( 38375 PWs)   bands (ev):

   -34.9919 -34.9913 -34.9901 -34.9892 -34.9879 -34.9850 -34.9841 -34.9838
   -34.9771 -34.9762 -34.9751 -34.9746 -34.9740 -34.9727 -34.9719 -34.9705
   -34.9697 -34.9686 -34.9683 -34.9680 -34.9670 -34.9663 -34.9652 -34.9645
   -34.9641 -34.9635 -34.9631 -34.9627 -34.9615 -34.9601 -34.9592 -34.9580
   -34.9574 -34.9569 -34.9558 -34.9530 -34.9522 -34.9508 -34.9491 -34.9490
   -11.5351 -11.5283 -11.5236 -11.4929 -11.4921 -11.4909 -11.4777 -11.4658
   -11.4451 -11.4370 -11.4356 -11.4204 -11.3808 -11.3182 -11.3094 -11.3078
   -11.3047 -11.2993 -11.2961 -11.2952 -11.2902 -11.2876 -11.2856 -11.2800
   -11.2785 -11.2759 -11.2734 -11.2726 -11.2603 -11.2589 -11.2583 -11.2559
   -11.2523 -11.2501 -11.2482 -11.2429 -11.2410 -11.2405 -11.2401 -11.2386
   -11.2362 -11.2352 -11.2305 -11.2302 -11.2295 -11.2267 -11.2256 -11.2242
   -11.2218 -11.2190 -11.2183 -11.2141 -11.2133 -11.2111 -11.2094 -11.2093
   -11.2058 -11.2041 -11.2025 -11.2023 -11.1952 -11.1944 -11.1937 -11.1849
   -11.1825 -11.1807 -11.1752 -11.1752 -11.1711 -11.1689 -11.1676 -11.1672
   -11.1653 -11.1597 -11.1529 -11.1503 -11.1502 -11.1494 -11.1467 -11.1380
    -8.3412  -8.1563  -7.3014  -7.3005  -7.2551  -7.0967  -6.7442  -6.6974
    -6.5965  -6.5932  -6.5513  -6.5340  -6.5262  -5.9177  -5.8073  -1.8652
    -1.3367  -0.7480  -0.7395  -0.5989  -0.5649  -0.2223  -0.1779   0.0162
     0.2174   0.2464   0.3564   0.3845   0.5094   0.5931   0.7295   0.8924
     0.9449   0.9759   1.3854   1.4047   1.6523   2.4994   3.0468   5.2741
     5.4114   5.5187   5.5736   5.6119   5.6316   5.6619   5.7415   5.7606
     5.8578   5.9719   6.0949   6.2483   6.2828   6.2859   6.3487   6.5391
     6.8210   6.8224   6.8588   6.8731   7.0421   7.0760   7.1732   7.2611
     7.4412   7.5159   7.5504   7.5795   7.6403   7.8484   7.8891   7.9043
     8.0036   8.2343   8.2912   8.3054   8.3314   8.4445   8.5717   8.7105
     8.7119   8.8616   9.0458   9.0819   9.0855   9.2122   9.2770   9.3014
     9.5894   9.7147   9.7574   9.8736   9.9492   9.9726  10.0160  10.0880
    10.1758  10.2202  10.2791  10.2800  10.3928  10.4478  10.4900  10.5348
    10.7539  10.7703  10.8942  10.9245  11.2785

          k = 0.1667 0.1667 0.1065 ( 38366 PWs)   bands (ev):

   -34.9936 -34.9916 -34.9895 -34.9881 -34.9872 -34.9854 -34.9839 -34.9827
   -34.9763 -34.9751 -34.9750 -34.9736 -34.9734 -34.9728 -34.9723 -34.9716
   -34.9706 -34.9702 -34.9694 -34.9694 -34.9674 -34.9663 -34.9657 -34.9637
   -34.9634 -34.9633 -34.9619 -34.9608 -34.9603 -34.9601 -34.9598 -34.9583
   -34.9572 -34.9557 -34.9551 -34.9525 -34.9511 -34.9499 -34.9478 -34.9455
   -11.5348 -11.5283 -11.5232 -11.4928 -11.4924 -11.4911 -11.4778 -11.4664
   -11.4460 -11.4368 -11.4344 -11.4209 -11.3812 -11.3174 -11.3091 -11.3074
   -11.3043 -11.2989 -11.2961 -11.2954 -11.2901 -11.2875 -11.2856 -11.2797
   -11.2795 -11.2763 -11.2735 -11.2727 -11.2619 -11.2606 -11.2581 -11.2547
   -11.2521 -11.2508 -11.2486 -11.2443 -11.2431 -11.2411 -11.2396 -11.2387
   -11.2367 -11.2328 -11.2299 -11.2295 -11.2285 -11.2257 -11.2246 -11.2235
   -11.2213 -11.2184 -11.2179 -11.2142 -11.2130 -11.2108 -11.2096 -11.2091
   -11.2059 -11.2039 -11.2026 -11.2017 -11.1957 -11.1948 -11.1933 -11.1849
   -11.1826 -11.1810 -11.1754 -11.1753 -11.1714 -11.1691 -11.1679 -11.1672
   -11.1655 -11.1600 -11.1530 -11.1503 -11.1502 -11.1495 -11.1468 -11.1381
    -8.3411  -8.1565  -7.3013  -7.3001  -7.2555  -7.0968  -6.7440  -6.6975
    -6.5965  -6.5930  -6.5515  -6.5336  -6.5266  -5.9177  -5.8073  -1.8385
    -1.3858  -0.7375  -0.7293  -0.6085  -0.5771  -0.2196  -0.1807   0.0232
     0.2031   0.2929   0.3515   0.4271   0.5160   0.5840   0.7060   0.8090
     0.9749   1.0855   1.3061   1.3988   1.6232   2.5498   3.0252   5.2826
     5.4142   5.5180   5.5775   5.5867   5.6275   5.6662   5.7106   5.7349
     5.8228   6.0251   6.1500   6.1924   6.2979   6.3511   6.3924   6.5643
     6.7917   6.8004   6.8561   6.8634   6.9688   7.0425   7.1451   7.3105
     7.4190   7.5465   7.5846   7.6350   7.6592   7.8220   7.9013   7.9144
     7.9927   8.2332   8.2834   8.3446   8.3938   8.4690   8.5561   8.7070
     8.7145   8.8101   8.9689   9.0491   9.0816   9.1092   9.1888   9.2975
     9.6196   9.7803   9.8685   9.8844   9.9588   9.9655  10.0034  10.1055
    10.1607  10.2114  10.2816  10.2965  10.3422  10.4391  10.4732  10.5516
    10.7660  10.7814  10.8858  10.9171  11.3196

          k = 0.1667 0.1667 0.2129 ( 38359 PWs)   bands (ev):

   -34.9920 -34.9916 -34.9883 -34.9873 -34.9864 -34.9854 -34.9834 -34.9821
   -34.9771 -34.9764 -34.9758 -34.9746 -34.9732 -34.9725 -34.9724 -34.9721
   -34.9702 -34.9700 -34.9689 -34.9680 -34.9671 -34.9669 -34.9656 -34.9650
   -34.9644 -34.9630 -34.9624 -34.9618 -34.9608 -34.9603 -34.9595 -34.9575
   -34.9570 -34.9552 -34.9544 -34.9520 -34.9518 -34.9486 -34.9458 -34.9443
   -11.5340 -11.5282 -11.5224 -11.4937 -11.4925 -11.4910 -11.4780 -11.4674
   -11.4474 -11.4359 -11.4326 -11.4221 -11.3820 -11.3157 -11.3084 -11.3065
   -11.3037 -11.2983 -11.2967 -11.2956 -11.2898 -11.2873 -11.2854 -11.2820
   -11.2794 -11.2765 -11.2737 -11.2729 -11.2644 -11.2622 -11.2590 -11.2538
   -11.2521 -11.2508 -11.2503 -11.2480 -11.2440 -11.2423 -11.2396 -11.2387
   -11.2376 -11.2296 -11.2281 -11.2277 -11.2265 -11.2245 -11.2237 -11.2218
   -11.2203 -11.2179 -11.2161 -11.2144 -11.2124 -11.2102 -11.2099 -11.2088
   -11.2059 -11.2037 -11.2026 -11.2008 -11.1970 -11.1952 -11.1929 -11.1850
   -11.1827 -11.1818 -11.1758 -11.1756 -11.1720 -11.1695 -11.1683 -11.1674
   -11.1658 -11.1606 -11.1531 -11.1504 -11.1504 -11.1496 -11.1469 -11.1381
    -8.3408  -8.1569  -7.3012  -7.2991  -7.2565  -7.0970  -6.7437  -6.6978
    -6.5964  -6.5927  -6.5518  -6.5327  -6.5276  -5.9177  -5.8073  -1.7618
    -1.5038  -0.7128  -0.6995  -0.6314  -0.6103  -0.2119  -0.1886   0.0412
     0.1778   0.2773   0.4701   0.5178   0.5318   0.5638   0.6827   0.7232
     1.0239   1.1044   1.2600   1.3689   1.5481   2.6564   2.9681   5.3091
     5.4185   5.4830   5.5264   5.6039   5.6146   5.6749   5.6950   5.7094
     5.7980   6.0446   6.0889   6.2778   6.3730   6.4637   6.4769   6.5963
     6.7199   6.7269   6.8369   6.8454   6.8926   7.0029   7.0779   7.3402
     7.3997   7.5953   7.6258   7.6511   7.7415   7.8206   7.9084   7.9756
     8.0265   8.2305   8.2824   8.4121   8.4813   8.5374   8.5553   8.6455
     8.7028   8.7093   8.8044   8.8806   8.9984   9.0723   9.1587   9.2963
     9.6201   9.8641   9.9059   9.9469   9.9765  10.0011  10.0395  10.1192
    10.1608  10.1901  10.2278  10.3279  10.3409  10.4175  10.4527  10.5298
    10.7873  10.8104  10.8666  10.8939  11.4010

          k = 0.1667 0.1667-0.3194 ( 38344 PWs)   bands (ev):

   -34.9908 -34.9904 -34.9866 -34.9859 -34.9857 -34.9850 -34.9830 -34.9827
   -34.9781 -34.9773 -34.9749 -34.9745 -34.9740 -34.9732 -34.9717 -34.9712
   -34.9694 -34.9689 -34.9683 -34.9672 -34.9666 -34.9665 -34.9662 -34.9650
   -34.9646 -34.9633 -34.9616 -34.9612 -34.9587 -34.9585 -34.9580 -34.9573
   -34.9566 -34.9545 -34.9532 -34.9521 -34.9494 -34.9485 -34.9458 -34.9444
   -11.5336 -11.5282 -11.5220 -11.4945 -11.4924 -11.4910 -11.4782 -11.4679
   -11.4481 -11.4354 -11.4318 -11.4227 -11.3824 -11.3146 -11.3081 -11.3060
   -11.3035 -11.2979 -11.2973 -11.2954 -11.2897 -11.2872 -11.2853 -11.2834
   -11.2792 -11.2765 -11.2738 -11.2730 -11.2653 -11.2629 -11.2593 -11.2534
   -11.2524 -11.2519 -11.2499 -11.2496 -11.2445 -11.2429 -11.2396 -11.2385
   -11.2380 -11.2289 -11.2267 -11.2258 -11.2257 -11.2246 -11.2235 -11.2209
   -11.2199 -11.2176 -11.2149 -11.2146 -11.2122 -11.2100 -11.2099 -11.2087
   -11.2060 -11.2035 -11.2029 -11.1998 -11.1981 -11.1953 -11.1927 -11.1851
   -11.1827 -11.1822 -11.1759 -11.1757 -11.1722 -11.1697 -11.1685 -11.1675
   -11.1659 -11.1609 -11.1532 -11.1505 -11.1504 -11.1497 -11.1469 -11.1381
    -8.3406  -8.1571  -7.3011  -7.2987  -7.2570  -7.0970  -6.7436  -6.6980
    -6.5964  -6.5926  -6.5520  -6.5321  -6.5283  -5.9177  -5.8073  -1.6637
    -1.6210  -0.6947  -0.6591  -0.6520  -0.6487  -0.2028  -0.1978   0.0543
     0.1588   0.2725   0.4913   0.5349   0.5440   0.6443   0.6794   0.7346
     0.9030   1.0979   1.3400   1.3528   1.4796   2.7236   2.9227   5.3369
     5.4208   5.4249   5.5363   5.5823   5.6356   5.6711   5.6883   5.7036
     5.8101   6.0191   6.0507   6.3703   6.4596   6.4822   6.5109   6.5810
     6.6589   6.7154   6.8261   6.8320   6.8640   6.9984   7.0395   7.3242
     7.4067   7.6096   7.6476   7.6545   7.7328   7.8529   7.9150   7.9792
     8.2238   8.2276   8.2355   8.3629   8.4819   8.5895   8.6386   8.6417
     8.6695   8.6882   8.7044   8.7095   8.9773   9.0671   9.1552   9.2966
     9.6219   9.8903   9.9008   9.9036  10.0384  10.0456  10.0899  10.1075
    10.1280  10.1342  10.2845  10.3303  10.3589  10.4334  10.4436  10.4698
    10.8001  10.8330  10.8634  10.8637  11.4430

          k = 0.1667 0.3333 0.0000 ( 38357 PWs)   bands (ev):

   -34.9908 -34.9884 -34.9883 -34.9863 -34.9853 -34.9847 -34.9841 -34.9836
   -34.9778 -34.9761 -34.9754 -34.9741 -34.9725 -34.9718 -34.9717 -34.9711
   -34.9702 -34.9693 -34.9683 -34.9675 -34.9671 -34.9662 -34.9660 -34.9652
   -34.9638 -34.9619 -34.9619 -34.9614 -34.9607 -34.9597 -34.9589 -34.9575
   -34.9575 -34.9554 -34.9541 -34.9536 -34.9516 -34.9502 -34.9484 -34.9445
   -11.5279 -11.5235 -11.5100 -11.5046 -11.4970 -11.4813 -11.4764 -11.4597
   -11.4562 -11.4522 -11.4228 -11.3928 -11.3611 -11.3171 -11.3105 -11.3067
   -11.3027 -11.2996 -11.2939 -11.2928 -11.2896 -11.2880 -11.2826 -11.2792
   -11.2775 -11.2763 -11.2747 -11.2696 -11.2652 -11.2639 -11.2617 -11.2574
   -11.2548 -11.2493 -11.2471 -11.2446 -11.2438 -11.2425 -11.2410 -11.2388
   -11.2381 -11.2340 -11.2315 -11.2289 -11.2283 -11.2265 -11.2247 -11.2235
   -11.2205 -11.2197 -11.2177 -11.2164 -11.2150 -11.2143 -11.2118 -11.2098
   -11.2061 -11.2041 -11.2013 -11.2009 -11.2001 -11.1966 -11.1939 -11.1926
   -11.1835 -11.1822 -11.1806 -11.1776 -11.1762 -11.1713 -11.1696 -11.1686
   -11.1661 -11.1632 -11.1567 -11.1541 -11.1534 -11.1499 -11.1483 -11.1399
    -8.1893  -8.0378  -7.6466  -7.4815  -7.2085  -7.0897  -6.9056  -6.7848
    -6.5625  -6.5110  -6.5056  -6.3296  -6.2943  -5.9739  -5.8989  -1.7101
    -1.2199  -1.1191  -0.7982  -0.6469  -0.5135  -0.3293  -0.3078   0.0963
     0.2608   0.3125   0.4189   0.4961   0.5712   0.6144   0.7601   0.8496
     0.9300   1.1958   1.2719   1.5602   1.8671   2.4218   2.6949   5.1994
     5.3001   5.3478   5.3825   5.4644   5.5198   5.5975   5.6171   5.7553
     5.8672   5.9049   6.1379   6.2495   6.3381   6.3509   6.4888   6.5354
     6.7718   6.8797   6.9408   7.0219   7.1217   7.2374   7.3689   7.4581
     7.5320   7.5642   7.6149   7.6613   7.7779   7.8190   7.8875   7.9952
     8.0335   8.1695   8.2420   8.3314   8.4241   8.5240   8.5495   8.6875
     8.8427   8.8718   8.9834   9.0161   9.1565   9.2070   9.3058   9.4389
     9.4699   9.6414   9.7477   9.8068   9.8237   9.8637   9.9721  10.0280
    10.0562  10.1001  10.1745  10.1925  10.2396  10.2610  10.2847  10.3454
    10.5508  10.6538  10.7974  10.8702  11.5275

          k = 0.1667 0.3333 0.1065 ( 38348 PWs)   bands (ev):

   -34.9905 -34.9889 -34.9875 -34.9861 -34.9850 -34.9844 -34.9840 -34.9829
   -34.9757 -34.9751 -34.9742 -34.9732 -34.9726 -34.9723 -34.9719 -34.9709
   -34.9703 -34.9685 -34.9683 -34.9676 -34.9670 -34.9661 -34.9657 -34.9648
   -34.9637 -34.9626 -34.9620 -34.9608 -34.9600 -34.9585 -34.9578 -34.9571
   -34.9564 -34.9555 -34.9545 -34.9534 -34.9518 -34.9505 -34.9489 -34.9454
   -11.5276 -11.5235 -11.5097 -11.5045 -11.4968 -11.4819 -11.4765 -11.4601
   -11.4568 -11.4515 -11.4233 -11.3924 -11.3618 -11.3165 -11.3098 -11.3064
   -11.3028 -11.2992 -11.2939 -11.2927 -11.2901 -11.2879 -11.2824 -11.2793
   -11.2777 -11.2763 -11.2747 -11.2710 -11.2657 -11.2641 -11.2618 -11.2580
   -11.2543 -11.2497 -11.2483 -11.2464 -11.2437 -11.2418 -11.2412 -11.2385
   -11.2372 -11.2338 -11.2313 -11.2285 -11.2276 -11.2260 -11.2240 -11.2228
   -11.2203 -11.2193 -11.2174 -11.2160 -11.2149 -11.2138 -11.2118 -11.2097
   -11.2064 -11.2041 -11.2015 -11.2008 -11.2002 -11.1965 -11.1935 -11.1928
   -11.1836 -11.1823 -11.1807 -11.1779 -11.1763 -11.1717 -11.1697 -11.1688
   -11.1663 -11.1634 -11.1569 -11.1542 -11.1535 -11.1500 -11.1483 -11.1400
    -8.1892  -8.0380  -7.6465  -7.4816  -7.2084  -7.0898  -6.9055  -6.7849
    -6.5624  -6.5107  -6.5059  -6.3296  -6.2943  -5.9739  -5.8988  -1.6849
    -1.2646  -1.1003  -0.8243  -0.6380  -0.5226  -0.3284  -0.3088   0.1053
     0.2630   0.3587   0.4042   0.4934   0.5797   0.6289   0.7297   0.8759
     0.9507   1.1465   1.2639   1.5765   1.8478   2.4387   2.6827   5.1954
     5.3102   5.3502   5.3679   5.4233   5.4858   5.6028   5.6542   5.7665
     5.8949   5.9239   6.1399   6.2579   6.3329   6.3727   6.4770   6.5475
     6.7725   6.8954   6.9135   6.9989   7.1135   7.2020   7.3555   7.4407
     7.5048   7.5903   7.6218   7.7020   7.8163   7.8788   7.9079   7.9859
     8.0332   8.1669   8.2510   8.3195   8.4045   8.5319   8.5458   8.6847
     8.8122   8.8816   8.9541   9.0157   9.0777   9.1873   9.2451   9.3032
     9.5672   9.6992   9.7623   9.8046   9.8653   9.8973   9.9777  10.0399
    10.0590  10.1063  10.1608  10.1882  10.2377  10.2682  10.3020  10.3664
    10.5522  10.6546  10.8081  10.8749  11.5374

          k = 0.1667 0.3333 0.2129 ( 38346 PWs)   bands (ev):

   -34.9903 -34.9887 -34.9868 -34.9859 -34.9848 -34.9846 -34.9834 -34.9826
   -34.9759 -34.9751 -34.9739 -34.9732 -34.9722 -34.9715 -34.9708 -34.9705
   -34.9699 -34.9696 -34.9680 -34.9676 -34.9671 -34.9665 -34.9649 -34.9642
   -34.9634 -34.9625 -34.9617 -34.9610 -34.9594 -34.9589 -34.9580 -34.9572
   -34.9567 -34.9558 -34.9554 -34.9541 -34.9520 -34.9510 -34.9496 -34.9463
   -11.5270 -11.5234 -11.5091 -11.5041 -11.4963 -11.4832 -11.4769 -11.4608
   -11.4577 -11.4503 -11.4243 -11.3916 -11.3632 -11.3152 -11.3083 -11.3059
   -11.3030 -11.2985 -11.2937 -11.2926 -11.2913 -11.2876 -11.2820 -11.2799
   -11.2781 -11.2761 -11.2747 -11.2733 -11.2666 -11.2646 -11.2615 -11.2588
   -11.2554 -11.2506 -11.2489 -11.2469 -11.2449 -11.2432 -11.2414 -11.2372
   -11.2363 -11.2328 -11.2306 -11.2279 -11.2267 -11.2251 -11.2221 -11.2213
   -11.2198 -11.2183 -11.2170 -11.2152 -11.2144 -11.2131 -11.2120 -11.2094
   -11.2070 -11.2042 -11.2022 -11.2006 -11.1999 -11.1965 -11.1934 -11.1923
   -11.1838 -11.1825 -11.1811 -11.1785 -11.1764 -11.1724 -11.1701 -11.1691
   -11.1666 -11.1639 -11.1572 -11.1544 -11.1536 -11.1501 -11.1485 -11.1400
    -8.1888  -8.0384  -7.6463  -7.4819  -7.2082  -7.0901  -6.9054  -6.7850
    -6.5623  -6.5099  -6.5069  -6.3295  -6.2944  -5.9738  -5.8988  -1.6127
    -1.3719  -1.0496  -0.8895  -0.6152  -0.5459  -0.3270  -0.3103   0.1294
     0.2516   0.3513   0.4664   0.5336   0.5962   0.6457   0.7192   0.8748
     0.9629   1.0758   1.2332   1.6275   1.7920   2.4787   2.6521   5.1873
     5.3083   5.3200   5.3673   5.4257   5.4474   5.5834   5.6365   5.8385
     5.8955   6.0243   6.1213   6.2469   6.3346   6.4389   6.4721   6.5867
     6.7698   6.8374   6.8940   6.9691   7.0633   7.1650   7.3355   7.3912
     7.5254   7.6034   7.6935   7.7874   7.8420   7.8960   7.9585   7.9995
     8.0618   8.1778   8.2341   8.3128   8.3930   8.5245   8.5705   8.6659
     8.7433   8.8422   8.8916   8.9443   9.0418   9.1326   9.1599   9.2577
     9.5399   9.7139   9.7969   9.8916   9.9348   9.9717   9.9924  10.0251
    10.0629  10.1228  10.1478  10.1836  10.2210  10.2409  10.3964  10.4260
    10.5447  10.6386  10.8264  10.8838  11.5556

          k = 0.1667 0.3333-0.3194 ( 38354 PWs)   bands (ev):

   -34.9905 -34.9895 -34.9870 -34.9863 -34.9855 -34.9853 -34.9839 -34.9834
   -34.9767 -34.9753 -34.9748 -34.9731 -34.9728 -34.9719 -34.9716 -34.9707
   -34.9705 -34.9692 -34.9684 -34.9674 -34.9670 -34.9665 -34.9655 -34.9648
   -34.9639 -34.9631 -34.9617 -34.9604 -34.9595 -34.9589 -34.9584 -34.9575
   -34.9563 -34.9555 -34.9554 -34.9537 -34.9525 -34.9507 -34.9501 -34.9466
   -11.5267 -11.5234 -11.5089 -11.5039 -11.4960 -11.4839 -11.4771 -11.4612
   -11.4581 -11.4498 -11.4248 -11.3911 -11.3639 -11.3144 -11.3075 -11.3056
   -11.3031 -11.2981 -11.2937 -11.2925 -11.2920 -11.2874 -11.2818 -11.2805
   -11.2782 -11.2759 -11.2746 -11.2744 -11.2671 -11.2648 -11.2613 -11.2589
   -11.2567 -11.2506 -11.2489 -11.2470 -11.2454 -11.2443 -11.2415 -11.2367
   -11.2360 -11.2324 -11.2302 -11.2278 -11.2260 -11.2249 -11.2213 -11.2202
   -11.2196 -11.2178 -11.2166 -11.2147 -11.2141 -11.2130 -11.2122 -11.2093
   -11.2072 -11.2043 -11.2027 -11.2005 -11.1997 -11.1965 -11.1937 -11.1917
   -11.1839 -11.1826 -11.1813 -11.1789 -11.1765 -11.1727 -11.1703 -11.1692
   -11.1668 -11.1641 -11.1573 -11.1544 -11.1537 -11.1502 -11.1485 -11.1400
    -8.1886  -8.0386  -7.6461  -7.4821  -7.2081  -7.0902  -6.9054  -6.7851
    -6.5622  -6.5091  -6.5077  -6.3295  -6.2945  -5.9738  -5.8988  -1.5230
    -1.4781  -0.9914  -0.9546  -0.5939  -0.5675  -0.3267  -0.3108   0.1481
     0.2344   0.3452   0.4555   0.5950   0.6247   0.6969   0.7187   0.8451
     0.8862   1.1062   1.2021   1.6887   1.7290   2.5050   2.6303   5.1832
     5.2864   5.3130   5.3756   5.4213   5.4769   5.5420   5.6198   5.8931
     5.8947   6.0278   6.1747   6.2398   6.2915   6.4433   6.5066   6.6658
     6.7694   6.7749   6.8429   6.9803   7.0115   7.1666   7.3216   7.3745
     7.5488   7.6066   7.7650   7.8138   7.8554   7.8849   7.9328   8.0187
     8.1047   8.1762   8.2108   8.3340   8.4129   8.5483   8.5676   8.6299
     8.6933   8.7617   8.8869   8.9214   9.0461   9.0940   9.1420   9.2498
     9.5269   9.7035   9.8016   9.9133   9.9637   9.9980  10.0078  10.0334
    10.1044  10.1215  10.1425  10.1808  10.2015  10.2198  10.4536  10.4652
    10.5518  10.6012  10.8343  10.8881  11.5637

          k = 0.1667-0.5000 0.0000 ( 38352 PWs)   bands (ev):

   -34.9894 -34.9891 -34.9877 -34.9864 -34.9864 -34.9844 -34.9837 -34.9826
   -34.9746 -34.9746 -34.9744 -34.9736 -34.9729 -34.9726 -34.9707 -34.9701
   -34.9701 -34.9694 -34.9687 -34.9673 -34.9670 -34.9668 -34.9664 -34.9657
   -34.9646 -34.9632 -34.9614 -34.9608 -34.9598 -34.9592 -34.9591 -34.9572
   -34.9567 -34.9548 -34.9547 -34.9532 -34.9515 -34.9499 -34.9488 -34.9454
   -11.5206 -11.5162 -11.5146 -11.5124 -11.4793 -11.4775 -11.4770 -11.4683
   -11.4644 -11.4539 -11.4271 -11.3531 -11.3418 -11.3400 -11.3161 -11.3126
   -11.3049 -11.2956 -11.2954 -11.2908 -11.2898 -11.2887 -11.2810 -11.2799
   -11.2789 -11.2774 -11.2733 -11.2658 -11.2624 -11.2603 -11.2589 -11.2562
   -11.2532 -11.2514 -11.2508 -11.2484 -11.2482 -11.2460 -11.2446 -11.2437
   -11.2367 -11.2325 -11.2306 -11.2296 -11.2263 -11.2249 -11.2242 -11.2215
   -11.2198 -11.2178 -11.2165 -11.2157 -11.2146 -11.2124 -11.2122 -11.2110
   -11.2103 -11.2051 -11.2048 -11.2023 -11.2011 -11.1981 -11.1939 -11.1896
   -11.1895 -11.1852 -11.1822 -11.1784 -11.1760 -11.1723 -11.1713 -11.1698
   -11.1695 -11.1650 -11.1575 -11.1560 -11.1549 -11.1505 -11.1475 -11.1411
    -7.9647  -7.9404  -7.9290  -7.6379  -7.0788  -7.0628  -7.0518  -6.8376
    -6.5299  -6.5219  -6.4988  -6.2184  -6.0604  -6.0598  -6.0277  -1.4653
    -1.4484  -1.0797  -0.9777  -0.5099  -0.4933  -0.4378  -0.3889   0.1894
     0.2380   0.3670   0.3777   0.5296   0.5649   0.7233   0.7402   0.9192
     0.9570   1.0939   1.1635   1.8911   2.1872   2.2152   2.3583   5.2291
     5.2293   5.2464   5.2845   5.3901   5.4471   5.5522   5.5730   5.7307
     5.7766   6.1534   6.1605   6.2016   6.2933   6.4072   6.4228   6.6066
     6.7386   7.0109   7.0257   7.1885   7.1981   7.2823   7.3495   7.5213
     7.5287   7.5743   7.6506   7.7356   7.7568   7.8441   7.8499   7.8544
     7.9532   8.2157   8.2409   8.4571   8.5162   8.5674   8.6792   8.7139
     8.7592   8.7695   8.8519   9.1590   9.2577   9.2604   9.4192   9.4721
     9.5024   9.5636   9.7585   9.7687   9.8020   9.8549   9.8688   9.9394
     9.9625  10.0287  10.0580  10.0885  10.1279  10.1439  10.2712  10.3351
    10.4203  10.5443  10.7544  10.8437  11.6084

          k = 0.1667-0.5000 0.1065 ( 38376 PWs)   bands (ev):

   -34.9910 -34.9904 -34.9884 -34.9876 -34.9874 -34.9859 -34.9845 -34.9831
   -34.9767 -34.9754 -34.9746 -34.9745 -34.9739 -34.9725 -34.9716 -34.9710
   -34.9705 -34.9697 -34.9686 -34.9683 -34.9677 -34.9670 -34.9666 -34.9658
   -34.9648 -34.9628 -34.9617 -34.9615 -34.9604 -34.9600 -34.9595 -34.9587
   -34.9575 -34.9570 -34.9565 -34.9541 -34.9540 -34.9515 -34.9504 -34.9471
   -11.5205 -11.5160 -11.5144 -11.5123 -11.4794 -11.4773 -11.4766 -11.4687
   -11.4647 -11.4544 -11.4276 -11.3526 -11.3416 -11.3412 -11.3157 -11.3117
   -11.3048 -11.2954 -11.2952 -11.2913 -11.2898 -11.2892 -11.2808 -11.2803
   -11.2783 -11.2773 -11.2732 -11.2669 -11.2627 -11.2607 -11.2597 -11.2573
   -11.2542 -11.2516 -11.2513 -11.2481 -11.2466 -11.2454 -11.2437 -11.2429
   -11.2369 -11.2334 -11.2305 -11.2299 -11.2263 -11.2242 -11.2234 -11.2213
   -11.2201 -11.2170 -11.2162 -11.2150 -11.2143 -11.2126 -11.2118 -11.2105
   -11.2100 -11.2053 -11.2048 -11.2029 -11.2007 -11.1980 -11.1938 -11.1899
   -11.1894 -11.1853 -11.1823 -11.1785 -11.1763 -11.1724 -11.1716 -11.1701
   -11.1697 -11.1651 -11.1578 -11.1561 -11.1550 -11.1506 -11.1476 -11.1412
    -7.9638  -7.9403  -7.9299  -7.6380  -7.0782  -7.0627  -7.0525  -6.8376
    -6.5297  -6.5219  -6.4990  -6.2185  -6.0604  -6.0598  -6.0277  -1.4450
    -1.4239  -1.1105  -1.0207  -0.5066  -0.4861  -0.4414  -0.3956   0.1954
     0.2479   0.3807   0.4082   0.5188   0.5384   0.7546   0.7759   0.8984
     0.9508   1.0811   1.1488   1.8893   2.1898   2.2140   2.3492   5.2074
     5.2177   5.2724   5.2728   5.3737   5.3854   5.5928   5.6099   5.7630
     5.8000   6.1479   6.1596   6.1904   6.2836   6.4019   6.4222   6.6298
     6.7502   6.9954   7.0316   7.1946   7.2008   7.2912   7.3586   7.4860
     7.5001   7.5619   7.5782   7.6913   7.7670   7.8486   7.8995   7.9457
     8.0099   8.2122   8.2583   8.4469   8.5173   8.5181   8.6631   8.7259
     8.7581   8.7766   8.8323   9.1010   9.2241   9.2504   9.3916   9.4347
     9.4963   9.5503   9.7290   9.7565   9.7978   9.8884   9.9245   9.9598
     9.9957  10.0391  10.0726  10.1246  10.1369  10.1854  10.2527  10.2777
    10.4900  10.5954  10.7466  10.8427  11.5998

          k = 0.1667-0.5000 0.2129 ( 38338 PWs)   bands (ev):

   -34.9891 -34.9889 -34.9865 -34.9855 -34.9852 -34.9852 -34.9829 -34.9822
   -34.9765 -34.9748 -34.9734 -34.9733 -34.9715 -34.9711 -34.9708 -34.9698
   -34.9687 -34.9682 -34.9674 -34.9667 -34.9656 -34.9655 -34.9652 -34.9638
   -34.9635 -34.9624 -34.9619 -34.9604 -34.9593 -34.9579 -34.9575 -34.9571
   -34.9560 -34.9549 -34.9545 -34.9544 -34.9522 -34.9506 -34.9504 -34.9463
   -11.5202 -11.5158 -11.5141 -11.5119 -11.4796 -11.4767 -11.4757 -11.4696
   -11.4652 -11.4553 -11.4287 -11.3509 -11.3439 -11.3412 -11.3150 -11.3097
   -11.3045 -11.2952 -11.2948 -11.2920 -11.2900 -11.2898 -11.2809 -11.2805
   -11.2774 -11.2770 -11.2731 -11.2692 -11.2638 -11.2610 -11.2605 -11.2594
   -11.2554 -11.2523 -11.2515 -11.2470 -11.2456 -11.2448 -11.2436 -11.2407
   -11.2371 -11.2342 -11.2306 -11.2304 -11.2259 -11.2247 -11.2217 -11.2200
   -11.2197 -11.2158 -11.2158 -11.2141 -11.2135 -11.2125 -11.2109 -11.2097
   -11.2093 -11.2057 -11.2048 -11.2042 -11.2002 -11.1979 -11.1934 -11.1906
   -11.1889 -11.1854 -11.1824 -11.1788 -11.1771 -11.1725 -11.1720 -11.1707
   -11.1701 -11.1654 -11.1581 -11.1563 -11.1550 -11.1508 -11.1477 -11.1412
    -7.9620  -7.9401  -7.9318  -7.6382  -7.0769  -7.0626  -7.0538  -6.8377
    -6.5294  -6.5219  -6.4993  -6.2185  -6.0604  -6.0597  -6.0278  -1.3890
    -1.3536  -1.1866  -1.1253  -0.5006  -0.4666  -0.4479  -0.4141   0.2118
     0.2749   0.3634   0.4165   0.5458   0.5893   0.7684   0.7988   0.8936
     0.9428   1.0507   1.1103   1.8857   2.1960   2.2116   2.3298   5.1739
     5.1831   5.2626   5.3144   5.3437   5.3729   5.5526   5.6209   5.8844
     5.8976   6.1287   6.1575   6.1591   6.2485   6.3906   6.4199   6.6985
     6.7766   6.9295   7.0381   7.2078   7.2110   7.3011   7.3679   7.4362
     7.4464   7.5241   7.5417   7.6666   7.7214   7.8739   7.9668   8.1146
     8.1199   8.2190   8.2730   8.3848   8.4460   8.5205   8.6257   8.7392
     8.7628   8.7892   8.8006   8.9253   9.2119   9.2244   9.3369   9.3570
     9.4973   9.5718   9.6703   9.7064   9.7993   9.9657   9.9945  10.0427
    10.0623  10.0927  10.0997  10.1161  10.1844  10.1871  10.2138  10.2651
    10.5862  10.6865  10.7209  10.8357  11.5836

          k = 0.1667-0.5000-0.3194 ( 38364 PWs)   bands (ev):

   -34.9896 -34.9889 -34.9873 -34.9871 -34.9856 -34.9850 -34.9845 -34.9836
   -34.9760 -34.9739 -34.9735 -34.9735 -34.9732 -34.9727 -34.9718 -34.9705
   -34.9702 -34.9693 -34.9692 -34.9687 -34.9675 -34.9667 -34.9658 -34.9651
   -34.9646 -34.9628 -34.9623 -34.9615 -34.9615 -34.9596 -34.9589 -34.9577
   -34.9570 -34.9569 -34.9547 -34.9545 -34.9529 -34.9521 -34.9509 -34.9477
   -11.5201 -11.5157 -11.5139 -11.5117 -11.4798 -11.4764 -11.4751 -11.4702
   -11.4655 -11.4557 -11.4292 -11.3493 -11.3460 -11.3409 -11.3146 -11.3087
   -11.3044 -11.2953 -11.2946 -11.2920 -11.2904 -11.2899 -11.2812 -11.2805
   -11.2770 -11.2769 -11.2730 -11.2702 -11.2645 -11.2611 -11.2606 -11.2603
   -11.2558 -11.2526 -11.2515 -11.2466 -11.2457 -11.2444 -11.2433 -11.2401
   -11.2372 -11.2343 -11.2309 -11.2304 -11.2257 -11.2250 -11.2213 -11.2195
   -11.2187 -11.2157 -11.2154 -11.2140 -11.2126 -11.2122 -11.2105 -11.2094
   -11.2090 -11.2059 -11.2053 -11.2047 -11.2000 -11.1979 -11.1933 -11.1910
   -11.1885 -11.1854 -11.1825 -11.1790 -11.1776 -11.1727 -11.1722 -11.1710
   -11.1703 -11.1656 -11.1584 -11.1564 -11.1551 -11.1509 -11.1478 -11.1412
    -7.9609  -7.9400  -7.9329  -7.6383  -7.0762  -7.0626  -7.0545  -6.8378
    -6.5292  -6.5219  -6.4995  -6.2185  -6.0604  -6.0597  -6.0278  -1.3333
    -1.2520  -1.2516  -1.2433  -0.4978  -0.4509  -0.4436  -0.4367   0.2237
     0.2994   0.3463   0.3777   0.6329   0.6375   0.7307   0.7596   0.9339
     0.9454   1.0307   1.0802   1.8840   2.2000   2.2105   2.3193   5.1587
     5.1658   5.2564   5.2991   5.3833   5.3913   5.4975   5.6092   5.9635
     5.9895   6.0794   6.1451   6.1600   6.2130   6.3843   6.4175   6.7803
     6.7921   6.8414   7.0351   7.2143   7.2242   7.2962   7.3610   7.4203
     7.4232   7.5297   7.5458   7.6579   7.6832   7.8902   7.9845   8.1797
     8.2464   8.2554   8.2750   8.2938   8.3915   8.5179   8.6103   8.7529
     8.7607   8.7919   8.7942   8.8189   9.2041   9.2133   9.3128   9.3152
     9.5005   9.6259   9.6487   9.6490   9.8078   9.9845  10.0146  10.0778
    10.0861  10.1124  10.1406  10.1508  10.1633  10.1972  10.2211  10.2344
    10.6516  10.6832  10.7344  10.8251  11.5756

          k = 0.3333 0.3333 0.0000 ( 38364 PWs)   bands (ev):

   -34.9906 -34.9902 -34.9885 -34.9878 -34.9866 -34.9864 -34.9860 -34.9840
   -34.9763 -34.9746 -34.9742 -34.9740 -34.9727 -34.9719 -34.9702 -34.9699
   -34.9694 -34.9693 -34.9686 -34.9674 -34.9670 -34.9669 -34.9660 -34.9654
   -34.9642 -34.9634 -34.9628 -34.9614 -34.9598 -34.9598 -34.9583 -34.9566
   -34.9562 -34.9561 -34.9544 -34.9528 -34.9521 -34.9508 -34.9504 -34.9479
   -11.5265 -11.5212 -11.5119 -11.5118 -11.4805 -11.4771 -11.4724 -11.4620
   -11.4505 -11.4159 -11.4153 -11.4001 -11.3602 -11.3297 -11.3140 -11.3059
   -11.3046 -11.3001 -11.2975 -11.2929 -11.2900 -11.2859 -11.2824 -11.2820
   -11.2792 -11.2732 -11.2729 -11.2688 -11.2618 -11.2608 -11.2580 -11.2572
   -11.2532 -11.2513 -11.2506 -11.2458 -11.2423 -11.2409 -11.2388 -11.2383
   -11.2371 -11.2339 -11.2319 -11.2317 -11.2311 -11.2282 -11.2270 -11.2248
   -11.2230 -11.2202 -11.2201 -11.2192 -11.2169 -11.2161 -11.2104 -11.2098
   -11.2079 -11.2031 -11.2026 -11.1990 -11.1989 -11.1955 -11.1937 -11.1929
   -11.1895 -11.1835 -11.1798 -11.1792 -11.1764 -11.1759 -11.1735 -11.1722
   -11.1691 -11.1649 -11.1615 -11.1577 -11.1539 -11.1526 -11.1523 -11.1423
    -8.0458  -7.9184  -7.5338  -7.5337  -7.4826  -7.3081  -7.1389  -6.8829
    -6.3875  -6.3324  -6.3004  -6.2966  -6.2621  -6.0164  -5.9699  -1.5622
    -1.1102  -1.0062  -0.9969  -0.7370  -0.6900  -0.5793  -0.4394   0.2061
     0.3180   0.4170   0.4464   0.4899   0.4936   0.6478   0.8725   1.0279
     1.0398   1.3000   1.4587   1.5963   1.8630   2.2990   2.4151   5.1169
     5.1438   5.1544   5.1630   5.3123   5.4555   5.5260   5.5614   6.0238
     6.0328   6.1368   6.1936   6.3057   6.4690   6.5326   6.6853   6.7655
     6.8211   6.8529   6.9461   6.9826   7.0617   7.2183   7.2975   7.3868
     7.3968   7.4018   7.4169   7.4635   7.5277   7.6112   7.7730   7.8676
     8.0900   8.1044   8.2396   8.6416   8.6743   8.6816   8.7682   8.8907
     8.9266   9.0045   9.0837   9.1430   9.1901   9.2200   9.3592   9.5635
     9.5713   9.6293   9.6376   9.6521   9.6631   9.7145   9.7300   9.7688
     9.8217   9.9937  10.1442  10.2060  10.2790  10.3226  10.3724  10.6160
    10.6332  10.7527  10.8473  10.8476  11.3540

          k = 0.3333 0.3333 0.1065 ( 38378 PWs)   bands (ev):

   -34.9913 -34.9904 -34.9879 -34.9873 -34.9870 -34.9866 -34.9861 -34.9841
   -34.9770 -34.9756 -34.9746 -34.9740 -34.9731 -34.9726 -34.9720 -34.9711
   -34.9704 -34.9697 -34.9688 -34.9675 -34.9672 -34.9668 -34.9662 -34.9654
   -34.9652 -34.9644 -34.9635 -34.9625 -34.9607 -34.9598 -34.9590 -34.9581
   -34.9573 -34.9559 -34.9550 -34.9542 -34.9529 -34.9519 -34.9502 -34.9488
   -11.5262 -11.5211 -11.5118 -11.5117 -11.4807 -11.4768 -11.4727 -11.4623
   -11.4510 -11.4154 -11.4149 -11.4010 -11.3609 -11.3294 -11.3138 -11.3052
   -11.3040 -11.3000 -11.2983 -11.2926 -11.2891 -11.2870 -11.2822 -11.2817
   -11.2793 -11.2742 -11.2730 -11.2698 -11.2617 -11.2608 -11.2579 -11.2573
   -11.2537 -11.2509 -11.2504 -11.2461 -11.2439 -11.2421 -11.2411 -11.2372
   -11.2353 -11.2326 -11.2321 -11.2314 -11.2299 -11.2277 -11.2270 -11.2243
   -11.2233 -11.2201 -11.2190 -11.2183 -11.2169 -11.2150 -11.2106 -11.2098
   -11.2081 -11.2031 -11.2027 -11.1994 -11.1990 -11.1955 -11.1937 -11.1924
   -11.1894 -11.1836 -11.1799 -11.1793 -11.1766 -11.1759 -11.1738 -11.1724
   -11.1695 -11.1651 -11.1617 -11.1578 -11.1540 -11.1527 -11.1524 -11.1423
    -8.0456  -7.9186  -7.5338  -7.5332  -7.4832  -7.3082  -7.1389  -6.8829
    -6.3875  -6.3324  -6.3005  -6.2966  -6.2622  -6.0164  -5.9699  -1.5385
    -1.1505  -0.9892  -0.9799  -0.7582  -0.7148  -0.5701  -0.4494   0.2115
     0.3614   0.4016   0.4540   0.4891   0.5015   0.6457   0.8924   0.9868
     1.0440   1.3049   1.4807   1.5908   1.8422   2.3025   2.4089   5.1262
     5.1398   5.1650   5.1829   5.2975   5.4361   5.5086   5.5425   6.0375
     6.0922   6.1720   6.1987   6.3212   6.4615   6.4889   6.6678   6.7379
     6.8229   6.8654   6.9429   6.9835   7.0519   7.1555   7.1852   7.2189
     7.3604   7.4198   7.4832   7.5617   7.6265   7.6940   7.8150   7.9609
     8.0492   8.1241   8.2859   8.6230   8.6430   8.6749   8.7677   8.8899
     8.9124   8.9865   9.0589   9.0795   9.1864   9.2241   9.3087   9.5258
     9.5660   9.5960   9.6391   9.6737   9.7197   9.7230   9.7405   9.8052
     9.8561  10.0012  10.1165  10.1848  10.2222  10.3416  10.4149  10.6280
    10.6446  10.7480  10.8353  10.8438  11.3861

          k = 0.3333 0.3333 0.2129 ( 38419 PWs)   bands (ev):

   -34.9914 -34.9912 -34.9899 -34.9891 -34.9880 -34.9876 -34.9862 -34.9852
   -34.9774 -34.9763 -34.9758 -34.9755 -34.9745 -34.9737 -34.9734 -34.9725
   -34.9718 -34.9712 -34.9701 -34.9695 -34.9689 -34.9679 -34.9671 -34.9669
   -34.9663 -34.9649 -34.9648 -34.9640 -34.9629 -34.9603 -34.9601 -34.9598
   -34.9595 -34.9589 -34.9582 -34.9567 -34.9556 -34.9541 -34.9534 -34.9528
   -11.5258 -11.5210 -11.5116 -11.5115 -11.4811 -11.4759 -11.4735 -11.4628
   -11.4518 -11.4144 -11.4139 -11.4031 -11.3623 -11.3289 -11.3138 -11.3038
   -11.3027 -11.2997 -11.2989 -11.2920 -11.2894 -11.2878 -11.2818 -11.2809
   -11.2794 -11.2764 -11.2736 -11.2714 -11.2617 -11.2609 -11.2576 -11.2574
   -11.2544 -11.2504 -11.2503 -11.2468 -11.2463 -11.2436 -11.2425 -11.2369
   -11.2338 -11.2325 -11.2321 -11.2295 -11.2281 -11.2269 -11.2262 -11.2242
   -11.2226 -11.2188 -11.2178 -11.2168 -11.2160 -11.2135 -11.2113 -11.2098
   -11.2085 -11.2032 -11.2028 -11.2001 -11.1996 -11.1956 -11.1937 -11.1913
   -11.1891 -11.1836 -11.1802 -11.1797 -11.1770 -11.1761 -11.1747 -11.1729
   -11.1701 -11.1655 -11.1621 -11.1580 -11.1542 -11.1528 -11.1526 -11.1424
    -8.0452  -7.9191  -7.5337  -7.5321  -7.4843  -7.3083  -7.1389  -6.8830
    -6.3874  -6.3324  -6.3005  -6.2964  -6.2623  -6.0164  -5.9699  -1.4712
    -1.2476  -0.9460  -0.9329  -0.8082  -0.7789  -0.5467  -0.4749   0.2247
     0.3663   0.4294   0.4821   0.4947   0.5376   0.6427   0.8844   0.9509
     1.0295   1.3164   1.5354   1.5782   1.7904   2.3118   2.3945   5.1121
     5.1761   5.2000   5.2198   5.2648   5.3933   5.4681   5.4969   6.0887
     6.1837   6.2331   6.2730   6.3506   6.4030   6.4736   6.5915   6.6701
     6.8047   6.8843   6.9229   6.9457   6.9914   7.0490   7.0571   7.1882
     7.3257   7.4264   7.5767   7.6533   7.6703   7.7802   7.9000   8.0630
     8.1587   8.2123   8.3505   8.5525   8.5703   8.6537   8.7680   8.8265
     8.8653   8.8892   9.0131   9.0685   9.1698   9.2208   9.2695   9.4864
     9.5109   9.5860   9.6238   9.6910   9.7084   9.7809   9.8075   9.8383
     9.9871  10.0181  10.0641  10.1008  10.1686  10.3017  10.5242  10.6584
    10.6727  10.7313  10.8158  10.8227  11.4453

          k = 0.3333 0.3333-0.3194 ( 38412 PWs)   bands (ev):

   -34.9920 -34.9906 -34.9895 -34.9882 -34.9870 -34.9869 -34.9848 -34.9846
   -34.9764 -34.9759 -34.9750 -34.9750 -34.9748 -34.9738 -34.9735 -34.9724
   -34.9721 -34.9711 -34.9710 -34.9695 -34.9694 -34.9677 -34.9670 -34.9668
   -34.9664 -34.9662 -34.9653 -34.9635 -34.9613 -34.9608 -34.9598 -34.9597
   -34.9595 -34.9577 -34.9576 -34.9573 -34.9568 -34.9538 -34.9532 -34.9524
   -11.5256 -11.5210 -11.5115 -11.5114 -11.4814 -11.4747 -11.4746 -11.4630
   -11.4523 -11.4139 -11.4131 -11.4043 -11.3630 -11.3286 -11.3138 -11.3031
   -11.3019 -11.2994 -11.2989 -11.2918 -11.2908 -11.2874 -11.2817 -11.2804
   -11.2795 -11.2777 -11.2738 -11.2721 -11.2618 -11.2610 -11.2575 -11.2573
   -11.2547 -11.2505 -11.2500 -11.2476 -11.2469 -11.2441 -11.2429 -11.2369
   -11.2336 -11.2325 -11.2321 -11.2290 -11.2273 -11.2262 -11.2251 -11.2249
   -11.2218 -11.2183 -11.2172 -11.2159 -11.2153 -11.2130 -11.2120 -11.2098
   -11.2087 -11.2032 -11.2027 -11.2007 -11.1998 -11.1956 -11.1937 -11.1907
   -11.1889 -11.1837 -11.1804 -11.1799 -11.1772 -11.1761 -11.1752 -11.1731
   -11.1704 -11.1657 -11.1622 -11.1581 -11.1543 -11.1528 -11.1527 -11.1424
    -8.0449  -7.9193  -7.5336  -7.5316  -7.4848  -7.3083  -7.1389  -6.8831
    -6.3873  -6.3324  -6.3005  -6.2964  -6.2624  -6.0164  -5.9699  -1.3898
    -1.3427  -0.9088  -0.8677  -0.8530  -0.8479  -0.5248  -0.4979   0.2330
     0.3515   0.4335   0.4963   0.4980   0.6120   0.6380   0.8142   0.9944
     0.9968   1.3232   1.5709   1.5739   1.7534   2.3182   2.3856   5.1039
     5.2213   5.2242   5.2304   5.2382   5.3683   5.4472   5.4654   6.1352
     6.1956   6.2725   6.2900   6.4202   6.4296   6.4689   6.5148   6.6639
     6.6817   6.8299   6.9423   6.9619   6.9647   7.0007   7.0496   7.1805
     7.3263   7.4259   7.6030   7.6748   7.7228   7.8167   7.8551   8.1612
     8.2580   8.3316   8.4276   8.4443   8.5372   8.5793   8.7264   8.7733
     8.7989   8.8897   9.0361   9.0753   9.1242   9.2032   9.3573   9.3918
     9.4827   9.6067   9.6330   9.6611   9.7399   9.7496   9.8882   9.8997
     9.9469   9.9833  10.0767  10.1267  10.1942  10.2096  10.5783  10.6799
    10.7019  10.7077  10.8038  10.8043  11.4729

          k = 0.3333-0.5000 0.0000 ( 38342 PWs)   bands (ev):

   -34.9907 -34.9900 -34.9877 -34.9875 -34.9871 -34.9856 -34.9848 -34.9801
   -34.9760 -34.9746 -34.9730 -34.9728 -34.9722 -34.9709 -34.9709 -34.9693
   -34.9693 -34.9682 -34.9678 -34.9670 -34.9667 -34.9660 -34.9652 -34.9650
   -34.9640 -34.9622 -34.9622 -34.9614 -34.9594 -34.9581 -34.9569 -34.9564
   -34.9544 -34.9540 -34.9538 -34.9523 -34.9519 -34.9507 -34.9490 -34.9479
   -11.5227 -11.5185 -11.5176 -11.5147 -11.4795 -11.4690 -11.4677 -11.4503
   -11.4458 -11.4396 -11.3948 -11.3736 -11.3694 -11.3491 -11.3176 -11.3117
   -11.3079 -11.3017 -11.2956 -11.2952 -11.2879 -11.2842 -11.2779 -11.2779
   -11.2748 -11.2706 -11.2696 -11.2679 -11.2658 -11.2628 -11.2586 -11.2581
   -11.2505 -11.2503 -11.2474 -11.2468 -11.2462 -11.2425 -11.2416 -11.2390
   -11.2387 -11.2345 -11.2324 -11.2312 -11.2299 -11.2279 -11.2266 -11.2246
   -11.2231 -11.2219 -11.2196 -11.2182 -11.2182 -11.2129 -11.2119 -11.2101
   -11.2071 -11.2065 -11.2029 -11.2018 -11.1995 -11.1977 -11.1911 -11.1897
   -11.1891 -11.1854 -11.1827 -11.1818 -11.1782 -11.1771 -11.1722 -11.1718
   -11.1712 -11.1695 -11.1623 -11.1608 -11.1548 -11.1542 -11.1516 -11.1437
    -7.8336  -7.8101  -7.7995  -7.5925  -7.3679  -7.3487  -7.3353  -6.9343
    -6.3252  -6.3205  -6.2966  -6.1699  -6.1005  -6.1002  -6.0697  -1.3287
    -1.3143  -0.9827  -0.8792  -0.8222  -0.8098  -0.6144  -0.5535   0.3386
     0.3485   0.3622   0.3925   0.4643   0.5246   0.7719   0.8077   0.9854
     1.2015   1.3052   1.5246   1.8962   1.9853   2.0306   2.1818   5.0485
     5.0731   5.0935   5.0965   5.2971   5.3638   5.5202   5.5296   6.0212
     6.0504   6.3939   6.4755   6.5012   6.5209   6.5830   6.6283   6.6734
     6.7653   6.8086   6.8914   7.0441   7.0795   7.1529   7.1705   7.2066
     7.3646   7.4831   7.5105   7.5311   7.5337   7.5761   7.5946   7.6159
     8.0194   8.1258   8.2361   8.8094   8.8598   8.8715   8.9280   8.9836
     8.9875   9.0007   9.0187   9.1244   9.1442   9.1737   9.3186   9.3895
     9.4314   9.4994   9.5070   9.5843   9.6540   9.7305   9.7371   9.7524
    10.1770  10.1831  10.2522  10.2898  10.3661  10.3763  10.4022  10.4202
    10.4857  10.7291  10.7547  10.8500  11.3160

          k = 0.3333-0.5000 0.1065 ( 38374 PWs)   bands (ev):

   -34.9900 -34.9898 -34.9888 -34.9880 -34.9879 -34.9870 -34.9841 -34.9830
   -34.9766 -34.9762 -34.9745 -34.9741 -34.9740 -34.9725 -34.9710 -34.9706
   -34.9698 -34.9697 -34.9694 -34.9686 -34.9678 -34.9666 -34.9665 -34.9647
   -34.9646 -34.9637 -34.9629 -34.9619 -34.9615 -34.9596 -34.9587 -34.9576
   -34.9568 -34.9556 -34.9548 -34.9537 -34.9531 -34.9512 -34.9508 -34.9496
   -11.5225 -11.5184 -11.5175 -11.5146 -11.4797 -11.4692 -11.4679 -11.4498
   -11.4454 -11.4403 -11.3955 -11.3732 -11.3691 -11.3502 -11.3196 -11.3098
   -11.3071 -11.3011 -11.2954 -11.2947 -11.2879 -11.2854 -11.2782 -11.2779
   -11.2745 -11.2710 -11.2699 -11.2684 -11.2655 -11.2633 -11.2584 -11.2583
   -11.2508 -11.2503 -11.2483 -11.2469 -11.2461 -11.2421 -11.2420 -11.2393
   -11.2387 -11.2338 -11.2328 -11.2296 -11.2294 -11.2283 -11.2274 -11.2241
   -11.2233 -11.2212 -11.2193 -11.2173 -11.2167 -11.2126 -11.2117 -11.2101
   -11.2071 -11.2064 -11.2036 -11.2016 -11.1998 -11.1976 -11.1910 -11.1896
   -11.1890 -11.1856 -11.1827 -11.1820 -11.1784 -11.1771 -11.1725 -11.1722
   -11.1714 -11.1698 -11.1625 -11.1609 -11.1549 -11.1544 -11.1517 -11.1438
    -7.8327  -7.8101  -7.8004  -7.5926  -7.3672  -7.3487  -7.3361  -6.9344
    -6.3251  -6.3205  -6.2967  -6.1699  -6.1005  -6.1002  -6.0698  -1.3103
    -1.2914  -1.0095  -0.9183  -0.8096  -0.7946  -0.6300  -0.5732   0.3434
     0.3634   0.3768   0.4102   0.4678   0.5269   0.7556   0.7956   0.9898
     1.2221   1.3093   1.5089   1.8932   1.9897   2.0271   2.1715   5.0641
     5.0866   5.1019   5.1053   5.2814   5.3511   5.5010   5.5049   6.0589
     6.0849   6.3976   6.4903   6.5103   6.5208   6.5824   6.5827   6.6646
     6.7363   6.8310   6.8959   7.0488   7.0829   7.1351   7.1505   7.1647
     7.2787   7.3301   7.4188   7.4369   7.5656   7.6690   7.7273   7.8697
     8.0624   8.1534   8.2810   8.7562   8.8512   8.8596   8.8890   8.9778
     8.9807   9.0034   9.0153   9.0863   9.1552   9.1590   9.3505   9.4123
     9.4295   9.4737   9.5158   9.5901   9.6475   9.7420   9.7633   9.7853
    10.1010  10.1442  10.2179  10.2329  10.2991  10.3116  10.4597  10.4851
    10.5466  10.7545  10.7550  10.8608  11.3414

          k = 0.3333-0.5000 0.2129 ( 38406 PWs)   bands (ev):

   -34.9904 -34.9901 -34.9891 -34.9883 -34.9880 -34.9874 -34.9844 -34.9843
   -34.9775 -34.9769 -34.9759 -34.9748 -34.9745 -34.9738 -34.9722 -34.9716
   -34.9712 -34.9704 -34.9697 -34.9696 -34.9689 -34.9680 -34.9675 -34.9665
   -34.9662 -34.9653 -34.9648 -34.9631 -34.9619 -34.9603 -34.9596 -34.9592
   -34.9591 -34.9571 -34.9566 -34.9555 -34.9549 -34.9537 -34.9527 -34.9513
   -11.5222 -11.5180 -11.5173 -11.5145 -11.4802 -11.4696 -11.4683 -11.4484
   -11.4446 -11.4420 -11.3969 -11.3723 -11.3685 -11.3523 -11.3224 -11.3069
   -11.3053 -11.2998 -11.2950 -11.2937 -11.2880 -11.2878 -11.2790 -11.2785
   -11.2738 -11.2716 -11.2705 -11.2695 -11.2652 -11.2640 -11.2589 -11.2577
   -11.2519 -11.2499 -11.2492 -11.2471 -11.2467 -11.2419 -11.2418 -11.2401
   -11.2384 -11.2337 -11.2320 -11.2291 -11.2291 -11.2271 -11.2270 -11.2242
   -11.2230 -11.2194 -11.2185 -11.2156 -11.2147 -11.2119 -11.2116 -11.2100
   -11.2070 -11.2063 -11.2049 -11.2016 -11.2004 -11.1974 -11.1907 -11.1896
   -11.1884 -11.1859 -11.1827 -11.1824 -11.1787 -11.1772 -11.1733 -11.1731
   -11.1718 -11.1703 -11.1629 -11.1611 -11.1550 -11.1547 -11.1519 -11.1439
    -7.8308  -7.8099  -7.8024  -7.5928  -7.3657  -7.3487  -7.3376  -6.9345
    -6.3249  -6.3205  -6.2968  -6.1699  -6.1005  -6.1002  -6.0698  -1.2601
    -1.2256  -1.0748  -1.0139  -0.7799  -0.7521  -0.6666  -0.6247   0.3469
     0.3661   0.4229   0.4375   0.5029   0.5446   0.7095   0.7655   0.9986
     1.2719   1.3175   1.4686   1.8868   2.0006   2.0203   2.1487   5.0935
     5.0968   5.1341   5.1515   5.2413   5.3239   5.4455   5.4571   6.1574
     6.1798   6.4017   6.4591   6.4961   6.5082   6.5784   6.5820   6.6517
     6.7005   6.8717   6.9091   6.9428   6.9948   7.0867   7.1174   7.1374
     7.2075   7.2742   7.3721   7.3828   7.5994   7.7287   7.8579   8.1637
     8.2037   8.2695   8.3708   8.6170   8.7408   8.7679   8.8674   8.9208
     8.9583   9.0057   9.0156   9.0164   9.1827   9.2064   9.3315   9.3901
     9.4834   9.5520   9.5622   9.6195   9.6197   9.7174   9.8482   9.8832
     9.9126   9.9598  10.1307  10.1489  10.3118  10.3393  10.4689  10.4963
    10.6357  10.7501  10.7866  10.8826  11.3941

          k = 0.3333-0.5000-0.3194 ( 38396 PWs)   bands (ev):

   -34.9895 -34.9894 -34.9881 -34.9874 -34.9860 -34.9855 -34.9843 -34.9837
   -34.9757 -34.9752 -34.9747 -34.9743 -34.9734 -34.9730 -34.9721 -34.9721
   -34.9709 -34.9703 -34.9696 -34.9693 -34.9682 -34.9673 -34.9673 -34.9659
   -34.9649 -34.9647 -34.9634 -34.9634 -34.9617 -34.9611 -34.9592 -34.9586
   -34.9583 -34.9581 -34.9575 -34.9558 -34.9554 -34.9551 -34.9550 -34.9531
   -11.5220 -11.5179 -11.5172 -11.5144 -11.4804 -11.4698 -11.4685 -11.4473
   -11.4442 -11.4432 -11.3976 -11.3718 -11.3682 -11.3533 -11.3235 -11.3054
   -11.3044 -11.2991 -11.2949 -11.2932 -11.2894 -11.2878 -11.2795 -11.2789
   -11.2734 -11.2720 -11.2708 -11.2699 -11.2651 -11.2643 -11.2591 -11.2574
   -11.2524 -11.2498 -11.2494 -11.2473 -11.2471 -11.2421 -11.2418 -11.2401
   -11.2381 -11.2341 -11.2312 -11.2295 -11.2294 -11.2259 -11.2257 -11.2253
   -11.2226 -11.2186 -11.2179 -11.2145 -11.2140 -11.2120 -11.2114 -11.2096
   -11.2069 -11.2062 -11.2056 -11.2017 -11.2006 -11.1974 -11.1905 -11.1896
   -11.1880 -11.1861 -11.1827 -11.1826 -11.1789 -11.1772 -11.1737 -11.1736
   -11.1720 -11.1705 -11.1631 -11.1612 -11.1551 -11.1549 -11.1519 -11.1439
    -7.8297  -7.8098  -7.8035  -7.5929  -7.3649  -7.3487  -7.3385  -6.9345
    -6.3248  -6.3205  -6.2969  -6.1699  -6.1005  -6.1002  -6.0698  -1.2129
    -1.1313  -1.1290  -1.1223  -0.7567  -0.6954  -0.6932  -0.6858   0.3485
     0.3675   0.4312   0.4452   0.5543   0.5641   0.6667   0.7452   1.0030
     1.3071   1.3216   1.4380   1.8832   2.0076   2.0171   2.1357   5.1004
     5.1065   5.1820   5.1884   5.1952   5.3073   5.4069   5.4314   6.2379
     6.2798   6.3603   6.3827   6.4774   6.5039   6.5502   6.6324   6.7022
     6.7217   6.7605   6.9046   6.9365   6.9387   7.0323   7.1230   7.1440
     7.1809   7.2699   7.3655   7.3781   7.6026   7.7468   7.8938   8.3053
     8.3878   8.4316   8.4398   8.5009   8.5427   8.6247   8.8596   8.8998
     8.9434   9.0050   9.0132   9.0187   9.2032   9.2649   9.3014   9.3184
     9.5542   9.5710   9.6647   9.6699   9.6707   9.7300   9.7419   9.7536
     9.9581   9.9885  10.0222  10.0483  10.3578  10.4020  10.4422  10.4605
    10.6791  10.7427  10.7969  10.8926  11.4220

          k =-0.5000-0.5000 0.0000 ( 38348 PWs)   bands (ev):

   -34.9878 -34.9877 -34.9872 -34.9865 -34.9865 -34.9855 -34.9847 -34.9835
   -34.9741 -34.9741 -34.9725 -34.9723 -34.9715 -34.9712 -34.9707 -34.9707
   -34.9693 -34.9680 -34.9680 -34.9679 -34.9679 -34.9658 -34.9658 -34.9655
   -34.9647 -34.9629 -34.9629 -34.9623 -34.9611 -34.9606 -34.9606 -34.9564
   -34.9547 -34.9547 -34.9541 -34.9537 -34.9532 -34.9502 -34.9500 -34.9500
   -11.5228 -11.5186 -11.5186 -11.5156 -11.4799 -11.4683 -11.4683 -11.4428
   -11.4081 -11.4081 -11.4066 -11.4061 -11.3591 -11.3526 -11.3526 -11.3081
   -11.3049 -11.3049 -11.2977 -11.2823 -11.2823 -11.2823 -11.2815 -11.2729
   -11.2729 -11.2723 -11.2705 -11.2647 -11.2643 -11.2635 -11.2634 -11.2626
   -11.2513 -11.2512 -11.2446 -11.2439 -11.2438 -11.2419 -11.2400 -11.2395
   -11.2371 -11.2351 -11.2351 -11.2291 -11.2291 -11.2285 -11.2283 -11.2264
   -11.2249 -11.2243 -11.2243 -11.2202 -11.2174 -11.2132 -11.2092 -11.2092
   -11.2067 -11.2051 -11.2051 -11.2040 -11.2008 -11.1928 -11.1927 -11.1927
   -11.1872 -11.1860 -11.1860 -11.1823 -11.1779 -11.1753 -11.1753 -11.1741
   -11.1688 -11.1688 -11.1684 -11.1660 -11.1549 -11.1539 -11.1539 -11.1454
    -7.6427  -7.6214  -7.6166  -7.6165  -7.5981  -7.5639  -7.5639  -6.9833
    -6.1873  -6.1833  -6.1808  -6.1808  -6.1607  -6.1489  -6.1489  -1.1119
    -1.1066  -1.1066  -1.0878  -0.8826  -0.7443  -0.7443  -0.7142   0.3236
     0.3856   0.3856   0.4330   0.5334   0.6277   0.6277   0.6957   0.9821
     1.6242   1.6601   1.6601   1.7025   1.8387   1.9426   1.9426   4.9630
     5.0100   5.0170   5.0170   5.3029   5.3938   5.4617   5.4617   6.3794
     6.4730   6.5018   6.5018   6.5293   6.5826   6.5826   6.6232   6.6337
     6.8061   6.8996   6.8997   6.9456   6.9625   6.9626   7.0241   7.0843
     7.2624   7.3198   7.3198   7.4697   7.5221   7.5740   7.5740   7.5778
     8.0766   8.0766   8.2579   9.0216   9.0216   9.0241   9.0435   9.0482
     9.0482   9.0562   9.0702   9.0976   9.1801   9.2048   9.2048   9.2439
     9.3808   9.4439   9.4439   9.4709   9.4730   9.5871   9.5871   9.6134
    10.3118  10.3119  10.3896  10.4508  10.4866  10.5664  10.5664  10.5736
    10.6399  10.7881  10.7881  10.8764  11.1049

          k =-0.5000-0.5000 0.1065 ( 38456 PWs)   bands (ev):

   -34.9913 -34.9913 -34.9903 -34.9897 -34.9897 -34.9889 -34.9883 -34.9867
   -34.9788 -34.9787 -34.9777 -34.9771 -34.9765 -34.9753 -34.9753 -34.9748
   -34.9737 -34.9715 -34.9713 -34.9713 -34.9697 -34.9691 -34.9691 -34.9690
   -34.9679 -34.9679 -34.9678 -34.9658 -34.9657 -34.9642 -34.9642 -34.9609
   -34.9597 -34.9585 -34.9585 -34.9572 -34.9566 -34.9529 -34.9529 -34.9518
   -11.5227 -11.5185 -11.5185 -11.5156 -11.4801 -11.4685 -11.4685 -11.4428
   -11.4077 -11.4077 -11.4063 -11.4062 -11.3600 -11.3534 -11.3534 -11.3072
   -11.3041 -11.3041 -11.2971 -11.2834 -11.2824 -11.2824 -11.2819 -11.2737
   -11.2737 -11.2716 -11.2706 -11.2659 -11.2638 -11.2633 -11.2633 -11.2627
   -11.2514 -11.2513 -11.2447 -11.2440 -11.2440 -11.2432 -11.2395 -11.2385
   -11.2381 -11.2349 -11.2349 -11.2308 -11.2297 -11.2297 -11.2265 -11.2255
   -11.2245 -11.2228 -11.2228 -11.2202 -11.2162 -11.2130 -11.2092 -11.2091
   -11.2066 -11.2052 -11.2052 -11.2044 -11.2010 -11.1926 -11.1926 -11.1925
   -11.1872 -11.1861 -11.1861 -11.1822 -11.1779 -11.1756 -11.1756 -11.1745
   -11.1691 -11.1691 -11.1688 -11.1661 -11.1551 -11.1540 -11.1540 -11.1455
    -7.6414  -7.6228  -7.6161  -7.6160  -7.5981  -7.5645  -7.5644  -6.9834
    -6.1872  -6.1833  -6.1808  -6.1808  -6.1608  -6.1490  -6.1489  -1.1028
    -1.0868  -1.0868  -1.0676  -0.8936  -0.7748  -0.7748  -0.7465   0.3453
     0.4034   0.4034   0.4356   0.5264   0.6233   0.6233   0.6942   0.9816
     1.6351   1.6686   1.6686   1.7039   1.8247   1.9308   1.9309   4.9832
     5.0266   5.0330   5.0330   5.2789   5.3723   5.4420   5.4420   6.4009
     6.5035   6.5175   6.5175   6.5421   6.5944   6.6051   6.6052   6.6876
     6.7721   6.8380   6.8380   6.9687   7.0016   7.0016   7.0058   7.0757
     7.1509   7.1843   7.1844   7.2490   7.5277   7.6819   7.6819   7.8790
     8.1367   8.1367   8.2867   8.9616   8.9640   8.9640   9.0426   9.0469
     9.0469   9.0495   9.0598   9.0947   9.2009   9.2268   9.2268   9.2690
     9.4326   9.4521   9.4950   9.4950   9.5279   9.5597   9.5597   9.5880
    10.2447  10.2447  10.2603  10.3612  10.5581  10.5647  10.5647  10.5818
    10.6550  10.7764  10.7764  10.8612  11.1470

          k =-0.5000-0.5000 0.2129 ( 38352 PWs)   bands (ev):

   -34.9876 -34.9875 -34.9873 -34.9859 -34.9858 -34.9845 -34.9842 -34.9831
   -34.9737 -34.9737 -34.9726 -34.9724 -34.9713 -34.9695 -34.9695 -34.9695
   -34.9690 -34.9682 -34.9682 -34.9665 -34.9665 -34.9657 -34.9655 -34.9655
   -34.9645 -34.9635 -34.9635 -34.9628 -34.9592 -34.9592 -34.9589 -34.9574
   -34.9561 -34.9549 -34.9549 -34.9548 -34.9543 -34.9523 -34.9523 -34.9515
   -11.5224 -11.5182 -11.5182 -11.5154 -11.4804 -11.4688 -11.4688 -11.4427
   -11.4071 -11.4071 -11.4068 -11.4053 -11.3618 -11.3551 -11.3551 -11.3050
   -11.3024 -11.3024 -11.2957 -11.2863 -11.2825 -11.2825 -11.2819 -11.2753
   -11.2752 -11.2707 -11.2703 -11.2678 -11.2631 -11.2628 -11.2628 -11.2627
   -11.2515 -11.2515 -11.2449 -11.2443 -11.2441 -11.2441 -11.2411 -11.2376
   -11.2365 -11.2350 -11.2350 -11.2332 -11.2295 -11.2295 -11.2255 -11.2241
   -11.2231 -11.2204 -11.2204 -11.2203 -11.2138 -11.2126 -11.2091 -11.2090
   -11.2065 -11.2055 -11.2055 -11.2049 -11.2015 -11.1923 -11.1923 -11.1918
   -11.1875 -11.1865 -11.1865 -11.1817 -11.1780 -11.1761 -11.1761 -11.1753
   -11.1697 -11.1696 -11.1696 -11.1661 -11.1556 -11.1541 -11.1541 -11.1456
    -7.6378  -7.6263  -7.6149  -7.6149  -7.5980  -7.5656  -7.5655  -6.9834
    -6.1872  -6.1833  -6.1807  -6.1807  -6.1609  -6.1490  -6.1490  -1.0810
    -1.0305  -1.0305  -1.0099  -0.9191  -0.8514  -0.8514  -0.8271   0.3943
     0.4404   0.4405   0.4411   0.5055   0.6122   0.6122   0.6914   0.9807
     1.6648   1.6887   1.6887   1.7067   1.7892   1.9044   1.9044   5.0385
     5.0677   5.0711   5.0711   5.2174   5.3226   5.3978   5.3978   6.4408
     6.5649   6.5649   6.5732   6.6009   6.6183   6.6658   6.6658   6.7092
     6.7500   6.7510   6.7510   6.9446   6.9632   6.9907   6.9911   6.9911
     7.0137   7.0434   7.0435   7.0809   7.5756   7.7779   7.7779   8.2112
     8.3181   8.3181   8.3552   8.7857   8.8059   8.8059   9.0167   9.0423
     9.0464   9.0464   9.0565   9.0926   9.2479   9.2898   9.2898   9.3368
     9.3960   9.4846   9.4846   9.5203   9.5878   9.6405   9.6405   9.6812
    10.0508  10.0679  10.0679  10.1493  10.5723  10.5724  10.5835  10.6296
    10.6976  10.7543  10.7543  10.8179  11.2435

          k =-0.5000-0.5000-0.3194 ( 38448 PWs)   bands (ev):

   -34.9889 -34.9888 -34.9887 -34.9874 -34.9869 -34.9869 -34.9859 -34.9837
   -34.9769 -34.9769 -34.9766 -34.9757 -34.9755 -34.9750 -34.9750 -34.9734
   -34.9717 -34.9713 -34.9712 -34.9700 -34.9692 -34.9691 -34.9691 -34.9681
   -34.9680 -34.9679 -34.9673 -34.9673 -34.9626 -34.9626 -34.9625 -34.9617
   -34.9616 -34.9615 -34.9599 -34.9598 -34.9594 -34.9584 -34.9583 -34.9569
   -11.5222 -11.5181 -11.5181 -11.5153 -11.4806 -11.4690 -11.4690 -11.4428
   -11.4071 -11.4068 -11.4068 -11.4049 -11.3627 -11.3560 -11.3560 -11.3038
   -11.3016 -11.3016 -11.2950 -11.2880 -11.2826 -11.2826 -11.2819 -11.2761
   -11.2761 -11.2708 -11.2697 -11.2687 -11.2629 -11.2627 -11.2626 -11.2626
   -11.2516 -11.2515 -11.2450 -11.2447 -11.2442 -11.2442 -11.2419 -11.2372
   -11.2355 -11.2353 -11.2353 -11.2343 -11.2291 -11.2291 -11.2258 -11.2233
   -11.2222 -11.2204 -11.2194 -11.2194 -11.2128 -11.2124 -11.2091 -11.2090
   -11.2066 -11.2056 -11.2056 -11.2049 -11.2019 -11.1921 -11.1920 -11.1915
   -11.1878 -11.1867 -11.1867 -11.1813 -11.1780 -11.1764 -11.1764 -11.1758
   -11.1702 -11.1699 -11.1698 -11.1661 -11.1558 -11.1542 -11.1541 -11.1456
    -7.6347  -7.6295  -7.6144  -7.6144  -7.5980  -7.5662  -7.5661  -6.9835
    -6.1871  -6.1833  -6.1807  -6.1807  -6.1609  -6.1491  -6.1491  -1.0671
    -0.9584  -0.9584  -0.9348  -0.9333  -0.9333  -0.9287  -0.9191   0.4288
     0.4438   0.4603   0.4603   0.4844   0.6046   0.6047   0.6899   0.9802
     1.6897   1.7010   1.7010   1.7081   1.7613   1.8888   1.8888   5.0923
     5.0941   5.0941   5.0952   5.1599   5.2904   5.3710   5.3710   6.4540
     6.6171   6.6248   6.6248   6.6450   6.6522   6.6522   6.7153   6.7193
     6.7555   6.7563   6.7563   6.7672   6.8794   6.8794   6.8831   6.9345
     7.0379   7.0527   7.0527   7.0569   7.5864   7.8041   7.8041   8.3943
     8.5143   8.5143   8.5149   8.5312   8.6239   8.6239   8.9946   9.0420
     9.0461   9.0461   9.0559   9.0917   9.2812   9.3606   9.3610   9.3611
     9.4083   9.4083   9.4250   9.4317   9.7488   9.8235   9.8235   9.8683
     9.8683   9.8700   9.8993   9.9060  10.5795  10.5795  10.5892  10.6496
    10.7425  10.7425  10.7526  10.7619  11.3012

     highest occupied level (ev):    11.7073

!    total energy              =   -5043.04339669 Ry
     estimated scf accuracy    <          3.9E-11 Ry

     The total energy is the sum of the following terms:
     one-electron contribution =   -1655.00720024 Ry
     hartree contribution      =    1098.43039966 Ry
     xc contribution           =   -1185.61338234 Ry
     ewald contribution        =   -3300.85321377 Ry

     convergence has been achieved in  20 iterations

     Forces acting on atoms (cartesian axes, Ry/au):

     atom    1 type  1   force =     0.00000000   -0.00040231   -0.00596755
     atom    2 type  1   force =     0.00000000    0.00017746    0.00459340
     atom    3 type  1   force =    -0.00017746    0.00000000   -0.00459340
     atom    4 type  1   force =     0.00040231    0.00000000    0.00596755
     atom    5 type  1   force =     0.00000000    0.00040231   -0.00596755
     atom    6 type  1   force =     0.00000000   -0.00017746    0.00459340
     atom    7 type  1   force =     0.00000000    0.00387023   -0.00236181
     atom    8 type  1   force =     0.00000000    0.00005971    0.00431546
     atom    9 type  1   force =    -0.00005971    0.00000000   -0.00431546
     atom   10 type  1   force =    -0.00387023    0.00000000    0.00236181
     atom   11 type  1   force =     0.00017746    0.00000000   -0.00459340
     atom   12 type  1   force =    -0.00040231    0.00000000    0.00596755
     atom   13 type  1   force =     0.00000000   -0.00387023   -0.00236181
     atom   14 type  1   force =     0.00000000   -0.00005971    0.00431546
     atom   15 type  1   force =     0.00005971    0.00000000   -0.00431546
     atom   16 type  1   force =     0.00387023    0.00000000    0.00236181
     atom   17 type  3   force =     0.00000000   -0.00107020    0.00120174
     atom   18 type  3   force =     0.00107020    0.00000000   -0.00120174
     atom   19 type  3   force =     0.00000000    0.00107020    0.00120174
     atom   20 type  3   force =     0.00000000   -0.00039398   -0.00096181
     atom   21 type  3   force =     0.00039398    0.00000000    0.00096181
     atom   22 type  3   force =    -0.00107020    0.00000000   -0.00120174
     atom   23 type  3   force =     0.00000000    0.00039398   -0.00096181
     atom   24 type  3   force =    -0.00039398    0.00000000    0.00096181
     atom   25 type  2   force =     0.00000000    0.00000000    0.00000000
     atom   26 type  2   force =     0.00000000    0.00000000   -0.00047693
     atom   27 type  2   force =     0.00000000    0.00000000    0.00032482
     atom   28 type  2   force =     0.00000000    0.00000000    0.00000000
     atom   29 type  2   force =    -0.00034857   -0.00034857   -0.00000000
     atom   30 type  2   force =    -0.00014011    0.00014011    0.00000000
     atom   31 type  2   force =     0.00034857   -0.00034857   -0.00000000
     atom   32 type  2   force =     0.00014011    0.00014011    0.00000000
     atom   33 type  2   force =    -0.00014011   -0.00014011    0.00000000
     atom   34 type  2   force =     0.00034857    0.00034857   -0.00000000
     atom   35 type  2   force =     0.00000000    0.00000000   -0.00032482
     atom   36 type  2   force =     0.00000000    0.00000000    0.00047693
     atom   37 type  2   force =     0.00000000    0.00000000    0.00000000
     atom   38 type  2   force =     0.00014011   -0.00014011    0.00000000
     atom   39 type  2   force =    -0.00034857    0.00034857   -0.00000000

     Total force =     0.020021     Total SCF correction =     0.000043


     Computing stress (Cartesian axis) and pressure

          total   stress  (Ry/bohr**3)                   (kbar)     P=     -298.27
  -0.00203279   0.00000000   0.00000000         -299.03        0.00        0.00
   0.00000000  -0.00203279   0.00000000            0.00     -299.03        0.00
   0.00000000   0.00000000  -0.00201723            0.00        0.00     -296.74


     Writing all to output data dir ./out/v.save/ :
     XML data file, charge density, pseudopotentials, collected wavefunctions
 
     init_run     :     17.41s CPU     17.81s WALL (       1 calls)
     electrons    :   1089.95s CPU   1098.27s WALL (       1 calls)
     forces       :     10.03s CPU     10.04s WALL (       1 calls)
     stress       :    414.24s CPU    414.30s WALL (       1 calls)

     Called by init_run:
     wfcinit      :     16.96s CPU     17.32s WALL (       1 calls)
     potinit      :      0.02s CPU      0.02s WALL (       1 calls)
     hinit0       :      0.08s CPU      0.09s WALL (       1 calls)

     Called by electrons:
     c_bands      :   1012.76s CPU   1019.89s WALL (      20 calls)
     sum_band     :     76.54s CPU     77.58s WALL (      20 calls)
     v_of_rho     :      0.20s CPU      0.21s WALL (      21 calls)
     mix_rho      :      0.21s CPU      0.23s WALL (      20 calls)

     Called by c_bands:
     init_us_2    :      7.50s CPU      7.52s WALL (    1720 calls)
     cegterg      :    961.61s CPU    967.77s WALL (     800 calls)

     Called by *egterg:
     cdiaghg      :    249.51s CPU    250.65s WALL (    4246 calls)
     h_psi        :    493.50s CPU    498.26s WALL (    4286 calls)
     g_psi        :      3.37s CPU      3.38s WALL (    3446 calls)

     Called by h_psi:
     h_psi:calbec :     90.92s CPU     90.99s WALL (    4286 calls)
     vloc_psi     :    314.52s CPU    319.09s WALL (    4286 calls)
     add_vuspsi   :     86.28s CPU     86.36s WALL (    4286 calls)

     General routines
     calbec       :    103.83s CPU    103.91s WALL (    4486 calls)
     fft          :      0.33s CPU      0.34s WALL (     110 calls)
     ffts         :      0.03s CPU      0.03s WALL (      41 calls)
     fftw         :    321.77s CPU    326.22s WALL ( 1113618 calls)
     interpolate  :      0.07s CPU      0.07s WALL (      21 calls)
 
     Parallel routines
 
     PWSCF        :  25m38.54s CPU  25m53.16s WALL

 
   This run was terminated on:   2:12:22  25Aug2026            

=------------------------------------------------------------------------------=
   JOB DONE.
=------------------------------------------------------------------------------=
