Attaching 17946 to 984585.pbshpc
Attaching 11086 to 984585.pbshpc
Attaching 20989 to 984585.pbshpc

     Program PWSCF v.7.3.1 starts on 13Aug2026 at 22:52: 1 

     This program is part of the open-source Quantum ESPRESSO suite
     for quantum simulation of materials; please cite
         "P. Giannozzi et al., J. Phys.:Condens. Matter 21 395502 (2009);
         "P. Giannozzi et al., J. Phys.:Condens. Matter 29 465901 (2017);
         "P. Giannozzi et al., J. Chem. Phys. 152 154105 (2020);
          URL http://www.quantum-espresso.org", 
     in publications or presentations arising from this work. More details at
     http://www.quantum-espresso.org/quote

     Parallel version (MPI & OpenMP), running on      64 processor cores
     Number of MPI processes:                64
     Threads/MPI process:                     1

     MPI processes distributed on     4 nodes
     44988 MiB available memory on the printing compute node when the environment starts
 
     Waiting for input...
     Reading input from standard input

     Current dimensions of program PWSCF are:
     Max number of different atomic species (ntypx) = 10
     Max number of k-points (npk) =  40000
     Max angular momentum in pseudopotentials (lmaxx) =  4
     file Bi.pbesol-dn-kjpaw_psl.1.0.0.UPF: wavefunction(s)  6P 5D renormalized
     file O.pbesol-n-kjpaw_psl.1.0.0.UPF: wavefunction(s)  2S 2P renormalized
     file Se.pbesol-dn-kjpaw_psl.1.0.0.UPF: wavefunction(s)  4S 4P 3D renormalized
     Found identity + (  0.2500  0.2500  0.5000) symmetry
     This is a supercell, fractional translations are disabled
     Message from routine setup:
     using ibrav=0 with symmetry is DISCOURAGED, use correct ibrav instead
 
     K-points division:     npool     =       4
     R & G space division:  proc/nbgrp/npool/nimage =      16
     Subspace diagonalization in iterative solution of the eigenvalue problem:
     one sub-group per band group will be used
     scalapack distributed-memory algorithm (size of sub-group:  2*  2 procs)

 
     Parallelization info
     --------------------
     sticks:   dense  smooth     PW     G-vecs:    dense   smooth      PW
     Min         424     212     58                41245    14589    2092
     Max         426     214     59                41250    14594    2095
     Sum        6793    3397    941               659969   233475   33497
 
     Using Slab Decomposition
 


     bravais-lattice index     =            0
     lattice parameter (alat)  =      14.6148  a.u.
     unit-cell volume          =    4887.0940 (a.u.)^3
     number of atoms/cell      =           40
     number of atomic types    =            3
     number of electrons       =       464.00
     number of Kohn-Sham states=          232
     kinetic-energy cutoff     =      50.0000  Ry
     charge density cutoff     =     400.0000  Ry
     scf convergence threshold =      8.0E-09
     mixing beta               =       0.4000
     number of iterations used =            8  plain     mixing
     energy convergence thresh.=      1.0E-04
     force convergence thresh. =      1.0E-02
     press convergence thresh. =      5.0E-01
     Exchange-correlation= SLA  PW   PSX  PSC
                           (   1   4  10   8   0   0   0)
     nstep                     =           50


     celldm(1)=  14.614797  celldm(2)=   0.000000  celldm(3)=   0.000000
     celldm(4)=   0.000000  celldm(5)=   0.000000  celldm(6)=   0.000000

     crystal axes: (cart. coord. in units of alat)
               a(1) = (   1.000000   0.000000   0.000000 )  
               a(2) = (   0.000000   1.000000   0.000000 )  
               a(3) = (   0.000000   0.000000   1.565570 )  

     reciprocal axes: (cart. coord. in units 2 pi/alat)
               b(1) = (  1.000000  0.000000  0.000000 )  
               b(2) = (  0.000000  1.000000  0.000000 )  
               b(3) = (  0.000000  0.000000  0.638745 )  


     PseudoPot. # 1 for Bi read from file:
     ./Bi.pbesol-dn-kjpaw_psl.1.0.0.UPF
     MD5 check sum: 7be8f0579536e02bffb20a5e6d7f8f09
     Pseudo is Projector augmented-wave + core cor, Zval = 15.0
     Generated using 'atomic' code by A. Dal Corso  v.7.5
     Shape of augmentation charge: PSQ
     Using radial grid of 1283 points,  6 beta functions with: 
                l(1) =   0
                l(2) =   0
                l(3) =   1
                l(4) =   1
                l(5) =   2
                l(6) =   2
     Q(r) pseudized with 0 coefficients 


     PseudoPot. # 2 for O  read from file:
     ./O.pbesol-n-kjpaw_psl.1.0.0.UPF
     MD5 check sum: 0da0a744fc221d9787b91fb8f66090a3
     Pseudo is Projector augmented-wave + core cor, Zval =  6.0
     Generated using 'atomic' code by A. Dal Corso  v.7.5
     Shape of augmentation charge: PSQ
     Using radial grid of 1095 points,  4 beta functions with: 
                l(1) =   0
                l(2) =   0
                l(3) =   1
                l(4) =   1
     Q(r) pseudized with 0 coefficients 


     PseudoPot. # 3 for Se read from file:
     ./Se.pbesol-dn-kjpaw_psl.1.0.0.UPF
     MD5 check sum: d41405d669a01b338432c3f197775ddd
     Pseudo is Projector augmented-wave + core cor, Zval = 16.0
     Generated using 'atomic' code by A. Dal Corso  v.7.5
     Shape of augmentation charge: PSQ
     Using radial grid of 1211 points,  6 beta functions with: 
                l(1) =   0
                l(2) =   0
                l(3) =   1
                l(4) =   1
                l(5) =   2
                l(6) =   2
     Q(r) pseudized with 0 coefficients 


     atomic species   valence    mass     pseudopotential
     Bi               15.00   208.98040     Bi( 1.00)
     O                 6.00    15.99940     O ( 1.00)
     Se               16.00    78.96000     Se( 1.00)

     16 Sym. Ops., with inversion, found


                                    s                        frac. trans.

      isym =  1     identity                                     

 cryst.   s( 1) = (     1          0          0      )
                  (     0          1          0      )
                  (     0          0          1      )

 cart.    s( 1) = (  1.0000000  0.0000000  0.0000000 )
                  (  0.0000000  1.0000000  0.0000000 )
                  (  0.0000000  0.0000000  1.0000000 )


      isym =  2     180 deg rotation - cart. axis [0,0,1]        

 cryst.   s( 2) = (    -1          0          0      )
                  (     0         -1          0      )
                  (     0          0          1      )

 cart.    s( 2) = ( -1.0000000  0.0000000  0.0000000 )
                  (  0.0000000 -1.0000000  0.0000000 )
                  (  0.0000000  0.0000000  1.0000000 )


      isym =  3     180 deg rotation - cart. axis [0,1,0]        

 cryst.   s( 3) = (    -1          0          0      )
                  (     0          1          0      )
                  (     0          0         -1      )

 cart.    s( 3) = ( -1.0000000  0.0000000  0.0000000 )
                  (  0.0000000  1.0000000  0.0000000 )
                  (  0.0000000  0.0000000 -1.0000000 )


      isym =  4     180 deg rotation - cart. axis [1,0,0]        

 cryst.   s( 4) = (     1          0          0      )
                  (     0         -1          0      )
                  (     0          0         -1      )

 cart.    s( 4) = (  1.0000000  0.0000000  0.0000000 )
                  (  0.0000000 -1.0000000  0.0000000 )
                  (  0.0000000  0.0000000 -1.0000000 )


      isym =  5     180 deg rotation - cart. axis [1,1,0]        

 cryst.   s( 5) = (     0          1          0      )
                  (     1          0          0      )
                  (     0          0         -1      )

 cart.    s( 5) = (  0.0000000  1.0000000  0.0000000 )
                  (  1.0000000  0.0000000  0.0000000 )
                  (  0.0000000  0.0000000 -1.0000000 )


      isym =  6     180 deg rotation - cart. axis [1,-1,0]       

 cryst.   s( 6) = (     0         -1          0      )
                  (    -1          0          0      )
                  (     0          0         -1      )

 cart.    s( 6) = (  0.0000000 -1.0000000  0.0000000 )
                  ( -1.0000000  0.0000000  0.0000000 )
                  (  0.0000000  0.0000000 -1.0000000 )


      isym =  7      90 deg rotation - cart. axis [0,0,-1]       

 cryst.   s( 7) = (     0         -1          0      )
                  (     1          0          0      )
                  (     0          0          1      )

 cart.    s( 7) = (  0.0000000  1.0000000  0.0000000 )
                  ( -1.0000000  0.0000000  0.0000000 )
                  (  0.0000000  0.0000000  1.0000000 )


      isym =  8      90 deg rotation - cart. axis [0,0,1]        

 cryst.   s( 8) = (     0          1          0      )
                  (    -1          0          0      )
                  (     0          0          1      )

 cart.    s( 8) = (  0.0000000 -1.0000000  0.0000000 )
                  (  1.0000000  0.0000000  0.0000000 )
                  (  0.0000000  0.0000000  1.0000000 )


      isym =  9     inversion                                    

 cryst.   s( 9) = (    -1          0          0      )
                  (     0         -1          0      )
                  (     0          0         -1      )

 cart.    s( 9) = ( -1.0000000  0.0000000  0.0000000 )
                  (  0.0000000 -1.0000000  0.0000000 )
                  (  0.0000000  0.0000000 -1.0000000 )


      isym = 10     inv. 180 deg rotation - cart. axis [0,0,1]   

 cryst.   s(10) = (     1          0          0      )
                  (     0          1          0      )
                  (     0          0         -1      )

 cart.    s(10) = (  1.0000000  0.0000000  0.0000000 )
                  (  0.0000000  1.0000000  0.0000000 )
                  (  0.0000000  0.0000000 -1.0000000 )


      isym = 11     inv. 180 deg rotation - cart. axis [0,1,0]   

 cryst.   s(11) = (     1          0          0      )
                  (     0         -1          0      )
                  (     0          0          1      )

 cart.    s(11) = (  1.0000000  0.0000000  0.0000000 )
                  (  0.0000000 -1.0000000  0.0000000 )
                  (  0.0000000  0.0000000  1.0000000 )


      isym = 12     inv. 180 deg rotation - cart. axis [1,0,0]   

 cryst.   s(12) = (    -1          0          0      )
                  (     0          1          0      )
                  (     0          0          1      )

 cart.    s(12) = ( -1.0000000  0.0000000  0.0000000 )
                  (  0.0000000  1.0000000  0.0000000 )
                  (  0.0000000  0.0000000  1.0000000 )


      isym = 13     inv. 180 deg rotation - cart. axis [1,1,0]   

 cryst.   s(13) = (     0         -1          0      )
                  (    -1          0          0      )
                  (     0          0          1      )

 cart.    s(13) = (  0.0000000 -1.0000000  0.0000000 )
                  ( -1.0000000  0.0000000  0.0000000 )
                  (  0.0000000  0.0000000  1.0000000 )


      isym = 14     inv. 180 deg rotation - cart. axis [1,-1,0]  

 cryst.   s(14) = (     0          1          0      )
                  (     1          0          0      )
                  (     0          0          1      )

 cart.    s(14) = (  0.0000000  1.0000000  0.0000000 )
                  (  1.0000000  0.0000000  0.0000000 )
                  (  0.0000000  0.0000000  1.0000000 )


      isym = 15     inv.  90 deg rotation - cart. axis [0,0,-1]  

 cryst.   s(15) = (     0          1          0      )
                  (    -1          0          0      )
                  (     0          0         -1      )

 cart.    s(15) = (  0.0000000 -1.0000000  0.0000000 )
                  (  1.0000000  0.0000000  0.0000000 )
                  (  0.0000000  0.0000000 -1.0000000 )


      isym = 16     inv.  90 deg rotation - cart. axis [0,0,1]   

 cryst.   s(16) = (     0         -1          0      )
                  (     1          0          0      )
                  (     0          0         -1      )

 cart.    s(16) = (  0.0000000  1.0000000  0.0000000 )
                  ( -1.0000000  0.0000000  0.0000000 )
                  (  0.0000000  0.0000000 -1.0000000 )


   Cartesian axes

     site n.     atom                  positions (alat units)
         1        Bi     tau(   1) = (   0.0000000   0.0000000   0.5556106  )
         2        Bi     tau(   2) = (   0.0000000   0.0000000   1.0099589  )
         3        Bi     tau(   3) = (   0.2500000   0.2500000   1.3383953  )
         4        Bi     tau(   4) = (   0.2500000   0.2500000   0.2271742  )
         5        Bi     tau(   5) = (   0.0000000   0.5000000   0.5556106  )
         6        Bi     tau(   6) = (   0.0000000   0.5000000   1.0099589  )
         7        Bi     tau(   7) = (   0.5000000   0.0000000   0.5556106  )
         8        Bi     tau(   8) = (   0.5000000   0.0000000   1.0099589  )
         9        Bi     tau(   9) = (   0.2500000   0.7500000   1.3383953  )
        10        Bi     tau(  10) = (   0.2500000   0.7500000   0.2271742  )
        11        Bi     tau(  11) = (   0.7500000   0.2500000   1.3383953  )
        12        Bi     tau(  12) = (   0.7500000   0.2500000   0.2271742  )
        13        Bi     tau(  13) = (   0.5000000   0.5000000   0.5556107  )
        14        Bi     tau(  14) = (   0.5000000   0.5000000   1.0099589  )
        15        Bi     tau(  15) = (   0.7500000   0.7500000   1.3383953  )
        16        Bi     tau(  16) = (   0.7500000   0.7500000   0.2271742  )
        17        Se     tau(  17) = (   0.0000000   0.0000000   0.0000000  )
        18        Se     tau(  18) = (   0.2500001   0.2500001   0.7827848  )
        19        Se     tau(  19) = (   0.0000000   0.5000000   0.0000000  )
        20        Se     tau(  20) = (   0.5000000   0.0000000   0.0000000  )
        21        Se     tau(  21) = (   0.2500001   0.7499999   0.7827848  )
        22        Se     tau(  22) = (   0.7499999   0.2500001   0.7827848  )
        23        Se     tau(  23) = (   0.5000000   0.5000000   0.0000000  )
        24        Se     tau(  24) = (   0.7499999   0.7499999   0.7827848  )
        25        O      tau(  25) = (   0.0000000   0.2500000   0.3913924  )
        26        O      tau(  26) = (   0.0000000   0.7500000   1.1741771  )
        27        O      tau(  27) = (   0.0000000   0.7500000   0.3913924  )
        28        O      tau(  28) = (   0.0000000   0.2500000   1.1741771  )
        29        O      tau(  29) = (   0.7500000   0.0000000   0.3913924  )
        30        O      tau(  30) = (   0.2500000   0.0000000   1.1741771  )
        31        O      tau(  31) = (   0.2500000   0.0000000   0.3913924  )
        32        O      tau(  32) = (   0.7500000   0.0000000   1.1741771  )
        33        O      tau(  33) = (   0.2500000   0.5000000   1.1741771  )
        34        O      tau(  34) = (   0.2500000   0.5000000   0.3913924  )
        35        O      tau(  35) = (   0.5000000   0.2500000   0.3913924  )
        36        O      tau(  36) = (   0.5000000   0.2500000   1.1741771  )
        37        O      tau(  37) = (   0.5000000   0.7500000   0.3913924  )
        38        O      tau(  38) = (   0.5000000   0.7500000   1.1741771  )
        39        O      tau(  39) = (   0.7500000   0.5000000   1.1741771  )
        40        O      tau(  40) = (   0.7500000   0.5000000   0.3913924  )

   Crystallographic axes

     site n.     atom                  positions (cryst. coord.)
         1        Bi     tau(   1) = (  0.0000000  0.0000000  0.3548936  )
         2        Bi     tau(   2) = (  0.0000000  0.0000000  0.6451064  )
         3        Bi     tau(   3) = (  0.2500000  0.2500000  0.8548936  )
         4        Bi     tau(   4) = (  0.2500000  0.2500000  0.1451064  )
         5        Bi     tau(   5) = (  0.0000000  0.5000000  0.3548936  )
         6        Bi     tau(   6) = (  0.0000000  0.5000000  0.6451064  )
         7        Bi     tau(   7) = (  0.5000000  0.0000000  0.3548936  )
         8        Bi     tau(   8) = (  0.5000000  0.0000000  0.6451064  )
         9        Bi     tau(   9) = (  0.2500000  0.7500000  0.8548936  )
        10        Bi     tau(  10) = (  0.2500000  0.7500000  0.1451064  )
        11        Bi     tau(  11) = (  0.7500000  0.2500000  0.8548936  )
        12        Bi     tau(  12) = (  0.7500000  0.2500000  0.1451064  )
        13        Bi     tau(  13) = (  0.5000000  0.5000000  0.3548936  )
        14        Bi     tau(  14) = (  0.5000000  0.5000000  0.6451064  )
        15        Bi     tau(  15) = (  0.7500000  0.7500000  0.8548936  )
        16        Bi     tau(  16) = (  0.7500000  0.7500000  0.1451064  )
        17        Se     tau(  17) = (  0.0000000  0.0000000  0.0000000  )
        18        Se     tau(  18) = (  0.2500001  0.2500001  0.5000000  )
        19        Se     tau(  19) = (  0.0000000  0.5000000  0.0000000  )
        20        Se     tau(  20) = (  0.5000000  0.0000000  0.0000000  )
        21        Se     tau(  21) = (  0.2500001  0.7499999  0.5000000  )
        22        Se     tau(  22) = (  0.7499999  0.2500001  0.5000000  )
        23        Se     tau(  23) = (  0.5000000  0.5000000  0.0000000  )
        24        Se     tau(  24) = (  0.7499999  0.7499999  0.5000000  )
        25        O      tau(  25) = (  0.0000000  0.2500000  0.2500000  )
        26        O      tau(  26) = (  0.0000000  0.7500000  0.7500000  )
        27        O      tau(  27) = (  0.0000000  0.7500000  0.2500000  )
        28        O      tau(  28) = (  0.0000000  0.2500000  0.7500000  )
        29        O      tau(  29) = (  0.7500000  0.0000000  0.2500000  )
        30        O      tau(  30) = (  0.2500000  0.0000000  0.7500000  )
        31        O      tau(  31) = (  0.2500000  0.0000000  0.2500000  )
        32        O      tau(  32) = (  0.7500000  0.0000000  0.7500000  )
        33        O      tau(  33) = (  0.2500000  0.5000000  0.7500000  )
        34        O      tau(  34) = (  0.2500000  0.5000000  0.2500000  )
        35        O      tau(  35) = (  0.5000000  0.2500000  0.2500000  )
        36        O      tau(  36) = (  0.5000000  0.2500000  0.7500000  )
        37        O      tau(  37) = (  0.5000000  0.7500000  0.2500000  )
        38        O      tau(  38) = (  0.5000000  0.7500000  0.7500000  )
        39        O      tau(  39) = (  0.7500000  0.5000000  0.7500000  )
        40        O      tau(  40) = (  0.7500000  0.5000000  0.2500000  )

     number of k points=    40
                       cart. coord. in units 2pi/alat
        k(    1) = (   0.0000000   0.0000000   0.0000000), wk =   0.0092593
        k(    2) = (   0.0000000   0.0000000   0.1064575), wk =   0.0185185
        k(    3) = (   0.0000000   0.0000000   0.2129151), wk =   0.0185185
        k(    4) = (   0.0000000   0.0000000  -0.3193726), wk =   0.0092593
        k(    5) = (   0.0000000   0.1666667   0.0000000), wk =   0.0370370
        k(    6) = (   0.0000000   0.1666667   0.1064575), wk =   0.0740741
        k(    7) = (   0.0000000   0.1666667   0.2129151), wk =   0.0740741
        k(    8) = (   0.0000000   0.1666667  -0.3193726), wk =   0.0370370
        k(    9) = (   0.0000000   0.3333333   0.0000000), wk =   0.0370370
        k(   10) = (   0.0000000   0.3333333   0.1064575), wk =   0.0740741
        k(   11) = (   0.0000000   0.3333333   0.2129151), wk =   0.0740741
        k(   12) = (   0.0000000   0.3333333  -0.3193726), wk =   0.0370370
        k(   13) = (   0.0000000  -0.5000000   0.0000000), wk =   0.0185185
        k(   14) = (   0.0000000  -0.5000000   0.1064575), wk =   0.0370370
        k(   15) = (   0.0000000  -0.5000000   0.2129151), wk =   0.0370370
        k(   16) = (   0.0000000  -0.5000000  -0.3193726), wk =   0.0185185
        k(   17) = (   0.1666667   0.1666667   0.0000000), wk =   0.0370370
        k(   18) = (   0.1666667   0.1666667   0.1064575), wk =   0.0740741
        k(   19) = (   0.1666667   0.1666667   0.2129151), wk =   0.0740741
        k(   20) = (   0.1666667   0.1666667  -0.3193726), wk =   0.0370370
        k(   21) = (   0.1666667   0.3333333   0.0000000), wk =   0.0740741
        k(   22) = (   0.1666667   0.3333333   0.1064575), wk =   0.1481481
        k(   23) = (   0.1666667   0.3333333   0.2129151), wk =   0.1481481
        k(   24) = (   0.1666667   0.3333333  -0.3193726), wk =   0.0740741
        k(   25) = (   0.1666667  -0.5000000   0.0000000), wk =   0.0370370
        k(   26) = (   0.1666667  -0.5000000   0.1064575), wk =   0.0740741
        k(   27) = (   0.1666667  -0.5000000   0.2129151), wk =   0.0740741
        k(   28) = (   0.1666667  -0.5000000  -0.3193726), wk =   0.0370370
        k(   29) = (   0.3333333   0.3333333   0.0000000), wk =   0.0370370
        k(   30) = (   0.3333333   0.3333333   0.1064575), wk =   0.0740741
        k(   31) = (   0.3333333   0.3333333   0.2129151), wk =   0.0740741
        k(   32) = (   0.3333333   0.3333333  -0.3193726), wk =   0.0370370
        k(   33) = (   0.3333333  -0.5000000   0.0000000), wk =   0.0370370
        k(   34) = (   0.3333333  -0.5000000   0.1064575), wk =   0.0740741
        k(   35) = (   0.3333333  -0.5000000   0.2129151), wk =   0.0740741
        k(   36) = (   0.3333333  -0.5000000  -0.3193726), wk =   0.0370370
        k(   37) = (  -0.5000000  -0.5000000   0.0000000), wk =   0.0092593
        k(   38) = (  -0.5000000  -0.5000000   0.1064575), wk =   0.0185185
        k(   39) = (  -0.5000000  -0.5000000   0.2129151), wk =   0.0185185
        k(   40) = (  -0.5000000  -0.5000000  -0.3193726), wk =   0.0092593

                       cryst. coord.
        k(    1) = (   0.0000000   0.0000000   0.0000000), wk =   0.0092593
        k(    2) = (   0.0000000   0.0000000   0.1666667), wk =   0.0185185
        k(    3) = (   0.0000000   0.0000000   0.3333333), wk =   0.0185185
        k(    4) = (   0.0000000   0.0000000  -0.5000000), wk =   0.0092593
        k(    5) = (   0.0000000   0.1666667   0.0000000), wk =   0.0370370
        k(    6) = (   0.0000000   0.1666667   0.1666667), wk =   0.0740741
        k(    7) = (   0.0000000   0.1666667   0.3333333), wk =   0.0740741
        k(    8) = (   0.0000000   0.1666667  -0.5000000), wk =   0.0370370
        k(    9) = (   0.0000000   0.3333333   0.0000000), wk =   0.0370370
        k(   10) = (   0.0000000   0.3333333   0.1666667), wk =   0.0740741
        k(   11) = (   0.0000000   0.3333333   0.3333333), wk =   0.0740741
        k(   12) = (   0.0000000   0.3333333  -0.5000000), wk =   0.0370370
        k(   13) = (   0.0000000  -0.5000000   0.0000000), wk =   0.0185185
        k(   14) = (   0.0000000  -0.5000000   0.1666667), wk =   0.0370370
        k(   15) = (   0.0000000  -0.5000000   0.3333333), wk =   0.0370370
        k(   16) = (   0.0000000  -0.5000000  -0.5000000), wk =   0.0185185
        k(   17) = (   0.1666667   0.1666667   0.0000000), wk =   0.0370370
        k(   18) = (   0.1666667   0.1666667   0.1666667), wk =   0.0740741
        k(   19) = (   0.1666667   0.1666667   0.3333333), wk =   0.0740741
        k(   20) = (   0.1666667   0.1666667  -0.5000000), wk =   0.0370370
        k(   21) = (   0.1666667   0.3333333   0.0000000), wk =   0.0740741
        k(   22) = (   0.1666667   0.3333333   0.1666667), wk =   0.1481481
        k(   23) = (   0.1666667   0.3333333   0.3333333), wk =   0.1481481
        k(   24) = (   0.1666667   0.3333333  -0.5000000), wk =   0.0740741
        k(   25) = (   0.1666667  -0.5000000   0.0000000), wk =   0.0370370
        k(   26) = (   0.1666667  -0.5000000   0.1666667), wk =   0.0740741
        k(   27) = (   0.1666667  -0.5000000   0.3333333), wk =   0.0740741
        k(   28) = (   0.1666667  -0.5000000  -0.5000000), wk =   0.0370370
        k(   29) = (   0.3333333   0.3333333   0.0000000), wk =   0.0370370
        k(   30) = (   0.3333333   0.3333333   0.1666667), wk =   0.0740741
        k(   31) = (   0.3333333   0.3333333   0.3333333), wk =   0.0740741
        k(   32) = (   0.3333333   0.3333333  -0.5000000), wk =   0.0370370
        k(   33) = (   0.3333333  -0.5000000   0.0000000), wk =   0.0370370
        k(   34) = (   0.3333333  -0.5000000   0.1666667), wk =   0.0740741
        k(   35) = (   0.3333333  -0.5000000   0.3333333), wk =   0.0740741
        k(   36) = (   0.3333333  -0.5000000  -0.5000000), wk =   0.0370370
        k(   37) = (  -0.5000000  -0.5000000   0.0000000), wk =   0.0092593
        k(   38) = (  -0.5000000  -0.5000000   0.1666667), wk =   0.0185185
        k(   39) = (  -0.5000000  -0.5000000   0.3333333), wk =   0.0185185
        k(   40) = (  -0.5000000  -0.5000000  -0.5000000), wk =   0.0092593

     Dense  grid:   659969 G-vectors     FFT dimensions: (  96,  96, 150)

     Smooth grid:   233475 G-vectors     FFT dimensions: (  72,  72, 108)

     Dynamical RAM for                 wfc:       6.45 MB

     Dynamical RAM for     wfc (w. buffer):      70.99 MB

     Dynamical RAM for           str. fact:       1.89 MB

     Dynamical RAM for           local pot:       0.00 MB

     Dynamical RAM for          nlocal pot:      15.58 MB

     Dynamical RAM for                qrad:       9.63 MB

     Dynamical RAM for          rho,v,vnew:       4.00 MB

     Dynamical RAM for               rhoin:       1.33 MB

     Dynamical RAM for            rho*nmix:      10.07 MB

     Dynamical RAM for           G-vectors:       2.47 MB

     Dynamical RAM for          h,s,v(r/c):       2.46 MB

     Dynamical RAM for          <psi|beta>:       1.98 MB

     Dynamical RAM for                 psi:      12.91 MB

     Dynamical RAM for                hpsi:      12.91 MB

     Dynamical RAM for                spsi:      12.91 MB

     Dynamical RAM for      wfcinit/wfcrot:      17.37 MB

     Dynamical RAM for           addusdens:      32.26 MB

     Dynamical RAM for          addusforce:      36.88 MB

     Dynamical RAM for         addusstress:      31.86 MB

     Estimated static dynamical RAM per process >     111.92 MB

     Estimated max dynamical RAM per process >     165.16 MB

     Estimated total dynamical RAM >       9.85 GB

     Initial potential from superposition of free atoms

     starting charge     463.9876, renormalised to     464.0000
     Starting wfcs are  280 randomized atomic wfcs
     Checking if some PAW data can be deallocated... 
       PAW data deallocated on   32 nodes for type:  1
       PAW data deallocated on   48 nodes for type:  2
       PAW data deallocated on   48 nodes for type:  3

     total cpu time spent up to now is        9.1 secs

     Self-consistent Calculation

     iteration #  1     ecut=    50.00 Ry     beta= 0.40
     Davidson diagonalization with overlap

---- Real-time Memory Report at c_bands before calling an iterative solver
           392 MiB given to the printing process from OS
             0 MiB allocation reported by mallinfo(arena+hblkhd)
         41971 MiB available memory on the node where the printing process lives
------------------
     ethr =  1.00E-02,  avg # of iterations =  2.0

     total cpu time spent up to now is       27.3 secs

     total energy              =  -18163.66144306 Ry
     estimated scf accuracy    <      10.61535347 Ry

     iteration #  2     ecut=    50.00 Ry     beta= 0.40
     Davidson diagonalization with overlap

---- Real-time Memory Report at c_bands before calling an iterative solver
           462 MiB given to the printing process from OS
             0 MiB allocation reported by mallinfo(arena+hblkhd)
         41461 MiB available memory on the node where the printing process lives
------------------
     ethr =  2.29E-03,  avg # of iterations =  5.8

     total cpu time spent up to now is       56.6 secs

     total energy              =  -18167.14175526 Ry
     estimated scf accuracy    <       4.68901309 Ry

     iteration #  3     ecut=    50.00 Ry     beta= 0.40
     Davidson diagonalization with overlap

---- Real-time Memory Report at c_bands before calling an iterative solver
           555 MiB given to the printing process from OS
             0 MiB allocation reported by mallinfo(arena+hblkhd)
         41122 MiB available memory on the node where the printing process lives
------------------
     ethr =  1.01E-03,  avg # of iterations =  3.5

     total cpu time spent up to now is       78.3 secs

     total energy              =  -18166.98033058 Ry
     estimated scf accuracy    <       1.12323309 Ry

     iteration #  4     ecut=    50.00 Ry     beta= 0.40
     Davidson diagonalization with overlap

---- Real-time Memory Report at c_bands before calling an iterative solver
           561 MiB given to the printing process from OS
             0 MiB allocation reported by mallinfo(arena+hblkhd)
         41041 MiB available memory on the node where the printing process lives
------------------
     ethr =  2.42E-04,  avg # of iterations =  8.7

     total cpu time spent up to now is      112.9 secs

     total energy              =  -18167.82636776 Ry
     estimated scf accuracy    <       2.67552377 Ry

     iteration #  5     ecut=    50.00 Ry     beta= 0.40
     Davidson diagonalization with overlap

---- Real-time Memory Report at c_bands before calling an iterative solver
           661 MiB given to the printing process from OS
             0 MiB allocation reported by mallinfo(arena+hblkhd)
         40631 MiB available memory on the node where the printing process lives
------------------
     ethr =  2.42E-04,  avg # of iterations =  4.2

     total cpu time spent up to now is      133.5 secs

     total energy              =  -18167.19817255 Ry
     estimated scf accuracy    <       1.15821440 Ry

     iteration #  6     ecut=    50.00 Ry     beta= 0.40
     Davidson diagonalization with overlap

---- Real-time Memory Report at c_bands before calling an iterative solver
           661 MiB given to the printing process from OS
             0 MiB allocation reported by mallinfo(arena+hblkhd)
         40623 MiB available memory on the node where the printing process lives
------------------
     ethr =  2.42E-04,  avg # of iterations =  9.3

     total cpu time spent up to now is      167.9 secs

     total energy              =  -18167.91464244 Ry
     estimated scf accuracy    <       2.85821906 Ry

     iteration #  7     ecut=    50.00 Ry     beta= 0.40
     Davidson diagonalization with overlap

---- Real-time Memory Report at c_bands before calling an iterative solver
           691 MiB given to the printing process from OS
             0 MiB allocation reported by mallinfo(arena+hblkhd)
         40362 MiB available memory on the node where the printing process lives
------------------
     ethr =  2.42E-04,  avg # of iterations =  2.0

     total cpu time spent up to now is      193.7 secs

     total energy              =  -18167.39953620 Ry
     estimated scf accuracy    <       1.77572337 Ry

     iteration #  8     ecut=    50.00 Ry     beta= 0.40
     Davidson diagonalization with overlap

---- Real-time Memory Report at c_bands before calling an iterative solver
           692 MiB given to the printing process from OS
             0 MiB allocation reported by mallinfo(arena+hblkhd)
         40376 MiB available memory on the node where the printing process lives
------------------
     ethr =  2.42E-04,  avg # of iterations =  6.8

     total cpu time spent up to now is      223.8 secs

     total energy              =  -18167.89805429 Ry
     estimated scf accuracy    <       0.12624339 Ry

     iteration #  9     ecut=    50.00 Ry     beta= 0.40
     Davidson diagonalization with overlap

---- Real-time Memory Report at c_bands before calling an iterative solver
           710 MiB given to the printing process from OS
             0 MiB allocation reported by mallinfo(arena+hblkhd)
         40277 MiB available memory on the node where the printing process lives
------------------
     ethr =  2.72E-05,  avg # of iterations =  3.3

     total cpu time spent up to now is      251.6 secs

     total energy              =  -18167.90263799 Ry
     estimated scf accuracy    <       0.05580618 Ry

     iteration # 10     ecut=    50.00 Ry     beta= 0.40
     Davidson diagonalization with overlap

---- Real-time Memory Report at c_bands before calling an iterative solver
           710 MiB given to the printing process from OS
             0 MiB allocation reported by mallinfo(arena+hblkhd)
         40265 MiB available memory on the node where the printing process lives
------------------
     ethr =  1.20E-05,  avg # of iterations =  4.7

     total cpu time spent up to now is      274.8 secs

     total energy              =  -18167.90650348 Ry
     estimated scf accuracy    <       0.02714011 Ry

     iteration # 11     ecut=    50.00 Ry     beta= 0.40
     Davidson diagonalization with overlap

---- Real-time Memory Report at c_bands before calling an iterative solver
           711 MiB given to the printing process from OS
             0 MiB allocation reported by mallinfo(arena+hblkhd)
         40215 MiB available memory on the node where the printing process lives
------------------
     ethr =  5.85E-06,  avg # of iterations =  5.2

     total cpu time spent up to now is      297.6 secs

     total energy              =  -18167.90839037 Ry
     estimated scf accuracy    <       0.01235354 Ry

     iteration # 12     ecut=    50.00 Ry     beta= 0.40
     Davidson diagonalization with overlap

---- Real-time Memory Report at c_bands before calling an iterative solver
           714 MiB given to the printing process from OS
             0 MiB allocation reported by mallinfo(arena+hblkhd)
         40151 MiB available memory on the node where the printing process lives
------------------
     ethr =  2.66E-06,  avg # of iterations =  5.5

     total cpu time spent up to now is      326.0 secs

     total energy              =  -18167.90707854 Ry
     estimated scf accuracy    <       0.00726008 Ry

     iteration # 13     ecut=    50.00 Ry     beta= 0.40
     Davidson diagonalization with overlap

---- Real-time Memory Report at c_bands before calling an iterative solver
           714 MiB given to the printing process from OS
             0 MiB allocation reported by mallinfo(arena+hblkhd)
         40119 MiB available memory on the node where the printing process lives
------------------
     ethr =  1.56E-06,  avg # of iterations =  6.2

     total cpu time spent up to now is      353.5 secs

     total energy              =  -18167.90959022 Ry
     estimated scf accuracy    <       0.00015794 Ry

     iteration # 14     ecut=    50.00 Ry     beta= 0.40
     Davidson diagonalization with overlap

---- Real-time Memory Report at c_bands before calling an iterative solver
           746 MiB given to the printing process from OS
             0 MiB allocation reported by mallinfo(arena+hblkhd)
         39955 MiB available memory on the node where the printing process lives
------------------
     ethr =  3.40E-08,  avg # of iterations = 11.9

     total cpu time spent up to now is      409.3 secs

     total energy              =  -18167.90923022 Ry
     estimated scf accuracy    <       0.01242588 Ry

     iteration # 15     ecut=    50.00 Ry     beta= 0.40
     Davidson diagonalization with overlap

---- Real-time Memory Report at c_bands before calling an iterative solver
           781 MiB given to the printing process from OS
             0 MiB allocation reported by mallinfo(arena+hblkhd)
         39766 MiB available memory on the node where the printing process lives
------------------
     ethr =  3.40E-08,  avg # of iterations =  8.2

     total cpu time spent up to now is      455.2 secs

     total energy              =  -18167.90863827 Ry
     estimated scf accuracy    <       0.00367004 Ry

     iteration # 16     ecut=    50.00 Ry     beta= 0.40
     Davidson diagonalization with overlap

---- Real-time Memory Report at c_bands before calling an iterative solver
           791 MiB given to the printing process from OS
             0 MiB allocation reported by mallinfo(arena+hblkhd)
         39244 MiB available memory on the node where the printing process lives
------------------
     ethr =  3.40E-08,  avg # of iterations =  9.6

     total cpu time spent up to now is      500.5 secs

     total energy              =  -18167.90899407 Ry
     estimated scf accuracy    <       0.00012925 Ry

     iteration # 17     ecut=    50.00 Ry     beta= 0.40
     Davidson diagonalization with overlap

---- Real-time Memory Report at c_bands before calling an iterative solver
           791 MiB given to the printing process from OS
             0 MiB allocation reported by mallinfo(arena+hblkhd)
         39133 MiB available memory on the node where the printing process lives
------------------
     ethr =  2.79E-08,  avg # of iterations =  2.9

     total cpu time spent up to now is      527.0 secs

     total energy              =  -18167.90897006 Ry
     estimated scf accuracy    <       0.00006349 Ry

     iteration # 18     ecut=    50.00 Ry     beta= 0.40
     Davidson diagonalization with overlap

---- Real-time Memory Report at c_bands before calling an iterative solver
           791 MiB given to the printing process from OS
             0 MiB allocation reported by mallinfo(arena+hblkhd)
         39169 MiB available memory on the node where the printing process lives
------------------
     ethr =  1.37E-08,  avg # of iterations =  8.5

     total cpu time spent up to now is      566.3 secs

     total energy              =  -18167.90901317 Ry
     estimated scf accuracy    <       0.00006460 Ry

     iteration # 19     ecut=    50.00 Ry     beta= 0.40
     Davidson diagonalization with overlap

---- Real-time Memory Report at c_bands before calling an iterative solver
           791 MiB given to the printing process from OS
             0 MiB allocation reported by mallinfo(arena+hblkhd)
         39139 MiB available memory on the node where the printing process lives
------------------
     ethr =  1.37E-08,  avg # of iterations =  1.0

     total cpu time spent up to now is      582.4 secs

     total energy              =  -18167.90899076 Ry
     estimated scf accuracy    <       0.00005744 Ry

     iteration # 20     ecut=    50.00 Ry     beta= 0.40
     Davidson diagonalization with overlap

---- Real-time Memory Report at c_bands before calling an iterative solver
           791 MiB given to the printing process from OS
             0 MiB allocation reported by mallinfo(arena+hblkhd)
         39129 MiB available memory on the node where the printing process lives
------------------
     ethr =  1.24E-08,  avg # of iterations =  6.7

     total cpu time spent up to now is      608.3 secs

     total energy              =  -18167.90900193 Ry
     estimated scf accuracy    <       0.00000066 Ry

     iteration # 21     ecut=    50.00 Ry     beta= 0.40
     Davidson diagonalization with overlap

---- Real-time Memory Report at c_bands before calling an iterative solver
           791 MiB given to the printing process from OS
             0 MiB allocation reported by mallinfo(arena+hblkhd)
         39086 MiB available memory on the node where the printing process lives
------------------
     ethr =  1.42E-10,  avg # of iterations = 10.3

     total cpu time spent up to now is      656.0 secs

     total energy              =  -18167.90900315 Ry
     estimated scf accuracy    <       0.00001082 Ry

     iteration # 22     ecut=    50.00 Ry     beta= 0.40
     Davidson diagonalization with overlap

---- Real-time Memory Report at c_bands before calling an iterative solver
           798 MiB given to the printing process from OS
             0 MiB allocation reported by mallinfo(arena+hblkhd)
         38969 MiB available memory on the node where the printing process lives
------------------
     ethr =  1.42E-10,  avg # of iterations =  9.3

     total cpu time spent up to now is      703.4 secs

     total energy              =  -18167.90900372 Ry
     estimated scf accuracy    <       0.00000116 Ry

     iteration # 23     ecut=    50.00 Ry     beta= 0.40
     Davidson diagonalization with overlap

---- Real-time Memory Report at c_bands before calling an iterative solver
           798 MiB given to the printing process from OS
             0 MiB allocation reported by mallinfo(arena+hblkhd)
         38930 MiB available memory on the node where the printing process lives
------------------
     ethr =  1.42E-10,  avg # of iterations =  3.5

     total cpu time spent up to now is      723.9 secs

     total energy              =  -18167.90900361 Ry
     estimated scf accuracy    <       0.00000052 Ry

     iteration # 24     ecut=    50.00 Ry     beta= 0.40
     Davidson diagonalization with overlap

---- Real-time Memory Report at c_bands before calling an iterative solver
           798 MiB given to the printing process from OS
             0 MiB allocation reported by mallinfo(arena+hblkhd)
         38934 MiB available memory on the node where the printing process lives
------------------
     ethr =  1.11E-10,  avg # of iterations =  6.0

     total cpu time spent up to now is      759.5 secs

     total energy              =  -18167.90900380 Ry
     estimated scf accuracy    <       0.00000010 Ry

     iteration # 25     ecut=    50.00 Ry     beta= 0.40
     Davidson diagonalization with overlap

---- Real-time Memory Report at c_bands before calling an iterative solver
           798 MiB given to the printing process from OS
             0 MiB allocation reported by mallinfo(arena+hblkhd)
         38913 MiB available memory on the node where the printing process lives
------------------
     ethr =  2.17E-11,  avg # of iterations =  1.9

     total cpu time spent up to now is      777.4 secs

     total energy              =  -18167.90900378 Ry
     estimated scf accuracy    <       0.00000009 Ry

     iteration # 26     ecut=    50.00 Ry     beta= 0.40
     Davidson diagonalization with overlap

---- Real-time Memory Report at c_bands before calling an iterative solver
           798 MiB given to the printing process from OS
             0 MiB allocation reported by mallinfo(arena+hblkhd)
         38907 MiB available memory on the node where the printing process lives
------------------
     ethr =  2.01E-11,  avg # of iterations =  2.0

     total cpu time spent up to now is      802.7 secs

     total energy              =  -18167.90900378 Ry
     estimated scf accuracy    <       0.00000005 Ry

     iteration # 27     ecut=    50.00 Ry     beta= 0.40
     Davidson diagonalization with overlap

---- Real-time Memory Report at c_bands before calling an iterative solver
           798 MiB given to the printing process from OS
             0 MiB allocation reported by mallinfo(arena+hblkhd)
         38930 MiB available memory on the node where the printing process lives
------------------
     ethr =  1.12E-11,  avg # of iterations =  1.7

     total cpu time spent up to now is      820.9 secs

     total energy              =  -18167.90900377 Ry
     estimated scf accuracy    <       0.00000004 Ry

     iteration # 28     ecut=    50.00 Ry     beta= 0.40
     Davidson diagonalization with overlap

---- Real-time Memory Report at c_bands before calling an iterative solver
           798 MiB given to the printing process from OS
             0 MiB allocation reported by mallinfo(arena+hblkhd)
         38930 MiB available memory on the node where the printing process lives
------------------
     ethr =  8.56E-12,  avg # of iterations =  5.5

     total cpu time spent up to now is      855.6 secs

     End of self-consistent calculation

          k = 0.0000 0.0000 0.0000 ( 29231 PWs)   bands (ev):

   -35.2093 -35.2093 -35.2092 -35.2092 -35.2086 -35.2086 -35.2086 -35.2086
   -35.2072 -35.2071 -35.2070 -35.2070 -35.2070 -35.2070 -35.2069 -35.2067
   -35.2020 -35.2020 -35.2019 -35.2019 -35.2019 -35.2019 -35.2019 -35.2019
   -35.2019 -35.2019 -35.2019 -35.2019 -35.2016 -35.2016 -35.2015 -35.2015
   -35.1981 -35.1980 -35.1979 -35.1978 -35.1978 -35.1978 -35.1978 -35.1977
   -11.9044 -11.9044 -11.9016 -11.8993 -11.8842 -11.8842 -11.8376 -11.8376
   -11.8376 -11.8376 -11.8221 -11.8221 -11.8221 -11.8221 -11.7218 -11.7049
   -11.7049 -11.7049 -11.7049 -11.7008 -11.7008 -11.6911 -11.6891 -11.6885
   -11.6860 -11.6860 -11.6805 -11.6805 -11.6799 -11.6799 -11.6799 -11.6799
   -11.6655 -11.6655 -11.6655 -11.6655 -11.6636 -11.6636 -11.6636 -11.6636
   -11.6562 -11.6551 -11.6551 -11.6401 -11.6401 -11.6357 -11.6357 -11.6357
   -11.6357 -11.6302 -11.6302 -11.6285 -11.6285 -11.6248 -11.6231 -11.6225
   -11.6106 -11.6106 -11.6106 -11.6106 -11.6073 -11.6073 -11.6068 -11.6068
   -11.6038 -11.6038 -11.6023 -11.6023 -11.6021 -11.6021 -11.6021 -11.6021
   -11.5988 -11.5988 -11.5988 -11.5988 -11.5984 -11.5967 -11.5960 -11.5960
    -8.4983  -8.4753  -7.0437  -7.0437  -7.0437  -7.0437  -7.0293  -7.0293
    -7.0293  -7.0293  -6.6725  -6.6725  -6.6633  -6.6633  -5.8292  -5.8292
    -2.0154  -1.3867  -0.4814  -0.4814  -0.4814  -0.4814  -0.1542  -0.1542
     0.0569   0.0569   0.1087   0.2525   0.2525   0.4644   0.4644   0.4644
     0.4644   1.1511   1.1511   1.1511   1.1511   1.5066   2.6540   3.4156
     5.4591   5.4591   5.4684   5.4684   5.5591   5.5591   6.0338   6.0338
     6.0338   6.0338   6.0439   6.0439   6.2371   6.2371   6.2371   6.2371
     6.2401   6.2401   6.9032   6.9032   6.9032   6.9032   6.9458   6.9458
     6.9458   6.9458   7.0568   7.0568   7.0568   7.0568   7.4323   7.4323
     7.5832   7.5832   8.2284   8.2436   8.4892   8.4892   8.5569   8.5569
     8.5569   8.5569   8.5864   8.5864   8.6241   9.0755   9.0755   9.2668
     9.3179   9.3179   9.3180   9.3180   9.8852   9.9061   9.9061   9.9061
     9.9061   9.9935   9.9935  10.1504  10.1504  10.4109  10.4109  10.5239
    10.7945  10.7945  10.7945  10.7945  10.9966  10.9966  10.9966  10.9966

     occupation numbers 
     1.0000   1.0000   1.0000   1.0000   1.0000   1.0000   1.0000   1.0000
     1.0000   1.0000   1.0000   1.0000   1.0000   1.0000   1.0000   1.0000
     1.0000   1.0000   1.0000   1.0000   1.0000   1.0000   1.0000   1.0000
     1.0000   1.0000   1.0000   1.0000   1.0000   1.0000   1.0000   1.0000
     1.0000   1.0000   1.0000   1.0000   1.0000   1.0000   1.0000   1.0000
     1.0000   1.0000   1.0000   1.0000   1.0000   1.0000   1.0000   1.0000
     1.0000   1.0000   1.0000   1.0000   1.0000   1.0000   1.0000   1.0000
     1.0000   1.0000   1.0000   1.0000   1.0000   1.0000   1.0000   1.0000
     1.0000   1.0000   1.0000   1.0000   1.0000   1.0000   1.0000   1.0000
     1.0000   1.0000   1.0000   1.0000   1.0000   1.0000   1.0000   1.0000
     1.0000   1.0000   1.0000   1.0000   1.0000   1.0000   1.0000   1.0000
     1.0000   1.0000   1.0000   1.0000   1.0000   1.0000   1.0000   1.0000
     1.0000   1.0000   1.0000   1.0000   1.0000   1.0000   1.0000   1.0000
     1.0000   1.0000   1.0000   1.0000   1.0000   1.0000   1.0000   1.0000
     1.0000   1.0000   1.0000   1.0000   1.0000   1.0000   1.0000   1.0000
     1.0000   1.0000   1.0000   1.0000   1.0000   1.0000   1.0000   1.0000
     1.0000   1.0000   1.0000   1.0000   1.0000   1.0000   1.0000   1.0000
     1.0000   1.0000   1.0000   1.0000   1.0000   1.0000   1.0000   1.0000
     1.0000   1.0000   1.0000   1.0000   1.0000   1.0000   1.0000   1.0000
     1.0000   1.0000   1.0000   1.0000   1.0000   1.0000   1.0000   1.0000
     1.0000   1.0000   1.0000   1.0000   1.0000   1.0000   1.0000   1.0000
     1.0000   1.0000   1.0000   1.0000   1.0000   1.0000   1.0000   1.0000
     1.0000   1.0000   1.0000   1.0000   1.0000   1.0000   1.0000   1.0000
     1.0000   1.0000   1.0000   1.0000   1.0000   1.0000   1.0000   1.0000
     1.0000   1.0000   1.0000   1.0000   1.0000   1.0000   1.0000   1.0000
     1.0000   1.0000   1.0000   1.0000   1.0000   1.0000   1.0000   1.0000
     1.0000   1.0000   1.0000   1.0000   1.0000   1.0000   1.0000   1.0000
     1.0000   1.0000   1.0000   1.0000   1.0000   1.0000   1.0000   1.0000
     1.0000   1.0000   1.0000   1.0000   1.0000   1.0000   1.0000   1.0000

          k = 0.0000 0.0000 0.1065 ( 29155 PWs)   bands (ev):

   -35.2092 -35.2091 -35.2090 -35.2089 -35.2087 -35.2087 -35.2086 -35.2086
   -35.2070 -35.2070 -35.2070 -35.2070 -35.2070 -35.2069 -35.2067 -35.2067
   -35.2018 -35.2018 -35.2018 -35.2018 -35.2017 -35.2017 -35.2017 -35.2017
   -35.2017 -35.2017 -35.2017 -35.2017 -35.2017 -35.2017 -35.2016 -35.2016
   -35.1981 -35.1979 -35.1979 -35.1978 -35.1978 -35.1978 -35.1978 -35.1973
   -11.9031 -11.9031 -11.9014 -11.8994 -11.8856 -11.8856 -11.8373 -11.8373
   -11.8373 -11.8373 -11.8223 -11.8223 -11.8223 -11.8223 -11.7204 -11.7042
   -11.7042 -11.7042 -11.7042 -11.6997 -11.6997 -11.6930 -11.6909 -11.6887
   -11.6856 -11.6856 -11.6822 -11.6822 -11.6797 -11.6797 -11.6797 -11.6797
   -11.6659 -11.6659 -11.6658 -11.6658 -11.6654 -11.6654 -11.6654 -11.6654
   -11.6564 -11.6564 -11.6520 -11.6388 -11.6388 -11.6341 -11.6341 -11.6341
   -11.6341 -11.6285 -11.6285 -11.6266 -11.6266 -11.6247 -11.6241 -11.6231
   -11.6101 -11.6101 -11.6101 -11.6101 -11.6084 -11.6084 -11.6082 -11.6082
   -11.6037 -11.6037 -11.6025 -11.6025 -11.6025 -11.6025 -11.6022 -11.6022
   -11.5992 -11.5992 -11.5992 -11.5992 -11.5982 -11.5967 -11.5962 -11.5962
    -8.4967  -8.4769  -7.0428  -7.0428  -7.0428  -7.0428  -7.0303  -7.0303
    -7.0303  -7.0303  -6.6718  -6.6718  -6.6639  -6.6639  -5.8292  -5.8291
    -1.9850  -1.4508  -0.4803  -0.4803  -0.4802  -0.4802  -0.1442  -0.1442
     0.0336   0.0336   0.2066   0.2663   0.2663   0.4613   0.4613   0.4613
     0.4613   1.1530   1.1530   1.1530   1.1530   1.3852   2.7447   3.3824
     5.4655   5.4655   5.4957   5.4957   5.5520   5.5520   5.9846   5.9846
     5.9883   5.9883   5.9883   5.9883   6.2223   6.2223   6.3206   6.3206
     6.3206   6.3206   6.9040   6.9040   6.9040   6.9040   6.9450   6.9450
     6.9450   6.9450   7.0043   7.0043   7.0043   7.0043   7.4661   7.4661
     7.6861   7.6861   8.2294   8.2425   8.4968   8.4968   8.5770   8.5770
     8.5770   8.5770   8.5808   8.5808   8.6598   8.9549   8.9549   9.2163
     9.3179   9.3179   9.3180   9.3180   9.8983   9.8983   9.8983   9.8983
     9.9070  10.0168  10.0168  10.1205  10.1205  10.3771  10.3771  10.4599
    10.7954  10.7954  10.7954  10.7954  10.9969  10.9969  10.9969  10.9969

     occupation numbers 
     1.0000   1.0000   1.0000   1.0000   1.0000   1.0000   1.0000   1.0000
     1.0000   1.0000   1.0000   1.0000   1.0000   1.0000   1.0000   1.0000
     1.0000   1.0000   1.0000   1.0000   1.0000   1.0000   1.0000   1.0000
     1.0000   1.0000   1.0000   1.0000   1.0000   1.0000   1.0000   1.0000
     1.0000   1.0000   1.0000   1.0000   1.0000   1.0000   1.0000   1.0000
     1.0000   1.0000   1.0000   1.0000   1.0000   1.0000   1.0000   1.0000
     1.0000   1.0000   1.0000   1.0000   1.0000   1.0000   1.0000   1.0000
     1.0000   1.0000   1.0000   1.0000   1.0000   1.0000   1.0000   1.0000
     1.0000   1.0000   1.0000   1.0000   1.0000   1.0000   1.0000   1.0000
     1.0000   1.0000   1.0000   1.0000   1.0000   1.0000   1.0000   1.0000
     1.0000   1.0000   1.0000   1.0000   1.0000   1.0000   1.0000   1.0000
     1.0000   1.0000   1.0000   1.0000   1.0000   1.0000   1.0000   1.0000
     1.0000   1.0000   1.0000   1.0000   1.0000   1.0000   1.0000   1.0000
     1.0000   1.0000   1.0000   1.0000   1.0000   1.0000   1.0000   1.0000
     1.0000   1.0000   1.0000   1.0000   1.0000   1.0000   1.0000   1.0000
     1.0000   1.0000   1.0000   1.0000   1.0000   1.0000   1.0000   1.0000
     1.0000   1.0000   1.0000   1.0000   1.0000   1.0000   1.0000   1.0000
     1.0000   1.0000   1.0000   1.0000   1.0000   1.0000   1.0000   1.0000
     1.0000   1.0000   1.0000   1.0000   1.0000   1.0000   1.0000   1.0000
     1.0000   1.0000   1.0000   1.0000   1.0000   1.0000   1.0000   1.0000
     1.0000   1.0000   1.0000   1.0000   1.0000   1.0000   1.0000   1.0000
     1.0000   1.0000   1.0000   1.0000   1.0000   1.0000   1.0000   1.0000
     1.0000   1.0000   1.0000   1.0000   1.0000   1.0000   1.0000   1.0000
     1.0000   1.0000   1.0000   1.0000   1.0000   1.0000   1.0000   1.0000
     1.0000   1.0000   1.0000   1.0000   1.0000   1.0000   1.0000   1.0000
     1.0000   1.0000   1.0000   1.0000   1.0000   1.0000   1.0000   1.0000
     1.0000   1.0000   1.0000   1.0000   1.0000   1.0000   1.0000   1.0000
     1.0000   1.0000   1.0000   1.0000   1.0000   1.0000   1.0000   1.0000
     1.0000   1.0000   1.0000   1.0000   1.0000   1.0000   1.0000   1.0000

          k = 0.0000 0.0000 0.2129 ( 29220 PWs)   bands (ev):

   -35.2092 -35.2092 -35.2091 -35.2090 -35.2089 -35.2089 -35.2088 -35.2088
   -35.2073 -35.2073 -35.2072 -35.2072 -35.2071 -35.2070 -35.2067 -35.2067
   -35.2019 -35.2019 -35.2018 -35.2018 -35.2018 -35.2018 -35.2018 -35.2018
   -35.2018 -35.2018 -35.2017 -35.2017 -35.2016 -35.2016 -35.2016 -35.2016
   -35.1980 -35.1978 -35.1977 -35.1977 -35.1977 -35.1977 -35.1977 -35.1977
   -11.9010 -11.8998 -11.8996 -11.8996 -11.8896 -11.8896 -11.8370 -11.8370
   -11.8370 -11.8370 -11.8229 -11.8229 -11.8229 -11.8229 -11.7162 -11.7029
   -11.7029 -11.7028 -11.7028 -11.7012 -11.6966 -11.6966 -11.6905 -11.6892
   -11.6867 -11.6867 -11.6849 -11.6849 -11.6794 -11.6794 -11.6794 -11.6794
   -11.6688 -11.6688 -11.6688 -11.6688 -11.6665 -11.6665 -11.6665 -11.6665
   -11.6587 -11.6587 -11.6438 -11.6369 -11.6369 -11.6311 -11.6311 -11.6311
   -11.6311 -11.6284 -11.6244 -11.6239 -11.6239 -11.6234 -11.6219 -11.6219
   -11.6124 -11.6124 -11.6116 -11.6116 -11.6091 -11.6091 -11.6091 -11.6091
   -11.6037 -11.6037 -11.6034 -11.6034 -11.6034 -11.6034 -11.6023 -11.6022
   -11.6003 -11.6003 -11.6003 -11.6003 -11.5978 -11.5970 -11.5965 -11.5965
    -8.4926  -8.4811  -7.0402  -7.0402  -7.0402  -7.0402  -7.0329  -7.0329
    -7.0329  -7.0329  -6.6702  -6.6702  -6.6656  -6.6656  -5.8292  -5.8291
    -1.8970  -1.5986  -0.4779  -0.4779  -0.4779  -0.4779  -0.1152  -0.1152
    -0.0169  -0.0168   0.2888   0.2888   0.4537   0.4551   0.4551   0.4551
     0.4551   1.1050   1.1567   1.1567   1.1567   1.1567   2.9356   3.2847
     5.4831   5.4831   5.5330   5.5330   5.5753   5.5753   5.8482   5.8482
     5.9337   5.9337   5.9337   5.9337   6.1887   6.1887   6.4837   6.4837
     6.4837   6.4837   6.8683   6.8683   6.8684   6.8684   6.9057   6.9057
     6.9057   6.9057   6.9432   6.9432   6.9432   6.9432   7.5329   7.5329
     7.9497   7.9497   8.2322   8.2398   8.5166   8.5166   8.5650   8.5650
     8.6161   8.6161   8.6161   8.6161   8.6588   8.6588   8.7618   9.0818
     9.3179   9.3179   9.3180   9.3180   9.8822   9.8822   9.8822   9.8822
     9.9880  10.0601  10.0601  10.0832  10.0832  10.2900  10.2900  10.3058
    10.7973  10.7973  10.7974  10.7974  10.9975  10.9975  10.9975  10.9975

     occupation numbers 
     1.0000   1.0000   1.0000   1.0000   1.0000   1.0000   1.0000   1.0000
     1.0000   1.0000   1.0000   1.0000   1.0000   1.0000   1.0000   1.0000
     1.0000   1.0000   1.0000   1.0000   1.0000   1.0000   1.0000   1.0000
     1.0000   1.0000   1.0000   1.0000   1.0000   1.0000   1.0000   1.0000
     1.0000   1.0000   1.0000   1.0000   1.0000   1.0000   1.0000   1.0000
     1.0000   1.0000   1.0000   1.0000   1.0000   1.0000   1.0000   1.0000
     1.0000   1.0000   1.0000   1.0000   1.0000   1.0000   1.0000   1.0000
     1.0000   1.0000   1.0000   1.0000   1.0000   1.0000   1.0000   1.0000
     1.0000   1.0000   1.0000   1.0000   1.0000   1.0000   1.0000   1.0000
     1.0000   1.0000   1.0000   1.0000   1.0000   1.0000   1.0000   1.0000
     1.0000   1.0000   1.0000   1.0000   1.0000   1.0000   1.0000   1.0000
     1.0000   1.0000   1.0000   1.0000   1.0000   1.0000   1.0000   1.0000
     1.0000   1.0000   1.0000   1.0000   1.0000   1.0000   1.0000   1.0000
     1.0000   1.0000   1.0000   1.0000   1.0000   1.0000   1.0000   1.0000
     1.0000   1.0000   1.0000   1.0000   1.0000   1.0000   1.0000   1.0000
     1.0000   1.0000   1.0000   1.0000   1.0000   1.0000   1.0000   1.0000
     1.0000   1.0000   1.0000   1.0000   1.0000   1.0000   1.0000   1.0000
     1.0000   1.0000   1.0000   1.0000   1.0000   1.0000   1.0000   1.0000
     1.0000   1.0000   1.0000   1.0000   1.0000   1.0000   1.0000   1.0000
     1.0000   1.0000   1.0000   1.0000   1.0000   1.0000   1.0000   1.0000
     1.0000   1.0000   1.0000   1.0000   1.0000   1.0000   1.0000   1.0000
     1.0000   1.0000   1.0000   1.0000   1.0000   1.0000   1.0000   1.0000
     1.0000   1.0000   1.0000   1.0000   1.0000   1.0000   1.0000   1.0000
     1.0000   1.0000   1.0000   1.0000   1.0000   1.0000   1.0000   1.0000
     1.0000   1.0000   1.0000   1.0000   1.0000   1.0000   1.0000   1.0000
     1.0000   1.0000   1.0000   1.0000   1.0000   1.0000   1.0000   1.0000
     1.0000   1.0000   1.0000   1.0000   1.0000   1.0000   1.0000   1.0000
     1.0000   1.0000   1.0000   1.0000   1.0000   1.0000   1.0000   1.0000
     1.0000   1.0000   1.0000   1.0000   1.0000   1.0000   1.0000   1.0000

          k = 0.0000 0.0000-0.3194 ( 29204 PWs)   bands (ev):

   -35.2091 -35.2091 -35.2090 -35.2089 -35.2089 -35.2089 -35.2089 -35.2089
   -35.2073 -35.2073 -35.2072 -35.2072 -35.2068 -35.2068 -35.2067 -35.2067
   -35.2018 -35.2018 -35.2018 -35.2018 -35.2018 -35.2018 -35.2018 -35.2018
   -35.2017 -35.2017 -35.2017 -35.2017 -35.2014 -35.2014 -35.2013 -35.2013
   -35.1980 -35.1980 -35.1979 -35.1979 -35.1978 -35.1978 -35.1976 -35.1975
   -11.9004 -11.9004 -11.8947 -11.8947 -11.8947 -11.8947 -11.8368 -11.8368
   -11.8368 -11.8368 -11.8232 -11.8232 -11.8232 -11.8232 -11.7094 -11.7094
   -11.7022 -11.7022 -11.7022 -11.7022 -11.6920 -11.6920 -11.6920 -11.6920
   -11.6898 -11.6898 -11.6844 -11.6844 -11.6792 -11.6792 -11.6792 -11.6792
   -11.6704 -11.6704 -11.6704 -11.6704 -11.6668 -11.6668 -11.6668 -11.6668
   -11.6598 -11.6598 -11.6360 -11.6360 -11.6354 -11.6354 -11.6297 -11.6297
   -11.6297 -11.6297 -11.6239 -11.6239 -11.6180 -11.6180 -11.6180 -11.6180
   -11.6163 -11.6163 -11.6163 -11.6163 -11.6085 -11.6085 -11.6085 -11.6085
   -11.6040 -11.6040 -11.6040 -11.6040 -11.6036 -11.6036 -11.6022 -11.6022
   -11.6008 -11.6008 -11.6008 -11.6008 -11.5974 -11.5974 -11.5967 -11.5967
    -8.4869  -8.4869  -7.0374  -7.0374  -7.0374  -7.0374  -7.0357  -7.0357
    -7.0357  -7.0357  -6.6679  -6.6679  -6.6679  -6.6679  -5.8292  -5.8292
    -1.7612  -1.7612  -0.4768  -0.4768  -0.4767  -0.4767  -0.0718  -0.0718
    -0.0694  -0.0694   0.2985   0.2985   0.4520   0.4520   0.4520   0.4520
     0.7731   0.7731   1.1586   1.1586   1.1586   1.1586   3.1299   3.1299
     5.5077   5.5077   5.5077   5.5077   5.6989   5.6989   5.6989   5.6989
     5.9137   5.9137   5.9137   5.9137   6.1728   6.1728   6.6320   6.6320
     6.6320   6.6320   6.7270   6.7270   6.7270   6.7270   6.9066   6.9066
     6.9066   6.9066   6.9422   6.9422   6.9422   6.9422   7.5660   7.5660
     8.2360   8.2360   8.2967   8.2967   8.2967   8.2967   8.5418   8.5418
     8.5418   8.5418   8.6351   8.6351   8.6351   8.6351   8.9133   8.9133
     9.3180   9.3180   9.3180   9.3180   9.8740   9.8740   9.8740   9.8740
    10.0295  10.0295  10.1308  10.1308  10.1815  10.1815  10.1815  10.1815
    10.7983  10.7983  10.7983  10.7983  10.9978  10.9978  10.9978  10.9978

     occupation numbers 
     1.0000   1.0000   1.0000   1.0000   1.0000   1.0000   1.0000   1.0000
     1.0000   1.0000   1.0000   1.0000   1.0000   1.0000   1.0000   1.0000
     1.0000   1.0000   1.0000   1.0000   1.0000   1.0000   1.0000   1.0000
     1.0000   1.0000   1.0000   1.0000   1.0000   1.0000   1.0000   1.0000
     1.0000   1.0000   1.0000   1.0000   1.0000   1.0000   1.0000   1.0000
     1.0000   1.0000   1.0000   1.0000   1.0000   1.0000   1.0000   1.0000
     1.0000   1.0000   1.0000   1.0000   1.0000   1.0000   1.0000   1.0000
     1.0000   1.0000   1.0000   1.0000   1.0000   1.0000   1.0000   1.0000
     1.0000   1.0000   1.0000   1.0000   1.0000   1.0000   1.0000   1.0000
     1.0000   1.0000   1.0000   1.0000   1.0000   1.0000   1.0000   1.0000
     1.0000   1.0000   1.0000   1.0000   1.0000   1.0000   1.0000   1.0000
     1.0000   1.0000   1.0000   1.0000   1.0000   1.0000   1.0000   1.0000
     1.0000   1.0000   1.0000   1.0000   1.0000   1.0000   1.0000   1.0000
     1.0000   1.0000   1.0000   1.0000   1.0000   1.0000   1.0000   1.0000
     1.0000   1.0000   1.0000   1.0000   1.0000   1.0000   1.0000   1.0000
     1.0000   1.0000   1.0000   1.0000   1.0000   1.0000   1.0000   1.0000
     1.0000   1.0000   1.0000   1.0000   1.0000   1.0000   1.0000   1.0000
     1.0000   1.0000   1.0000   1.0000   1.0000   1.0000   1.0000   1.0000
     1.0000   1.0000   1.0000   1.0000   1.0000   1.0000   1.0000   1.0000
     1.0000   1.0000   1.0000   1.0000   1.0000   1.0000   1.0000   1.0000
     1.0000   1.0000   1.0000   1.0000   1.0000   1.0000   1.0000   1.0000
     1.0000   1.0000   1.0000   1.0000   1.0000   1.0000   1.0000   1.0000
     1.0000   1.0000   1.0000   1.0000   1.0000   1.0000   1.0000   1.0000
     1.0000   1.0000   1.0000   1.0000   1.0000   1.0000   1.0000   1.0000
     1.0000   1.0000   1.0000   1.0000   1.0000   1.0000   1.0000   1.0000
     1.0000   1.0000   1.0000   1.0000   1.0000   1.0000   1.0000   1.0000
     1.0000   1.0000   1.0000   1.0000   1.0000   1.0000   1.0000   1.0000
     1.0000   1.0000   1.0000   1.0000   1.0000   1.0000   1.0000   1.0000
     1.0000   1.0000   1.0000   1.0000   1.0000   1.0000   1.0000   1.0000

          k = 0.0000 0.1667 0.0000 ( 29199 PWs)   bands (ev):

   -35.2091 -35.2091 -35.2091 -35.2090 -35.2088 -35.2087 -35.2087 -35.2086
   -35.2071 -35.2070 -35.2070 -35.2070 -35.2070 -35.2069 -35.2069 -35.2069
   -35.2019 -35.2019 -35.2019 -35.2019 -35.2018 -35.2018 -35.2018 -35.2018
   -35.2018 -35.2018 -35.2018 -35.2018 -35.2017 -35.2017 -35.2015 -35.2015
   -35.1980 -35.1979 -35.1979 -35.1978 -35.1978 -35.1978 -35.1976 -35.1976
   -11.8998 -11.8998 -11.8993 -11.8965 -11.8799 -11.8799 -11.8602 -11.8475
   -11.8417 -11.8417 -11.8258 -11.8258 -11.8054 -11.7881 -11.7213 -11.7101
   -11.7026 -11.7026 -11.7000 -11.6996 -11.6985 -11.6909 -11.6864 -11.6863
   -11.6862 -11.6860 -11.6855 -11.6803 -11.6799 -11.6772 -11.6772 -11.6730
   -11.6701 -11.6683 -11.6642 -11.6642 -11.6601 -11.6601 -11.6599 -11.6596
   -11.6546 -11.6545 -11.6534 -11.6451 -11.6408 -11.6408 -11.6391 -11.6355
   -11.6351 -11.6347 -11.6347 -11.6298 -11.6298 -11.6267 -11.6232 -11.6196
   -11.6165 -11.6124 -11.6124 -11.6106 -11.6099 -11.6079 -11.6079 -11.6078
   -11.6078 -11.6063 -11.6061 -11.6061 -11.6053 -11.6033 -11.6033 -11.6028
   -11.6010 -11.5993 -11.5987 -11.5985 -11.5985 -11.5972 -11.5967 -11.5967
    -8.4469  -8.4239  -7.4098  -7.3916  -7.0209  -7.0209  -7.0068  -7.0068
    -6.6997  -6.6997  -6.6903  -6.6900  -6.6900  -6.6803  -5.8612  -5.8609
    -1.9615  -1.3434  -0.7681  -0.5531  -0.4538  -0.4538  -0.1349  -0.1349
     0.0498   0.0498   0.1283   0.3171   0.3171   0.4401   0.4401   0.4712
     0.7925   0.8921   1.0967   1.0967   1.4298   1.5546   2.6183   3.2591
     5.3880   5.3880   5.5062   5.5084   5.5131   5.6035   5.6969   5.9084
     5.9084   5.9091   5.9091   5.9509   5.9509   6.1169   6.3289   6.3289
     6.4419   6.4912   6.5158   6.5683   6.9625   7.0321   7.0321   7.1584
     7.1584   7.2374   7.2969   7.2969   7.3015   7.3397   7.5732   7.5732
     7.8001   7.8001   8.0244   8.0697   8.2982   8.4353   8.4629   8.5243
     8.5421   8.5507   8.5565   8.5565   8.8837   9.1088   9.1088   9.1871
     9.1871   9.2579   9.2579   9.2753   9.7819   9.8778   9.8778   9.8929
     9.9847   9.9980  10.0155  10.0155  10.0374  10.3315  10.4442  10.5084
    10.5303  10.5303  10.6626  10.7502  10.7502  10.7758  10.8673  10.9768

     occupation numbers 
     1.0000   1.0000   1.0000   1.0000   1.0000   1.0000   1.0000   1.0000
     1.0000   1.0000   1.0000   1.0000   1.0000   1.0000   1.0000   1.0000
     1.0000   1.0000   1.0000   1.0000   1.0000   1.0000   1.0000   1.0000
     1.0000   1.0000   1.0000   1.0000   1.0000   1.0000   1.0000   1.0000
     1.0000   1.0000   1.0000   1.0000   1.0000   1.0000   1.0000   1.0000
     1.0000   1.0000   1.0000   1.0000   1.0000   1.0000   1.0000   1.0000
     1.0000   1.0000   1.0000   1.0000   1.0000   1.0000   1.0000   1.0000
     1.0000   1.0000   1.0000   1.0000   1.0000   1.0000   1.0000   1.0000
     1.0000   1.0000   1.0000   1.0000   1.0000   1.0000   1.0000   1.0000
     1.0000   1.0000   1.0000   1.0000   1.0000   1.0000   1.0000   1.0000
     1.0000   1.0000   1.0000   1.0000   1.0000   1.0000   1.0000   1.0000
     1.0000   1.0000   1.0000   1.0000   1.0000   1.0000   1.0000   1.0000
     1.0000   1.0000   1.0000   1.0000   1.0000   1.0000   1.0000   1.0000
     1.0000   1.0000   1.0000   1.0000   1.0000   1.0000   1.0000   1.0000
     1.0000   1.0000   1.0000   1.0000   1.0000   1.0000   1.0000   1.0000
     1.0000   1.0000   1.0000   1.0000   1.0000   1.0000   1.0000   1.0000
     1.0000   1.0000   1.0000   1.0000   1.0000   1.0000   1.0000   1.0000
     1.0000   1.0000   1.0000   1.0000   1.0000   1.0000   1.0000   1.0000
     1.0000   1.0000   1.0000   1.0000   1.0000   1.0000   1.0000   1.0000
     1.0000   1.0000   1.0000   1.0000   1.0000   1.0000   1.0000   1.0000
     1.0000   1.0000   1.0000   1.0000   1.0000   1.0000   1.0000   1.0000
     1.0000   1.0000   1.0000   1.0000   1.0000   1.0000   1.0000   1.0000
     1.0000   1.0000   1.0000   1.0000   1.0000   1.0000   1.0000   1.0000
     1.0000   1.0000   1.0000   1.0000   1.0000   1.0000   1.0000   1.0000
     1.0000   1.0000   1.0000   1.0000   1.0000   1.0000   1.0000   1.0000
     1.0000   1.0000   1.0000   1.0000   1.0000   1.0000   1.0000   1.0000
     1.0000   1.0000   1.0000   1.0000   1.0000   1.0000   1.0000   1.0000
     1.0000   1.0000   1.0000   1.0000   1.0000   1.0000   1.0000   1.0000
     1.0000   1.0000   1.0000   1.0000   1.0000   1.0000   1.0000   1.0000

          k = 0.0000 0.1667 0.1065 ( 29197 PWs)   bands (ev):

   -35.2092 -35.2091 -35.2091 -35.2090 -35.2087 -35.2087 -35.2086 -35.2086
   -35.2072 -35.2070 -35.2070 -35.2070 -35.2070 -35.2069 -35.2069 -35.2068
   -35.2019 -35.2019 -35.2019 -35.2018 -35.2018 -35.2018 -35.2018 -35.2018
   -35.2017 -35.2017 -35.2017 -35.2017 -35.2017 -35.2017 -35.2017 -35.2017
   -35.1981 -35.1979 -35.1979 -35.1979 -35.1978 -35.1977 -35.1977 -35.1976
   -11.8991 -11.8986 -11.8986 -11.8968 -11.8813 -11.8813 -11.8595 -11.8486
   -11.8414 -11.8414 -11.8262 -11.8262 -11.8041 -11.7893 -11.7199 -11.7090
   -11.7021 -11.7021 -11.6996 -11.6990 -11.6976 -11.6937 -11.6876 -11.6862
   -11.6859 -11.6859 -11.6850 -11.6817 -11.6814 -11.6769 -11.6769 -11.6749
   -11.6695 -11.6684 -11.6645 -11.6645 -11.6626 -11.6617 -11.6617 -11.6601
   -11.6559 -11.6559 -11.6501 -11.6424 -11.6396 -11.6396 -11.6369 -11.6343
   -11.6342 -11.6330 -11.6330 -11.6282 -11.6282 -11.6270 -11.6246 -11.6187
   -11.6177 -11.6119 -11.6118 -11.6101 -11.6096 -11.6093 -11.6093 -11.6075
   -11.6075 -11.6064 -11.6064 -11.6063 -11.6062 -11.6038 -11.6038 -11.6030
   -11.6015 -11.5995 -11.5992 -11.5988 -11.5988 -11.5973 -11.5969 -11.5969
    -8.4454  -8.4255  -7.4086  -7.3928  -7.0199  -7.0199  -7.0077  -7.0077
    -6.6990  -6.6990  -6.6907  -6.6907  -6.6897  -6.6810  -5.8612  -5.8609
    -1.9316  -1.4061  -0.7543  -0.5680  -0.4528  -0.4528  -0.1271  -0.1271
     0.0345   0.0345   0.2223   0.3251   0.3251   0.4377   0.4377   0.4774
     0.7015   1.0063   1.0980   1.0980   1.3241   1.5259   2.6906   3.2299
     5.4013   5.4013   5.5107   5.5124   5.5147   5.5967   5.7126   5.7871
     5.7871   5.8845   5.8845   6.0476   6.0679   6.0679   6.3798   6.3798
     6.5138   6.5191   6.5345   6.5646   6.9188   6.9413   6.9413   7.1966
     7.2048   7.2048   7.2957   7.2957   7.3042   7.3373   7.5363   7.5363
     7.9111   7.9111   8.0264   8.0654   8.3528   8.4422   8.4910   8.5191
     8.5411   8.5585   8.5642   8.5642   8.8555   8.9535   8.9535   9.1733
     9.2269   9.2269   9.2575   9.2575   9.8611   9.8717   9.8718   9.8937
     9.9823  10.0134  10.0337  10.0337  10.0604  10.2782  10.4117  10.4960
    10.5465  10.5465  10.6742  10.7418  10.7418  10.7711  10.8747  10.9696

     occupation numbers 
     1.0000   1.0000   1.0000   1.0000   1.0000   1.0000   1.0000   1.0000
     1.0000   1.0000   1.0000   1.0000   1.0000   1.0000   1.0000   1.0000
     1.0000   1.0000   1.0000   1.0000   1.0000   1.0000   1.0000   1.0000
     1.0000   1.0000   1.0000   1.0000   1.0000   1.0000   1.0000   1.0000
     1.0000   1.0000   1.0000   1.0000   1.0000   1.0000   1.0000   1.0000
     1.0000   1.0000   1.0000   1.0000   1.0000   1.0000   1.0000   1.0000
     1.0000   1.0000   1.0000   1.0000   1.0000   1.0000   1.0000   1.0000
     1.0000   1.0000   1.0000   1.0000   1.0000   1.0000   1.0000   1.0000
     1.0000   1.0000   1.0000   1.0000   1.0000   1.0000   1.0000   1.0000
     1.0000   1.0000   1.0000   1.0000   1.0000   1.0000   1.0000   1.0000
     1.0000   1.0000   1.0000   1.0000   1.0000   1.0000   1.0000   1.0000
     1.0000   1.0000   1.0000   1.0000   1.0000   1.0000   1.0000   1.0000
     1.0000   1.0000   1.0000   1.0000   1.0000   1.0000   1.0000   1.0000
     1.0000   1.0000   1.0000   1.0000   1.0000   1.0000   1.0000   1.0000
     1.0000   1.0000   1.0000   1.0000   1.0000   1.0000   1.0000   1.0000
     1.0000   1.0000   1.0000   1.0000   1.0000   1.0000   1.0000   1.0000
     1.0000   1.0000   1.0000   1.0000   1.0000   1.0000   1.0000   1.0000
     1.0000   1.0000   1.0000   1.0000   1.0000   1.0000   1.0000   1.0000
     1.0000   1.0000   1.0000   1.0000   1.0000   1.0000   1.0000   1.0000
     1.0000   1.0000   1.0000   1.0000   1.0000   1.0000   1.0000   1.0000
     1.0000   1.0000   1.0000   1.0000   1.0000   1.0000   1.0000   1.0000
     1.0000   1.0000   1.0000   1.0000   1.0000   1.0000   1.0000   1.0000
     1.0000   1.0000   1.0000   1.0000   1.0000   1.0000   1.0000   1.0000
     1.0000   1.0000   1.0000   1.0000   1.0000   1.0000   1.0000   1.0000
     1.0000   1.0000   1.0000   1.0000   1.0000   1.0000   1.0000   1.0000
     1.0000   1.0000   1.0000   1.0000   1.0000   1.0000   1.0000   1.0000
     1.0000   1.0000   1.0000   1.0000   1.0000   1.0000   1.0000   1.0000
     1.0000   1.0000   1.0000   1.0000   1.0000   1.0000   1.0000   1.0000
     1.0000   1.0000   1.0000   1.0000   1.0000   1.0000   1.0000   1.0000

          k = 0.0000 0.1667 0.2129 ( 29192 PWs)   bands (ev):

   -35.2092 -35.2092 -35.2091 -35.2090 -35.2088 -35.2086 -35.2086 -35.2086
   -35.2071 -35.2071 -35.2071 -35.2070 -35.2069 -35.2069 -35.2069 -35.2068
   -35.2019 -35.2019 -35.2018 -35.2018 -35.2018 -35.2018 -35.2018 -35.2018
   -35.2018 -35.2018 -35.2017 -35.2017 -35.2016 -35.2016 -35.2016 -35.2016
   -35.1979 -35.1978 -35.1978 -35.1978 -35.1978 -35.1977 -35.1976 -35.1976
   -11.8986 -11.8972 -11.8952 -11.8952 -11.8852 -11.8852 -11.8575 -11.8513
   -11.8406 -11.8406 -11.8271 -11.8271 -11.8007 -11.7923 -11.7156 -11.7060
   -11.7012 -11.7009 -11.7009 -11.7003 -11.6959 -11.6947 -11.6878 -11.6866
   -11.6862 -11.6853 -11.6853 -11.6853 -11.6834 -11.6778 -11.6764 -11.6763
   -11.6713 -11.6674 -11.6660 -11.6658 -11.6658 -11.6641 -11.6641 -11.6616
   -11.6581 -11.6581 -11.6428 -11.6376 -11.6376 -11.6375 -11.6330 -11.6318
   -11.6317 -11.6300 -11.6300 -11.6287 -11.6279 -11.6240 -11.6240 -11.6211
   -11.6163 -11.6129 -11.6129 -11.6106 -11.6106 -11.6090 -11.6088 -11.6087
   -11.6073 -11.6073 -11.6068 -11.6068 -11.6057 -11.6051 -11.6051 -11.6036
   -11.6027 -11.6014 -11.5995 -11.5995 -11.5988 -11.5977 -11.5972 -11.5972
    -8.4412  -8.4297  -7.4053  -7.3962  -7.0174  -7.0174  -7.0102  -7.0102
    -6.6973  -6.6973  -6.6924  -6.6924  -6.6878  -6.6828  -5.8612  -5.8610
    -1.8447  -1.5510  -0.7163  -0.6086  -0.4508  -0.4508  -0.1066  -0.1066
     0.0005   0.0005   0.3396   0.3396   0.4329   0.4329   0.4588   0.4980
     0.6048   1.0710   1.1005   1.1005   1.1658   1.4434   2.8478   3.1448
     5.4342   5.4342   5.5153   5.5177   5.5296   5.5782   5.7117   5.7117
     5.7587   5.7762   5.7762   5.9335   6.2436   6.2436   6.4441   6.4441
     6.5284   6.5547   6.5794   6.7035   6.7831   6.7831   6.8236   7.0826
     7.2515   7.2515   7.2913   7.2913   7.3114   7.3305   7.5293   7.5293
     8.0327   8.0549   8.1178   8.1178   8.4602   8.4857   8.5045   8.5270
     8.5385   8.5795   8.5795   8.6266   8.6803   8.6803   8.7717   8.9765
     9.2451   9.2451   9.2564   9.2564   9.8597   9.8597   9.8992   9.9477
     9.9703  10.0470  10.0471  10.1258  10.1275  10.1702  10.3276  10.4260
    10.5858  10.5858  10.7020  10.7179  10.7180  10.7566  10.8949  10.9497

     occupation numbers 
     1.0000   1.0000   1.0000   1.0000   1.0000   1.0000   1.0000   1.0000
     1.0000   1.0000   1.0000   1.0000   1.0000   1.0000   1.0000   1.0000
     1.0000   1.0000   1.0000   1.0000   1.0000   1.0000   1.0000   1.0000
     1.0000   1.0000   1.0000   1.0000   1.0000   1.0000   1.0000   1.0000
     1.0000   1.0000   1.0000   1.0000   1.0000   1.0000   1.0000   1.0000
     1.0000   1.0000   1.0000   1.0000   1.0000   1.0000   1.0000   1.0000
     1.0000   1.0000   1.0000   1.0000   1.0000   1.0000   1.0000   1.0000
     1.0000   1.0000   1.0000   1.0000   1.0000   1.0000   1.0000   1.0000
     1.0000   1.0000   1.0000   1.0000   1.0000   1.0000   1.0000   1.0000
     1.0000   1.0000   1.0000   1.0000   1.0000   1.0000   1.0000   1.0000
     1.0000   1.0000   1.0000   1.0000   1.0000   1.0000   1.0000   1.0000
     1.0000   1.0000   1.0000   1.0000   1.0000   1.0000   1.0000   1.0000
     1.0000   1.0000   1.0000   1.0000   1.0000   1.0000   1.0000   1.0000
     1.0000   1.0000   1.0000   1.0000   1.0000   1.0000   1.0000   1.0000
     1.0000   1.0000   1.0000   1.0000   1.0000   1.0000   1.0000   1.0000
     1.0000   1.0000   1.0000   1.0000   1.0000   1.0000   1.0000   1.0000
     1.0000   1.0000   1.0000   1.0000   1.0000   1.0000   1.0000   1.0000
     1.0000   1.0000   1.0000   1.0000   1.0000   1.0000   1.0000   1.0000
     1.0000   1.0000   1.0000   1.0000   1.0000   1.0000   1.0000   1.0000
     1.0000   1.0000   1.0000   1.0000   1.0000   1.0000   1.0000   1.0000
     1.0000   1.0000   1.0000   1.0000   1.0000   1.0000   1.0000   1.0000
     1.0000   1.0000   1.0000   1.0000   1.0000   1.0000   1.0000   1.0000
     1.0000   1.0000   1.0000   1.0000   1.0000   1.0000   1.0000   1.0000
     1.0000   1.0000   1.0000   1.0000   1.0000   1.0000   1.0000   1.0000
     1.0000   1.0000   1.0000   1.0000   1.0000   1.0000   1.0000   1.0000
     1.0000   1.0000   1.0000   1.0000   1.0000   1.0000   1.0000   1.0000
     1.0000   1.0000   1.0000   1.0000   1.0000   1.0000   1.0000   1.0000
     1.0000   1.0000   1.0000   1.0000   1.0000   1.0000   1.0000   1.0000
     1.0000   1.0000   1.0000   1.0000   1.0000   1.0000   1.0000   1.0000

          k = 0.0000 0.1667-0.3194 ( 29188 PWs)   bands (ev):

   -35.2093 -35.2093 -35.2091 -35.2091 -35.2088 -35.2087 -35.2086 -35.2086
   -35.2071 -35.2070 -35.2070 -35.2070 -35.2070 -35.2069 -35.2069 -35.2068
   -35.2018 -35.2018 -35.2018 -35.2018 -35.2018 -35.2017 -35.2017 -35.2017
   -35.2017 -35.2017 -35.2017 -35.2017 -35.2017 -35.2017 -35.2016 -35.2016
   -35.1979 -35.1979 -35.1978 -35.1977 -35.1977 -35.1977 -35.1977 -35.1976
   -11.8980 -11.8980 -11.8907 -11.8907 -11.8899 -11.8899 -11.8545 -11.8545
   -11.8402 -11.8402 -11.8277 -11.8277 -11.7964 -11.7964 -11.7092 -11.7091
   -11.7025 -11.7025 -11.7003 -11.7003 -11.6914 -11.6914 -11.6904 -11.6904
   -11.6871 -11.6871 -11.6849 -11.6848 -11.6809 -11.6809 -11.6760 -11.6760
   -11.6708 -11.6708 -11.6670 -11.6670 -11.6647 -11.6647 -11.6637 -11.6637
   -11.6592 -11.6592 -11.6367 -11.6367 -11.6351 -11.6351 -11.6340 -11.6340
   -11.6294 -11.6294 -11.6286 -11.6286 -11.6261 -11.6261 -11.6187 -11.6187
   -11.6180 -11.6180 -11.6127 -11.6127 -11.6096 -11.6096 -11.6081 -11.6081
   -11.6073 -11.6072 -11.6069 -11.6069 -11.6062 -11.6062 -11.6039 -11.6039
   -11.6037 -11.6037 -11.6000 -11.5999 -11.5983 -11.5983 -11.5974 -11.5973
    -8.4355  -8.4355  -7.4007  -7.4007  -7.0146  -7.0146  -7.0131  -7.0131
    -6.6949  -6.6949  -6.6948  -6.6948  -6.6853  -6.6853  -5.8611  -5.8611
    -1.7110  -1.7109  -0.6631  -0.6631  -0.4498  -0.4497  -0.0902  -0.0902
    -0.0220  -0.0220   0.3463   0.3463   0.4305   0.4305   0.5382   0.5382
     0.7617   0.7617   1.1018   1.1018   1.3181   1.3181   3.0119   3.0119
     5.4564   5.4564   5.5185   5.5185   5.5536   5.5536   5.6862   5.6862
     5.7245   5.7245   5.8335   5.8335   6.3513   6.3513   6.4650   6.4650
     6.5414   6.5414   6.6783   6.6783   6.6796   6.6796   6.9189   6.9189
     7.2722   7.2722   7.2842   7.2842   7.3211   7.3211   7.5437   7.5437
     8.0428   8.0428   8.3004   8.3004   8.4622   8.4622   8.4832   8.4832
     8.5349   8.5349   8.5870   8.5870   8.6403   8.6403   8.7804   8.7804
     9.2498   9.2498   9.2553   9.2553   9.8537   9.8537   9.9163   9.9163
    10.0453  10.0454  10.0626  10.0627  10.2221  10.2221  10.2908  10.2908
    10.6139  10.6139  10.6975  10.6976  10.7325  10.7325  10.9224  10.9224

     occupation numbers 
     1.0000   1.0000   1.0000   1.0000   1.0000   1.0000   1.0000   1.0000
     1.0000   1.0000   1.0000   1.0000   1.0000   1.0000   1.0000   1.0000
     1.0000   1.0000   1.0000   1.0000   1.0000   1.0000   1.0000   1.0000
     1.0000   1.0000   1.0000   1.0000   1.0000   1.0000   1.0000   1.0000
     1.0000   1.0000   1.0000   1.0000   1.0000   1.0000   1.0000   1.0000
     1.0000   1.0000   1.0000   1.0000   1.0000   1.0000   1.0000   1.0000
     1.0000   1.0000   1.0000   1.0000   1.0000   1.0000   1.0000   1.0000
     1.0000   1.0000   1.0000   1.0000   1.0000   1.0000   1.0000   1.0000
     1.0000   1.0000   1.0000   1.0000   1.0000   1.0000   1.0000   1.0000
     1.0000   1.0000   1.0000   1.0000   1.0000   1.0000   1.0000   1.0000
     1.0000   1.0000   1.0000   1.0000   1.0000   1.0000   1.0000   1.0000
     1.0000   1.0000   1.0000   1.0000   1.0000   1.0000   1.0000   1.0000
     1.0000   1.0000   1.0000   1.0000   1.0000   1.0000   1.0000   1.0000
     1.0000   1.0000   1.0000   1.0000   1.0000   1.0000   1.0000   1.0000
     1.0000   1.0000   1.0000   1.0000   1.0000   1.0000   1.0000   1.0000
     1.0000   1.0000   1.0000   1.0000   1.0000   1.0000   1.0000   1.0000
     1.0000   1.0000   1.0000   1.0000   1.0000   1.0000   1.0000   1.0000
     1.0000   1.0000   1.0000   1.0000   1.0000   1.0000   1.0000   1.0000
     1.0000   1.0000   1.0000   1.0000   1.0000   1.0000   1.0000   1.0000
     1.0000   1.0000   1.0000   1.0000   1.0000   1.0000   1.0000   1.0000
     1.0000   1.0000   1.0000   1.0000   1.0000   1.0000   1.0000   1.0000
     1.0000   1.0000   1.0000   1.0000   1.0000   1.0000   1.0000   1.0000
     1.0000   1.0000   1.0000   1.0000   1.0000   1.0000   1.0000   1.0000
     1.0000   1.0000   1.0000   1.0000   1.0000   1.0000   1.0000   1.0000
     1.0000   1.0000   1.0000   1.0000   1.0000   1.0000   1.0000   1.0000
     1.0000   1.0000   1.0000   1.0000   1.0000   1.0000   1.0000   1.0000
     1.0000   1.0000   1.0000   1.0000   1.0000   1.0000   1.0000   1.0000
     1.0000   1.0000   1.0000   1.0000   1.0000   1.0000   1.0000   1.0000
     1.0000   1.0000   1.0000   1.0000   1.0000   1.0000   1.0000   1.0000

          k = 0.0000 0.3333 0.0000 ( 29167 PWs)   bands (ev):

   -35.2092 -35.2092 -35.2090 -35.2089 -35.2088 -35.2088 -35.2086 -35.2086
   -35.2071 -35.2071 -35.2070 -35.2069 -35.2069 -35.2069 -35.2067 -35.2067
   -35.2019 -35.2019 -35.2019 -35.2019 -35.2018 -35.2018 -35.2018 -35.2018
   -35.2018 -35.2018 -35.2017 -35.2017 -35.2017 -35.2017 -35.2017 -35.2012
   -35.1979 -35.1979 -35.1979 -35.1979 -35.1979 -35.1977 -35.1975 -35.1973
   -11.8934 -11.8892 -11.8874 -11.8874 -11.8751 -11.8681 -11.8681 -11.8655
   -11.8536 -11.8536 -11.8366 -11.8366 -11.7649 -11.7470 -11.7199 -11.7145
   -11.6979 -11.6969 -11.6968 -11.6958 -11.6944 -11.6909 -11.6903 -11.6876
   -11.6876 -11.6833 -11.6792 -11.6784 -11.6782 -11.6735 -11.6731 -11.6690
   -11.6690 -11.6647 -11.6630 -11.6606 -11.6581 -11.6573 -11.6573 -11.6536
   -11.6536 -11.6534 -11.6534 -11.6521 -11.6457 -11.6457 -11.6454 -11.6451
   -11.6446 -11.6430 -11.6345 -11.6315 -11.6315 -11.6276 -11.6276 -11.6205
   -11.6205 -11.6190 -11.6183 -11.6174 -11.6174 -11.6170 -11.6170 -11.6147
   -11.6107 -11.6081 -11.6075 -11.6075 -11.6055 -11.6055 -11.6047 -11.6024
   -11.6023 -11.6019 -11.6003 -11.5990 -11.5979 -11.5979 -11.5971 -11.5971
    -8.2972  -8.2743  -7.7582  -7.7373  -6.9572  -6.9572  -6.9438  -6.9438
    -6.7721  -6.7721  -6.7613  -6.7613  -6.3792  -6.3731  -5.9604  -5.9591
    -1.8006  -1.2174  -1.1782  -0.7837  -0.3767  -0.3767  -0.1642  -0.1642
     0.1089   0.1090   0.1922   0.3647   0.3648   0.4910   0.4910   0.5108
     0.6933   0.9428   0.9429   1.2283   1.5372   1.9500   2.4999   2.8285
     5.2759   5.2760   5.4260   5.4769   5.5145   5.5145   5.6410   5.6450
     5.7348   5.7438   5.7438   5.7878   5.7878   5.9968   6.1639   6.2293
     6.5409   6.5409   6.8609   6.9228   6.9452   6.9452   7.1023   7.4232
     7.5771   7.5771   7.6810   7.6827   7.7239   7.7727   7.8460   7.8460
     7.8748   7.8748   8.0259   8.1626   8.2171   8.2661   8.2661   8.2748
     8.3453   8.4532   8.5355   8.5355   8.8348   8.8348   9.1331   9.1418
     9.1418   9.2368   9.2368   9.2803   9.8191   9.8191   9.8218   9.8556
     9.8556   9.9594   9.9932   9.9932  10.1480  10.1480  10.1666  10.1689
    10.1905  10.3163  10.3604  10.4179  10.5401  10.6330  10.6349  10.8484

     occupation numbers 
     1.0000   1.0000   1.0000   1.0000   1.0000   1.0000   1.0000   1.0000
     1.0000   1.0000   1.0000   1.0000   1.0000   1.0000   1.0000   1.0000
     1.0000   1.0000   1.0000   1.0000   1.0000   1.0000   1.0000   1.0000
     1.0000   1.0000   1.0000   1.0000   1.0000   1.0000   1.0000   1.0000
     1.0000   1.0000   1.0000   1.0000   1.0000   1.0000   1.0000   1.0000
     1.0000   1.0000   1.0000   1.0000   1.0000   1.0000   1.0000   1.0000
     1.0000   1.0000   1.0000   1.0000   1.0000   1.0000   1.0000   1.0000
     1.0000   1.0000   1.0000   1.0000   1.0000   1.0000   1.0000   1.0000
     1.0000   1.0000   1.0000   1.0000   1.0000   1.0000   1.0000   1.0000
     1.0000   1.0000   1.0000   1.0000   1.0000   1.0000   1.0000   1.0000
     1.0000   1.0000   1.0000   1.0000   1.0000   1.0000   1.0000   1.0000
     1.0000   1.0000   1.0000   1.0000   1.0000   1.0000   1.0000   1.0000
     1.0000   1.0000   1.0000   1.0000   1.0000   1.0000   1.0000   1.0000
     1.0000   1.0000   1.0000   1.0000   1.0000   1.0000   1.0000   1.0000
     1.0000   1.0000   1.0000   1.0000   1.0000   1.0000   1.0000   1.0000
     1.0000   1.0000   1.0000   1.0000   1.0000   1.0000   1.0000   1.0000
     1.0000   1.0000   1.0000   1.0000   1.0000   1.0000   1.0000   1.0000
     1.0000   1.0000   1.0000   1.0000   1.0000   1.0000   1.0000   1.0000
     1.0000   1.0000   1.0000   1.0000   1.0000   1.0000   1.0000   1.0000
     1.0000   1.0000   1.0000   1.0000   1.0000   1.0000   1.0000   1.0000
     1.0000   1.0000   1.0000   1.0000   1.0000   1.0000   1.0000   1.0000
     1.0000   1.0000   1.0000   1.0000   1.0000   1.0000   1.0000   1.0000
     1.0000   1.0000   1.0000   1.0000   1.0000   1.0000   1.0000   1.0000
     1.0000   1.0000   1.0000   1.0000   1.0000   1.0000   1.0000   1.0000
     1.0000   1.0000   1.0000   1.0000   1.0000   1.0000   1.0000   1.0000
     1.0000   1.0000   1.0000   1.0000   1.0000   1.0000   1.0000   1.0000
     1.0000   1.0000   1.0000   1.0000   1.0000   1.0000   1.0000   1.0000
     1.0000   1.0000   1.0000   1.0000   1.0000   1.0000   1.0000   1.0000
     1.0000   1.0000   1.0000   1.0000   1.0000   1.0000   1.0000   1.0000

          k = 0.0000 0.3333 0.1065 ( 29197 PWs)   bands (ev):

   -35.2093 -35.2092 -35.2090 -35.2090 -35.2089 -35.2088 -35.2086 -35.2086
   -35.2071 -35.2071 -35.2070 -35.2070 -35.2069 -35.2069 -35.2069 -35.2068
   -35.2019 -35.2019 -35.2019 -35.2019 -35.2018 -35.2018 -35.2018 -35.2018
   -35.2017 -35.2017 -35.2017 -35.2017 -35.2017 -35.2017 -35.2017 -35.2016
   -35.1981 -35.1980 -35.1979 -35.1979 -35.1978 -35.1977 -35.1977 -35.1976
   -11.8931 -11.8895 -11.8863 -11.8863 -11.8745 -11.8695 -11.8695 -11.8662
   -11.8530 -11.8530 -11.8374 -11.8374 -11.7638 -11.7485 -11.7187 -11.7129
   -11.6977 -11.6968 -11.6965 -11.6964 -11.6954 -11.6902 -11.6896 -11.6874
   -11.6874 -11.6833 -11.6816 -11.6803 -11.6787 -11.6757 -11.6737 -11.6687
   -11.6687 -11.6648 -11.6628 -11.6609 -11.6580 -11.6580 -11.6550 -11.6550
   -11.6543 -11.6543 -11.6537 -11.6527 -11.6454 -11.6444 -11.6443 -11.6439
   -11.6428 -11.6427 -11.6350 -11.6300 -11.6300 -11.6264 -11.6264 -11.6204
   -11.6204 -11.6197 -11.6182 -11.6173 -11.6173 -11.6163 -11.6163 -11.6139
   -11.6100 -11.6087 -11.6087 -11.6078 -11.6063 -11.6063 -11.6057 -11.6033
   -11.6026 -11.6015 -11.6008 -11.5992 -11.5981 -11.5981 -11.5973 -11.5972
    -8.2957  -8.2759  -7.7568  -7.7387  -6.9563  -6.9563  -6.9447  -6.9447
    -6.7714  -6.7714  -6.7620  -6.7620  -6.3788  -6.3735  -5.9603  -5.9592
    -1.7720  -1.2755  -1.1566  -0.8172  -0.3761  -0.3761  -0.1632  -0.1632
     0.1065   0.1065   0.2739   0.3639   0.3639   0.4929   0.4929   0.5317
     0.6866   0.9429   0.9430   1.1583   1.5624   1.9206   2.5315   2.8117
     5.2603   5.2603   5.4423   5.4523   5.4523   5.5022   5.6291   5.6507
     5.7285   5.7866   5.7866   5.8379   5.8379   5.9432   6.1681   6.2247
     6.5941   6.5941   6.9008   6.9008   6.9146   6.9299   7.0873   7.3972
     7.5942   7.5942   7.6849   7.6856   7.7213   7.7662   7.7747   7.7747
     7.8676   7.8676   8.0442   8.1589   8.2787   8.2801   8.3189   8.3189
     8.3411   8.4778   8.5258   8.5258   8.7941   8.7941   9.0645   9.1401
     9.1401   9.1547   9.2051   9.2051   9.7779   9.7779   9.9074   9.9248
     9.9248   9.9684  10.0329  10.0329  10.1421  10.1744  10.1744  10.1906
    10.2203  10.2443  10.4187  10.4511  10.5114  10.6290  10.6468  10.8333

     occupation numbers 
     1.0000   1.0000   1.0000   1.0000   1.0000   1.0000   1.0000   1.0000
     1.0000   1.0000   1.0000   1.0000   1.0000   1.0000   1.0000   1.0000
     1.0000   1.0000   1.0000   1.0000   1.0000   1.0000   1.0000   1.0000
     1.0000   1.0000   1.0000   1.0000   1.0000   1.0000   1.0000   1.0000
     1.0000   1.0000   1.0000   1.0000   1.0000   1.0000   1.0000   1.0000
     1.0000   1.0000   1.0000   1.0000   1.0000   1.0000   1.0000   1.0000
     1.0000   1.0000   1.0000   1.0000   1.0000   1.0000   1.0000   1.0000
     1.0000   1.0000   1.0000   1.0000   1.0000   1.0000   1.0000   1.0000
     1.0000   1.0000   1.0000   1.0000   1.0000   1.0000   1.0000   1.0000
     1.0000   1.0000   1.0000   1.0000   1.0000   1.0000   1.0000   1.0000
     1.0000   1.0000   1.0000   1.0000   1.0000   1.0000   1.0000   1.0000
     1.0000   1.0000   1.0000   1.0000   1.0000   1.0000   1.0000   1.0000
     1.0000   1.0000   1.0000   1.0000   1.0000   1.0000   1.0000   1.0000
     1.0000   1.0000   1.0000   1.0000   1.0000   1.0000   1.0000   1.0000
     1.0000   1.0000   1.0000   1.0000   1.0000   1.0000   1.0000   1.0000
     1.0000   1.0000   1.0000   1.0000   1.0000   1.0000   1.0000   1.0000
     1.0000   1.0000   1.0000   1.0000   1.0000   1.0000   1.0000   1.0000
     1.0000   1.0000   1.0000   1.0000   1.0000   1.0000   1.0000   1.0000
     1.0000   1.0000   1.0000   1.0000   1.0000   1.0000   1.0000   1.0000
     1.0000   1.0000   1.0000   1.0000   1.0000   1.0000   1.0000   1.0000
     1.0000   1.0000   1.0000   1.0000   1.0000   1.0000   1.0000   1.0000
     1.0000   1.0000   1.0000   1.0000   1.0000   1.0000   1.0000   1.0000
     1.0000   1.0000   1.0000   1.0000   1.0000   1.0000   1.0000   1.0000
     1.0000   1.0000   1.0000   1.0000   1.0000   1.0000   1.0000   1.0000
     1.0000   1.0000   1.0000   1.0000   1.0000   1.0000   1.0000   1.0000
     1.0000   1.0000   1.0000   1.0000   1.0000   1.0000   1.0000   1.0000
     1.0000   1.0000   1.0000   1.0000   1.0000   1.0000   1.0000   1.0000
     1.0000   1.0000   1.0000   1.0000   1.0000   1.0000   1.0000   1.0000
     1.0000   1.0000   1.0000   1.0000   1.0000   1.0000   1.0000   1.0000

          k = 0.0000 0.3333 0.2129 ( 29173 PWs)   bands (ev):

   -35.2092 -35.2092 -35.2090 -35.2089 -35.2088 -35.2088 -35.2087 -35.2085
   -35.2071 -35.2070 -35.2070 -35.2070 -35.2069 -35.2068 -35.2068 -35.2068
   -35.2019 -35.2019 -35.2018 -35.2018 -35.2018 -35.2018 -35.2018 -35.2017
   -35.2017 -35.2017 -35.2017 -35.2017 -35.2017 -35.2017 -35.2016 -35.2016
   -35.1979 -35.1979 -35.1978 -35.1978 -35.1978 -35.1977 -35.1977 -35.1976
   -11.8923 -11.8903 -11.8831 -11.8831 -11.8731 -11.8731 -11.8728 -11.8681
   -11.8513 -11.8513 -11.8393 -11.8393 -11.7609 -11.7521 -11.7149 -11.7086
   -11.7030 -11.6984 -11.6957 -11.6957 -11.6939 -11.6884 -11.6874 -11.6867
   -11.6867 -11.6846 -11.6834 -11.6834 -11.6816 -11.6798 -11.6742 -11.6693
   -11.6679 -11.6679 -11.6598 -11.6598 -11.6596 -11.6571 -11.6571 -11.6563
   -11.6556 -11.6556 -11.6543 -11.6488 -11.6478 -11.6428 -11.6423 -11.6423
   -11.6412 -11.6365 -11.6363 -11.6271 -11.6271 -11.6235 -11.6233 -11.6233
   -11.6204 -11.6204 -11.6171 -11.6171 -11.6159 -11.6146 -11.6146 -11.6117
   -11.6116 -11.6116 -11.6085 -11.6084 -11.6084 -11.6083 -11.6071 -11.6055
   -11.6032 -11.6021 -11.6009 -11.5996 -11.5987 -11.5987 -11.5977 -11.5976
    -8.2916  -8.2801  -7.7530  -7.7426  -6.9539  -6.9539  -6.9471  -6.9471
    -6.7694  -6.7694  -6.7640  -6.7640  -6.3777  -6.3746  -5.9600  -5.9594
    -1.6891  -1.4109  -1.0951  -0.9016  -0.3750  -0.3749  -0.1613  -0.1613
     0.1015   0.1015   0.3623   0.3623   0.4771   0.4967   0.4967   0.5796
     0.6656   0.9431   0.9431   0.9748   1.6337   1.8413   2.6062   2.7636
     5.2306   5.2306   5.3783   5.3783   5.4857   5.5753   5.5942   5.6666
     5.7115   5.7858   5.7858   5.8211   5.9876   5.9876   6.1797   6.2124
     6.7076   6.7076   6.8022   6.8022   6.9508   7.0033   7.0869   7.3215
     7.6284   7.6284   7.6538   7.6538   7.6935   7.6991   7.7141   7.7480
     7.8506   7.8506   8.0847   8.1465   8.2940   8.3292   8.3737   8.3737
     8.4422   8.5074   8.5074   8.5601   8.7291   8.7291   8.8880   8.9249
     9.1297   9.1297   9.1819   9.1820   9.7219   9.7219   9.9952  10.0177
    10.0306  10.0306  10.0866  10.0866  10.0912  10.1619  10.2260  10.2260
    10.2520  10.3108  10.4365  10.4490  10.5156  10.6095  10.6850  10.7925

     occupation numbers 
     1.0000   1.0000   1.0000   1.0000   1.0000   1.0000   1.0000   1.0000
     1.0000   1.0000   1.0000   1.0000   1.0000   1.0000   1.0000   1.0000
     1.0000   1.0000   1.0000   1.0000   1.0000   1.0000   1.0000   1.0000
     1.0000   1.0000   1.0000   1.0000   1.0000   1.0000   1.0000   1.0000
     1.0000   1.0000   1.0000   1.0000   1.0000   1.0000   1.0000   1.0000
     1.0000   1.0000   1.0000   1.0000   1.0000   1.0000   1.0000   1.0000
     1.0000   1.0000   1.0000   1.0000   1.0000   1.0000   1.0000   1.0000
     1.0000   1.0000   1.0000   1.0000   1.0000   1.0000   1.0000   1.0000
     1.0000   1.0000   1.0000   1.0000   1.0000   1.0000   1.0000   1.0000
     1.0000   1.0000   1.0000   1.0000   1.0000   1.0000   1.0000   1.0000
     1.0000   1.0000   1.0000   1.0000   1.0000   1.0000   1.0000   1.0000
     1.0000   1.0000   1.0000   1.0000   1.0000   1.0000   1.0000   1.0000
     1.0000   1.0000   1.0000   1.0000   1.0000   1.0000   1.0000   1.0000
     1.0000   1.0000   1.0000   1.0000   1.0000   1.0000   1.0000   1.0000
     1.0000   1.0000   1.0000   1.0000   1.0000   1.0000   1.0000   1.0000
     1.0000   1.0000   1.0000   1.0000   1.0000   1.0000   1.0000   1.0000
     1.0000   1.0000   1.0000   1.0000   1.0000   1.0000   1.0000   1.0000
     1.0000   1.0000   1.0000   1.0000   1.0000   1.0000   1.0000   1.0000
     1.0000   1.0000   1.0000   1.0000   1.0000   1.0000   1.0000   1.0000
     1.0000   1.0000   1.0000   1.0000   1.0000   1.0000   1.0000   1.0000
     1.0000   1.0000   1.0000   1.0000   1.0000   1.0000   1.0000   1.0000
     1.0000   1.0000   1.0000   1.0000   1.0000   1.0000   1.0000   1.0000
     1.0000   1.0000   1.0000   1.0000   1.0000   1.0000   1.0000   1.0000
     1.0000   1.0000   1.0000   1.0000   1.0000   1.0000   1.0000   1.0000
     1.0000   1.0000   1.0000   1.0000   1.0000   1.0000   1.0000   1.0000
     1.0000   1.0000   1.0000   1.0000   1.0000   1.0000   1.0000   1.0000
     1.0000   1.0000   1.0000   1.0000   1.0000   1.0000   1.0000   1.0000
     1.0000   1.0000   1.0000   1.0000   1.0000   1.0000   1.0000   1.0000
     1.0000   1.0000   1.0000   1.0000   1.0000   1.0000   1.0000   1.0000

          k = 0.0000 0.3333-0.3194 ( 29180 PWs)   bands (ev):

   -35.2091 -35.2091 -35.2091 -35.2091 -35.2088 -35.2087 -35.2087 -35.2086
   -35.2071 -35.2071 -35.2070 -35.2070 -35.2069 -35.2069 -35.2069 -35.2068
   -35.2020 -35.2019 -35.2018 -35.2018 -35.2018 -35.2018 -35.2018 -35.2018
   -35.2018 -35.2017 -35.2017 -35.2016 -35.2016 -35.2016 -35.2016 -35.2015
   -35.1979 -35.1979 -35.1978 -35.1978 -35.1977 -35.1977 -35.1977 -35.1976
   -11.8913 -11.8913 -11.8797 -11.8797 -11.8767 -11.8767 -11.8705 -11.8705
   -11.8503 -11.8503 -11.8404 -11.8404 -11.7567 -11.7567 -11.7094 -11.7094
   -11.7032 -11.7032 -11.6953 -11.6953 -11.6896 -11.6896 -11.6864 -11.6864
   -11.6856 -11.6856 -11.6839 -11.6839 -11.6834 -11.6834 -11.6727 -11.6727
   -11.6672 -11.6672 -11.6611 -11.6611 -11.6580 -11.6580 -11.6567 -11.6567
   -11.6561 -11.6561 -11.6517 -11.6516 -11.6448 -11.6448 -11.6414 -11.6414
   -11.6384 -11.6384 -11.6295 -11.6295 -11.6258 -11.6258 -11.6207 -11.6207
   -11.6204 -11.6204 -11.6173 -11.6173 -11.6138 -11.6138 -11.6128 -11.6127
   -11.6121 -11.6121 -11.6106 -11.6106 -11.6086 -11.6086 -11.6071 -11.6071
   -11.6033 -11.6033 -11.6003 -11.6003 -11.5990 -11.5990 -11.5979 -11.5979
    -8.2858  -8.2858  -7.7478  -7.7478  -6.9510  -6.9510  -6.9500  -6.9500
    -6.7668  -6.7668  -6.7666  -6.7666  -6.3761  -6.3761  -5.9597  -5.9597
    -1.5619  -1.5619  -1.0038  -1.0038  -0.3744  -0.3743  -0.1603  -0.1603
     0.0991   0.0991   0.3614   0.3615   0.4985   0.4985   0.6290   0.6290
     0.7302   0.7302   0.9432   0.9432   1.7356   1.7356   2.6910   2.6910
     5.2165   5.2165   5.3510   5.3510   5.5421   5.5421   5.6874   5.6874
     5.6887   5.6887   5.7859   5.7859   6.0623   6.0623   6.1959   6.1959
     6.7443   6.7443   6.7705   6.7705   6.9831   6.9831   7.2055   7.2055
     7.5946   7.5946   7.6463   7.6463   7.7039   7.7039   7.7228   7.7228
     7.8403   7.8403   8.1224   8.1224   8.3121   8.3121   8.3771   8.3771
     8.4986   8.4986   8.6620   8.6620   8.7122   8.7122   8.7125   8.7125
     9.1230   9.1230   9.1807   9.1807   9.6999   9.6999  10.0381  10.0381
    10.0729  10.0729  10.0912  10.0912  10.1081  10.1082  10.2509  10.2509
    10.3409  10.3409  10.4092  10.4092  10.5723  10.5723  10.7381  10.7381

     occupation numbers 
     1.0000   1.0000   1.0000   1.0000   1.0000   1.0000   1.0000   1.0000
     1.0000   1.0000   1.0000   1.0000   1.0000   1.0000   1.0000   1.0000
     1.0000   1.0000   1.0000   1.0000   1.0000   1.0000   1.0000   1.0000
     1.0000   1.0000   1.0000   1.0000   1.0000   1.0000   1.0000   1.0000
     1.0000   1.0000   1.0000   1.0000   1.0000   1.0000   1.0000   1.0000
     1.0000   1.0000   1.0000   1.0000   1.0000   1.0000   1.0000   1.0000
     1.0000   1.0000   1.0000   1.0000   1.0000   1.0000   1.0000   1.0000
     1.0000   1.0000   1.0000   1.0000   1.0000   1.0000   1.0000   1.0000
     1.0000   1.0000   1.0000   1.0000   1.0000   1.0000   1.0000   1.0000
     1.0000   1.0000   1.0000   1.0000   1.0000   1.0000   1.0000   1.0000
     1.0000   1.0000   1.0000   1.0000   1.0000   1.0000   1.0000   1.0000
     1.0000   1.0000   1.0000   1.0000   1.0000   1.0000   1.0000   1.0000
     1.0000   1.0000   1.0000   1.0000   1.0000   1.0000   1.0000   1.0000
     1.0000   1.0000   1.0000   1.0000   1.0000   1.0000   1.0000   1.0000
     1.0000   1.0000   1.0000   1.0000   1.0000   1.0000   1.0000   1.0000
     1.0000   1.0000   1.0000   1.0000   1.0000   1.0000   1.0000   1.0000
     1.0000   1.0000   1.0000   1.0000   1.0000   1.0000   1.0000   1.0000
     1.0000   1.0000   1.0000   1.0000   1.0000   1.0000   1.0000   1.0000
     1.0000   1.0000   1.0000   1.0000   1.0000   1.0000   1.0000   1.0000
     1.0000   1.0000   1.0000   1.0000   1.0000   1.0000   1.0000   1.0000
     1.0000   1.0000   1.0000   1.0000   1.0000   1.0000   1.0000   1.0000
     1.0000   1.0000   1.0000   1.0000   1.0000   1.0000   1.0000   1.0000
     1.0000   1.0000   1.0000   1.0000   1.0000   1.0000   1.0000   1.0000
     1.0000   1.0000   1.0000   1.0000   1.0000   1.0000   1.0000   1.0000
     1.0000   1.0000   1.0000   1.0000   1.0000   1.0000   1.0000   1.0000
     1.0000   1.0000   1.0000   1.0000   1.0000   1.0000   1.0000   1.0000
     1.0000   1.0000   1.0000   1.0000   1.0000   1.0000   1.0000   1.0000
     1.0000   1.0000   1.0000   1.0000   1.0000   1.0000   1.0000   1.0000
     1.0000   1.0000   1.0000   1.0000   1.0000   1.0000   1.0000   1.0000

          k = 0.0000-0.5000 0.0000 ( 29172 PWs)   bands (ev):

   -35.2091 -35.2091 -35.2091 -35.2091 -35.2089 -35.2089 -35.2088 -35.2088
   -35.2071 -35.2071 -35.2070 -35.2070 -35.2069 -35.2069 -35.2068 -35.2068
   -35.2019 -35.2019 -35.2019 -35.2019 -35.2019 -35.2019 -35.2018 -35.2018
   -35.2017 -35.2017 -35.2016 -35.2016 -35.2015 -35.2015 -35.2015 -35.2015
   -35.1979 -35.1979 -35.1979 -35.1979 -35.1978 -35.1978 -35.1973 -35.1973
   -11.8852 -11.8852 -11.8788 -11.8788 -11.8704 -11.8704 -11.8704 -11.8704
   -11.8521 -11.8521 -11.8521 -11.8521 -11.7219 -11.7219 -11.7179 -11.7179
   -11.7048 -11.7048 -11.6945 -11.6945 -11.6911 -11.6911 -11.6911 -11.6911
   -11.6886 -11.6886 -11.6774 -11.6774 -11.6770 -11.6770 -11.6762 -11.6762
   -11.6579 -11.6579 -11.6567 -11.6567 -11.6567 -11.6567 -11.6565 -11.6565
   -11.6551 -11.6551 -11.6538 -11.6538 -11.6538 -11.6538 -11.6435 -11.6435
   -11.6383 -11.6383 -11.6383 -11.6383 -11.6333 -11.6333 -11.6263 -11.6263
   -11.6263 -11.6263 -11.6225 -11.6225 -11.6225 -11.6225 -11.6128 -11.6128
   -11.6118 -11.6118 -11.6072 -11.6072 -11.6072 -11.6072 -11.6052 -11.6052
   -11.6010 -11.6010 -11.6006 -11.6006 -11.5974 -11.5974 -11.5974 -11.5974
    -8.0617  -8.0616  -8.0392  -8.0392  -6.8668  -6.8668  -6.8668  -6.8668
    -6.8546  -6.8546  -6.8546  -6.8546  -6.1325  -6.1325  -6.1294  -6.1294
    -1.5360  -1.5359  -1.0224  -1.0224  -0.2681  -0.2681  -0.2680  -0.2680
     0.2425   0.2425   0.2425   0.2425   0.3140   0.3140   0.7218   0.7218
     0.7218   0.7218   0.9640   0.9640   2.2186   2.2186   2.2775   2.2775
     5.2961   5.2961   5.2961   5.2961   5.3925   5.3925   5.6982   5.6982
     5.6982   5.6982   5.8206   5.8206   5.8682   5.8682   5.9467   5.9467
     6.7748   6.7748   6.7748   6.7748   7.2644   7.2644   7.4774   7.4774
     7.5029   7.5029   7.6273   7.6273   7.9249   7.9249   7.9249   7.9249
     8.0167   8.0168   8.0693   8.0693   8.3101   8.3101   8.3264   8.3264
     8.3264   8.3264   8.5366   8.5366   8.5366   8.5366   9.2488   9.2488
     9.4441   9.4441   9.4441   9.4441   9.5242   9.5242   9.5242   9.5242
     9.7952   9.7952   9.7953   9.7953  10.1139  10.1139  10.1262  10.1262
    10.2834  10.2834  10.3786  10.3786  10.4496  10.4496  10.6847  10.6847

     occupation numbers 
     1.0000   1.0000   1.0000   1.0000   1.0000   1.0000   1.0000   1.0000
     1.0000   1.0000   1.0000   1.0000   1.0000   1.0000   1.0000   1.0000
     1.0000   1.0000   1.0000   1.0000   1.0000   1.0000   1.0000   1.0000
     1.0000   1.0000   1.0000   1.0000   1.0000   1.0000   1.0000   1.0000
     1.0000   1.0000   1.0000   1.0000   1.0000   1.0000   1.0000   1.0000
     1.0000   1.0000   1.0000   1.0000   1.0000   1.0000   1.0000   1.0000
     1.0000   1.0000   1.0000   1.0000   1.0000   1.0000   1.0000   1.0000
     1.0000   1.0000   1.0000   1.0000   1.0000   1.0000   1.0000   1.0000
     1.0000   1.0000   1.0000   1.0000   1.0000   1.0000   1.0000   1.0000
     1.0000   1.0000   1.0000   1.0000   1.0000   1.0000   1.0000   1.0000
     1.0000   1.0000   1.0000   1.0000   1.0000   1.0000   1.0000   1.0000
     1.0000   1.0000   1.0000   1.0000   1.0000   1.0000   1.0000   1.0000
     1.0000   1.0000   1.0000   1.0000   1.0000   1.0000   1.0000   1.0000
     1.0000   1.0000   1.0000   1.0000   1.0000   1.0000   1.0000   1.0000
     1.0000   1.0000   1.0000   1.0000   1.0000   1.0000   1.0000   1.0000
     1.0000   1.0000   1.0000   1.0000   1.0000   1.0000   1.0000   1.0000
     1.0000   1.0000   1.0000   1.0000   1.0000   1.0000   1.0000   1.0000
     1.0000   1.0000   1.0000   1.0000   1.0000   1.0000   1.0000   1.0000
     1.0000   1.0000   1.0000   1.0000   1.0000   1.0000   1.0000   1.0000
     1.0000   1.0000   1.0000   1.0000   1.0000   1.0000   1.0000   1.0000
     1.0000   1.0000   1.0000   1.0000   1.0000   1.0000   1.0000   1.0000
     1.0000   1.0000   1.0000   1.0000   1.0000   1.0000   1.0000   1.0000
     1.0000   1.0000   1.0000   1.0000   1.0000   1.0000   1.0000   1.0000
     1.0000   1.0000   1.0000   1.0000   1.0000   1.0000   1.0000   1.0000
     1.0000   1.0000   1.0000   1.0000   1.0000   1.0000   1.0000   1.0000
     1.0000   1.0000   1.0000   1.0000   1.0000   1.0000   1.0000   1.0000
     1.0000   1.0000   1.0000   1.0000   1.0000   1.0000   1.0000   1.0000
     1.0000   1.0000   1.0000   1.0000   1.0000   1.0000   1.0000   1.0000
     1.0000   1.0000   1.0000   1.0000   1.0000   1.0000   1.0000   1.0000

          k = 0.0000-0.5000 0.1065 ( 29170 PWs)   bands (ev):

   -35.2091 -35.2091 -35.2090 -35.2090 -35.2089 -35.2089 -35.2088 -35.2088
   -35.2070 -35.2070 -35.2070 -35.2070 -35.2069 -35.2069 -35.2069 -35.2069
   -35.2019 -35.2019 -35.2018 -35.2018 -35.2017 -35.2017 -35.2017 -35.2017
   -35.2017 -35.2017 -35.2016 -35.2016 -35.2016 -35.2016 -35.2015 -35.2015
   -35.1980 -35.1980 -35.1979 -35.1979 -35.1979 -35.1979 -35.1976 -35.1976
   -11.8848 -11.8848 -11.8793 -11.8793 -11.8695 -11.8695 -11.8695 -11.8695
   -11.8533 -11.8533 -11.8533 -11.8533 -11.7213 -11.7213 -11.7176 -11.7176
   -11.7047 -11.7047 -11.6936 -11.6936 -11.6908 -11.6908 -11.6908 -11.6908
   -11.6904 -11.6904 -11.6781 -11.6781 -11.6773 -11.6773 -11.6773 -11.6773
   -11.6576 -11.6576 -11.6571 -11.6571 -11.6571 -11.6571 -11.6561 -11.6561
   -11.6538 -11.6538 -11.6538 -11.6538 -11.6537 -11.6537 -11.6440 -11.6440
   -11.6385 -11.6385 -11.6385 -11.6385 -11.6317 -11.6317 -11.6252 -11.6252
   -11.6252 -11.6252 -11.6218 -11.6218 -11.6218 -11.6218 -11.6140 -11.6140
   -11.6111 -11.6111 -11.6082 -11.6082 -11.6082 -11.6082 -11.6050 -11.6050
   -11.6012 -11.6012 -11.6011 -11.6011 -11.5976 -11.5976 -11.5976 -11.5976
    -8.0602  -8.0602  -8.0407  -8.0407  -6.8660  -6.8660  -6.8660  -6.8660
    -6.8554  -6.8554  -6.8554  -6.8554  -6.1323  -6.1323  -6.1297  -6.1297
    -1.5099  -1.5099  -1.0710  -1.0710  -0.2680  -0.2680  -0.2680  -0.2680
     0.2428   0.2428   0.2428   0.2428   0.3729   0.3729   0.7216   0.7216
     0.7216   0.7216   0.9303   0.9303   2.2201   2.2201   2.2705   2.2705
     5.2573   5.2573   5.2573   5.2573   5.4170   5.4170   5.7522   5.7522
     5.7522   5.7522   5.7860   5.7860   5.8732   5.8732   5.9412   5.9412
     6.7854   6.7854   6.7854   6.7854   7.2900   7.2900   7.4728   7.4728
     7.5089   7.5089   7.6158   7.6158   7.8742   7.8742   7.8742   7.8742
     8.0206   8.0206   8.0660   8.0660   8.3178   8.3178   8.3178   8.3178
     8.3564   8.3564   8.5515   8.5515   8.5515   8.5515   9.1516   9.1516
     9.4019   9.4019   9.4019   9.4019   9.5003   9.5003   9.5003   9.5003
     9.9015   9.9015   9.9015   9.9015  10.1311  10.1311  10.1418  10.1418
    10.3057  10.3057  10.3973  10.3973  10.4511  10.4511  10.6621  10.6621

     occupation numbers 
     1.0000   1.0000   1.0000   1.0000   1.0000   1.0000   1.0000   1.0000
     1.0000   1.0000   1.0000   1.0000   1.0000   1.0000   1.0000   1.0000
     1.0000   1.0000   1.0000   1.0000   1.0000   1.0000   1.0000   1.0000
     1.0000   1.0000   1.0000   1.0000   1.0000   1.0000   1.0000   1.0000
     1.0000   1.0000   1.0000   1.0000   1.0000   1.0000   1.0000   1.0000
     1.0000   1.0000   1.0000   1.0000   1.0000   1.0000   1.0000   1.0000
     1.0000   1.0000   1.0000   1.0000   1.0000   1.0000   1.0000   1.0000
     1.0000   1.0000   1.0000   1.0000   1.0000   1.0000   1.0000   1.0000
     1.0000   1.0000   1.0000   1.0000   1.0000   1.0000   1.0000   1.0000
     1.0000   1.0000   1.0000   1.0000   1.0000   1.0000   1.0000   1.0000
     1.0000   1.0000   1.0000   1.0000   1.0000   1.0000   1.0000   1.0000
     1.0000   1.0000   1.0000   1.0000   1.0000   1.0000   1.0000   1.0000
     1.0000   1.0000   1.0000   1.0000   1.0000   1.0000   1.0000   1.0000
     1.0000   1.0000   1.0000   1.0000   1.0000   1.0000   1.0000   1.0000
     1.0000   1.0000   1.0000   1.0000   1.0000   1.0000   1.0000   1.0000
     1.0000   1.0000   1.0000   1.0000   1.0000   1.0000   1.0000   1.0000
     1.0000   1.0000   1.0000   1.0000   1.0000   1.0000   1.0000   1.0000
     1.0000   1.0000   1.0000   1.0000   1.0000   1.0000   1.0000   1.0000
     1.0000   1.0000   1.0000   1.0000   1.0000   1.0000   1.0000   1.0000
     1.0000   1.0000   1.0000   1.0000   1.0000   1.0000   1.0000   1.0000
     1.0000   1.0000   1.0000   1.0000   1.0000   1.0000   1.0000   1.0000
     1.0000   1.0000   1.0000   1.0000   1.0000   1.0000   1.0000   1.0000
     1.0000   1.0000   1.0000   1.0000   1.0000   1.0000   1.0000   1.0000
     1.0000   1.0000   1.0000   1.0000   1.0000   1.0000   1.0000   1.0000
     1.0000   1.0000   1.0000   1.0000   1.0000   1.0000   1.0000   1.0000
     1.0000   1.0000   1.0000   1.0000   1.0000   1.0000   1.0000   1.0000
     1.0000   1.0000   1.0000   1.0000   1.0000   1.0000   1.0000   1.0000
     1.0000   1.0000   1.0000   1.0000   1.0000   1.0000   1.0000   1.0000
     1.0000   1.0000   1.0000   1.0000   1.0000   1.0000   1.0000   1.0000

          k = 0.0000-0.5000 0.2129 ( 29198 PWs)   bands (ev):

   -35.2091 -35.2091 -35.2090 -35.2090 -35.2089 -35.2089 -35.2089 -35.2089
   -35.2070 -35.2070 -35.2070 -35.2070 -35.2069 -35.2069 -35.2069 -35.2069
   -35.2019 -35.2019 -35.2018 -35.2018 -35.2018 -35.2018 -35.2018 -35.2018
   -35.2018 -35.2018 -35.2017 -35.2017 -35.2017 -35.2017 -35.2016 -35.2016
   -35.1979 -35.1979 -35.1979 -35.1979 -35.1978 -35.1978 -35.1977 -35.1977
   -11.8837 -11.8837 -11.8805 -11.8805 -11.8669 -11.8669 -11.8669 -11.8669
   -11.8563 -11.8563 -11.8563 -11.8563 -11.7201 -11.7201 -11.7175 -11.7175
   -11.7034 -11.7034 -11.6950 -11.6950 -11.6910 -11.6910 -11.6902 -11.6902
   -11.6902 -11.6902 -11.6824 -11.6824 -11.6776 -11.6776 -11.6774 -11.6774
   -11.6579 -11.6579 -11.6579 -11.6579 -11.6569 -11.6569 -11.6557 -11.6557
   -11.6537 -11.6537 -11.6537 -11.6537 -11.6509 -11.6509 -11.6456 -11.6456
   -11.6389 -11.6389 -11.6389 -11.6389 -11.6275 -11.6275 -11.6232 -11.6232
   -11.6232 -11.6232 -11.6193 -11.6193 -11.6193 -11.6193 -11.6173 -11.6172
   -11.6111 -11.6111 -11.6111 -11.6111 -11.6092 -11.6092 -11.6051 -11.6051
   -11.6023 -11.6023 -11.6017 -11.6017 -11.5981 -11.5981 -11.5981 -11.5981
    -8.0561  -8.0561  -8.0449  -8.0449  -6.8638  -6.8638  -6.8638  -6.8638
    -6.8577  -6.8576  -6.8576  -6.8576  -6.1318  -6.1318  -6.1302  -6.1302
    -1.4347  -1.4347  -1.1874  -1.1874  -0.2679  -0.2679  -0.2678  -0.2678
     0.2432   0.2432   0.2432   0.2432   0.5165   0.5165   0.7213   0.7213
     0.7213   0.7213   0.8329   0.8329   2.2256   2.2256   2.2539   2.2539
     5.1978   5.1978   5.1978   5.1978   5.4863   5.4863   5.6974   5.6974
     5.8431   5.8431   5.8431   5.8431   5.8872   5.8872   5.9264   5.9264
     6.8101   6.8101   6.8101   6.8101   7.3514   7.3514   7.4555   7.4555
     7.5251   7.5251   7.5855   7.5855   7.7746   7.7746   7.7746   7.7746
     8.0307   8.0307   8.0569   8.0569   8.3003   8.3003   8.3003   8.3003
     8.4902   8.4902   8.5756   8.5756   8.5756   8.5756   8.9337   8.9337
     9.3131   9.3131   9.3131   9.3131   9.5251   9.5251   9.5251   9.5251
    10.0467  10.0467  10.0467  10.0467  10.1436  10.1436  10.1633  10.1633
    10.3697  10.3697  10.4490  10.4490  10.4496  10.4496  10.6022  10.6022

     occupation numbers 
     1.0000   1.0000   1.0000   1.0000   1.0000   1.0000   1.0000   1.0000
     1.0000   1.0000   1.0000   1.0000   1.0000   1.0000   1.0000   1.0000
     1.0000   1.0000   1.0000   1.0000   1.0000   1.0000   1.0000   1.0000
     1.0000   1.0000   1.0000   1.0000   1.0000   1.0000   1.0000   1.0000
     1.0000   1.0000   1.0000   1.0000   1.0000   1.0000   1.0000   1.0000
     1.0000   1.0000   1.0000   1.0000   1.0000   1.0000   1.0000   1.0000
     1.0000   1.0000   1.0000   1.0000   1.0000   1.0000   1.0000   1.0000
     1.0000   1.0000   1.0000   1.0000   1.0000   1.0000   1.0000   1.0000
     1.0000   1.0000   1.0000   1.0000   1.0000   1.0000   1.0000   1.0000
     1.0000   1.0000   1.0000   1.0000   1.0000   1.0000   1.0000   1.0000
     1.0000   1.0000   1.0000   1.0000   1.0000   1.0000   1.0000   1.0000
     1.0000   1.0000   1.0000   1.0000   1.0000   1.0000   1.0000   1.0000
     1.0000   1.0000   1.0000   1.0000   1.0000   1.0000   1.0000   1.0000
     1.0000   1.0000   1.0000   1.0000   1.0000   1.0000   1.0000   1.0000
     1.0000   1.0000   1.0000   1.0000   1.0000   1.0000   1.0000   1.0000
     1.0000   1.0000   1.0000   1.0000   1.0000   1.0000   1.0000   1.0000
     1.0000   1.0000   1.0000   1.0000   1.0000   1.0000   1.0000   1.0000
     1.0000   1.0000   1.0000   1.0000   1.0000   1.0000   1.0000   1.0000
     1.0000   1.0000   1.0000   1.0000   1.0000   1.0000   1.0000   1.0000
     1.0000   1.0000   1.0000   1.0000   1.0000   1.0000   1.0000   1.0000
     1.0000   1.0000   1.0000   1.0000   1.0000   1.0000   1.0000   1.0000
     1.0000   1.0000   1.0000   1.0000   1.0000   1.0000   1.0000   1.0000
     1.0000   1.0000   1.0000   1.0000   1.0000   1.0000   1.0000   1.0000
     1.0000   1.0000   1.0000   1.0000   1.0000   1.0000   1.0000   1.0000
     1.0000   1.0000   1.0000   1.0000   1.0000   1.0000   1.0000   1.0000
     1.0000   1.0000   1.0000   1.0000   1.0000   1.0000   1.0000   1.0000
     1.0000   1.0000   1.0000   1.0000   1.0000   1.0000   1.0000   1.0000
     1.0000   1.0000   1.0000   1.0000   1.0000   1.0000   1.0000   1.0000
     1.0000   1.0000   1.0000   1.0000   1.0000   1.0000   1.0000   1.0000

          k = 0.0000-0.5000-0.3194 ( 29176 PWs)   bands (ev):

   -35.2092 -35.2092 -35.2091 -35.2091 -35.2088 -35.2088 -35.2088 -35.2088
   -35.2070 -35.2070 -35.2070 -35.2070 -35.2068 -35.2068 -35.2068 -35.2068
   -35.2019 -35.2019 -35.2019 -35.2019 -35.2019 -35.2019 -35.2018 -35.2018
   -35.2018 -35.2018 -35.2017 -35.2017 -35.2015 -35.2015 -35.2015 -35.2015
   -35.1978 -35.1978 -35.1978 -35.1978 -35.1978 -35.1978 -35.1977 -35.1977
   -11.8821 -11.8821 -11.8821 -11.8821 -11.8648 -11.8648 -11.8648 -11.8648
   -11.8585 -11.8585 -11.8585 -11.8585 -11.7184 -11.7184 -11.7184 -11.7184
   -11.6999 -11.6999 -11.6999 -11.6999 -11.6899 -11.6899 -11.6899 -11.6899
   -11.6870 -11.6870 -11.6870 -11.6870 -11.6775 -11.6775 -11.6775 -11.6775
   -11.6584 -11.6584 -11.6584 -11.6584 -11.6560 -11.6560 -11.6560 -11.6560
   -11.6538 -11.6538 -11.6538 -11.6538 -11.6478 -11.6478 -11.6478 -11.6478
   -11.6391 -11.6391 -11.6391 -11.6391 -11.6226 -11.6226 -11.6226 -11.6226
   -11.6221 -11.6221 -11.6221 -11.6221 -11.6156 -11.6156 -11.6156 -11.6156
   -11.6150 -11.6150 -11.6150 -11.6150 -11.6067 -11.6067 -11.6067 -11.6067
   -11.6023 -11.6023 -11.6023 -11.6023 -11.5983 -11.5983 -11.5983 -11.5983
    -8.0505  -8.0505  -8.0505  -8.0505  -6.8610  -6.8610  -6.8610  -6.8610
    -6.8604  -6.8604  -6.8604  -6.8604  -6.1310  -6.1310  -6.1310  -6.1310
    -1.3206  -1.3206  -1.3206  -1.3206  -0.2678  -0.2678  -0.2678  -0.2678
     0.2434   0.2434   0.2434   0.2434   0.6855   0.6855   0.6855   0.6855
     0.7211   0.7211   0.7211   0.7211   2.2370   2.2370   2.2370   2.2370
     5.1733   5.1733   5.1733   5.1733   5.5872   5.5872   5.5872   5.5872
     5.8838   5.8838   5.8838   5.8838   5.9066   5.9066   5.9066   5.9066
     6.8247   6.8247   6.8247   6.8247   7.4152   7.4152   7.4152   7.4152
     7.5508   7.5508   7.5509   7.5509   7.7243   7.7243   7.7243   7.7243
     8.0441   8.0441   8.0441   8.0441   8.2914   8.2914   8.2914   8.2914
     8.5856   8.5856   8.5857   8.5857   8.6938   8.6938   8.6938   8.6938
     9.2788   9.2788   9.2788   9.2788   9.5407   9.5407   9.5407   9.5407
    10.1065  10.1065  10.1065  10.1065  10.1578  10.1578  10.1578  10.1578
    10.4260  10.4260  10.4260  10.4260  10.5240  10.5240  10.5240  10.5240

     occupation numbers 
     1.0000   1.0000   1.0000   1.0000   1.0000   1.0000   1.0000   1.0000
     1.0000   1.0000   1.0000   1.0000   1.0000   1.0000   1.0000   1.0000
     1.0000   1.0000   1.0000   1.0000   1.0000   1.0000   1.0000   1.0000
     1.0000   1.0000   1.0000   1.0000   1.0000   1.0000   1.0000   1.0000
     1.0000   1.0000   1.0000   1.0000   1.0000   1.0000   1.0000   1.0000
     1.0000   1.0000   1.0000   1.0000   1.0000   1.0000   1.0000   1.0000
     1.0000   1.0000   1.0000   1.0000   1.0000   1.0000   1.0000   1.0000
     1.0000   1.0000   1.0000   1.0000   1.0000   1.0000   1.0000   1.0000
     1.0000   1.0000   1.0000   1.0000   1.0000   1.0000   1.0000   1.0000
     1.0000   1.0000   1.0000   1.0000   1.0000   1.0000   1.0000   1.0000
     1.0000   1.0000   1.0000   1.0000   1.0000   1.0000   1.0000   1.0000
     1.0000   1.0000   1.0000   1.0000   1.0000   1.0000   1.0000   1.0000
     1.0000   1.0000   1.0000   1.0000   1.0000   1.0000   1.0000   1.0000
     1.0000   1.0000   1.0000   1.0000   1.0000   1.0000   1.0000   1.0000
     1.0000   1.0000   1.0000   1.0000   1.0000   1.0000   1.0000   1.0000
     1.0000   1.0000   1.0000   1.0000   1.0000   1.0000   1.0000   1.0000
     1.0000   1.0000   1.0000   1.0000   1.0000   1.0000   1.0000   1.0000
     1.0000   1.0000   1.0000   1.0000   1.0000   1.0000   1.0000   1.0000
     1.0000   1.0000   1.0000   1.0000   1.0000   1.0000   1.0000   1.0000
     1.0000   1.0000   1.0000   1.0000   1.0000   1.0000   1.0000   1.0000
     1.0000   1.0000   1.0000   1.0000   1.0000   1.0000   1.0000   1.0000
     1.0000   1.0000   1.0000   1.0000   1.0000   1.0000   1.0000   1.0000
     1.0000   1.0000   1.0000   1.0000   1.0000   1.0000   1.0000   1.0000
     1.0000   1.0000   1.0000   1.0000   1.0000   1.0000   1.0000   1.0000
     1.0000   1.0000   1.0000   1.0000   1.0000   1.0000   1.0000   1.0000
     1.0000   1.0000   1.0000   1.0000   1.0000   1.0000   1.0000   1.0000
     1.0000   1.0000   1.0000   1.0000   1.0000   1.0000   1.0000   1.0000
     1.0000   1.0000   1.0000   1.0000   1.0000   1.0000   1.0000   1.0000
     1.0000   1.0000   1.0000   1.0000   1.0000   1.0000   1.0000   1.0000

          k = 0.1667 0.1667 0.0000 ( 29209 PWs)   bands (ev):

   -35.2093 -35.2092 -35.2091 -35.2091 -35.2088 -35.2088 -35.2086 -35.2086
   -35.2071 -35.2071 -35.2070 -35.2070 -35.2069 -35.2068 -35.2068 -35.2068
   -35.2020 -35.2020 -35.2019 -35.2019 -35.2019 -35.2018 -35.2018 -35.2018
   -35.2018 -35.2017 -35.2017 -35.2017 -35.2017 -35.2017 -35.2017 -35.2015
   -35.1982 -35.1979 -35.1979 -35.1979 -35.1979 -35.1977 -35.1977 -35.1976
   -11.9007 -11.8972 -11.8941 -11.8899 -11.8816 -11.8695 -11.8629 -11.8629
   -11.8496 -11.8496 -11.8111 -11.8111 -11.7934 -11.7934 -11.7205 -11.7079
   -11.7079 -11.6999 -11.6975 -11.6975 -11.6959 -11.6885 -11.6883 -11.6856
   -11.6846 -11.6830 -11.6829 -11.6829 -11.6803 -11.6788 -11.6702 -11.6702
   -11.6683 -11.6683 -11.6654 -11.6654 -11.6603 -11.6603 -11.6556 -11.6551
   -11.6543 -11.6543 -11.6524 -11.6509 -11.6441 -11.6441 -11.6431 -11.6397
   -11.6389 -11.6338 -11.6338 -11.6303 -11.6289 -11.6286 -11.6226 -11.6208
   -11.6165 -11.6148 -11.6125 -11.6125 -11.6121 -11.6116 -11.6116 -11.6095
   -11.6094 -11.6081 -11.6072 -11.6062 -11.6062 -11.6056 -11.6034 -11.6034
   -11.6023 -11.6023 -11.6004 -11.5991 -11.5984 -11.5984 -11.5980 -11.5978
    -8.3964  -8.3734  -7.3783  -7.3783  -7.3603  -7.3603  -6.8298  -6.8182
    -6.6781  -6.6781  -6.6682  -6.6682  -6.6199  -6.6115  -5.8908  -5.8902
    -1.9084  -1.3008  -0.7336  -0.7336  -0.5282  -0.5282  -0.1861  -0.1288
    -0.0676   0.1449   0.2377   0.2720   0.4370   0.4370   0.4852   0.7523
     0.7523   0.8682   0.8682   1.3559   1.4915   1.4915   2.5793   3.1187
     5.2244   5.3793   5.4689   5.5456   5.5456   5.5902   5.6361   5.6588
     5.7493   5.7769   5.7769   5.9922   6.1507   6.1716   6.1716   6.3541
     6.3541   6.7689   6.8237   6.8237   6.8361   6.8361   7.0538   7.0538
     7.1601   7.1601   7.4401   7.4401   7.4750   7.5816   7.6889   7.6889
     7.8237   7.8605   7.9733   8.2389   8.2490   8.2962   8.3427   8.3705
     8.3705   8.6858   8.7170   8.8532   8.8532   8.9012   9.1284   9.1339
     9.1730   9.2781   9.2814   9.2864   9.6525   9.8259   9.8259   9.8390
     9.9416  10.0028  10.0028  10.0689  10.1753  10.2053  10.2703  10.2703
    10.4477  10.4741  10.4741  10.5227  10.7725  10.7725  10.9310  10.9310

     occupation numbers 
     1.0000   1.0000   1.0000   1.0000   1.0000   1.0000   1.0000   1.0000
     1.0000   1.0000   1.0000   1.0000   1.0000   1.0000   1.0000   1.0000
     1.0000   1.0000   1.0000   1.0000   1.0000   1.0000   1.0000   1.0000
     1.0000   1.0000   1.0000   1.0000   1.0000   1.0000   1.0000   1.0000
     1.0000   1.0000   1.0000   1.0000   1.0000   1.0000   1.0000   1.0000
     1.0000   1.0000   1.0000   1.0000   1.0000   1.0000   1.0000   1.0000
     1.0000   1.0000   1.0000   1.0000   1.0000   1.0000   1.0000   1.0000
     1.0000   1.0000   1.0000   1.0000   1.0000   1.0000   1.0000   1.0000
     1.0000   1.0000   1.0000   1.0000   1.0000   1.0000   1.0000   1.0000
     1.0000   1.0000   1.0000   1.0000   1.0000   1.0000   1.0000   1.0000
     1.0000   1.0000   1.0000   1.0000   1.0000   1.0000   1.0000   1.0000
     1.0000   1.0000   1.0000   1.0000   1.0000   1.0000   1.0000   1.0000
     1.0000   1.0000   1.0000   1.0000   1.0000   1.0000   1.0000   1.0000
     1.0000   1.0000   1.0000   1.0000   1.0000   1.0000   1.0000   1.0000
     1.0000   1.0000   1.0000   1.0000   1.0000   1.0000   1.0000   1.0000
     1.0000   1.0000   1.0000   1.0000   1.0000   1.0000   1.0000   1.0000
     1.0000   1.0000   1.0000   1.0000   1.0000   1.0000   1.0000   1.0000
     1.0000   1.0000   1.0000   1.0000   1.0000   1.0000   1.0000   1.0000
     1.0000   1.0000   1.0000   1.0000   1.0000   1.0000   1.0000   1.0000
     1.0000   1.0000   1.0000   1.0000   1.0000   1.0000   1.0000   1.0000
     1.0000   1.0000   1.0000   1.0000   1.0000   1.0000   1.0000   1.0000
     1.0000   1.0000   1.0000   1.0000   1.0000   1.0000   1.0000   1.0000
     1.0000   1.0000   1.0000   1.0000   1.0000   1.0000   1.0000   1.0000
     1.0000   1.0000   1.0000   1.0000   1.0000   1.0000   1.0000   1.0000
     1.0000   1.0000   1.0000   1.0000   1.0000   1.0000   1.0000   1.0000
     1.0000   1.0000   1.0000   1.0000   1.0000   1.0000   1.0000   1.0000
     1.0000   1.0000   1.0000   1.0000   1.0000   1.0000   1.0000   1.0000
     1.0000   1.0000   1.0000   1.0000   1.0000   1.0000   1.0000   1.0000
     1.0000   1.0000   1.0000   1.0000   1.0000   1.0000   1.0000   1.0000

          k = 0.1667 0.1667 0.1065 ( 29209 PWs)   bands (ev):

   -35.2092 -35.2092 -35.2090 -35.2090 -35.2088 -35.2088 -35.2086 -35.2086
   -35.2071 -35.2070 -35.2070 -35.2070 -35.2069 -35.2069 -35.2069 -35.2069
   -35.2019 -35.2019 -35.2019 -35.2019 -35.2019 -35.2018 -35.2018 -35.2018
   -35.2018 -35.2018 -35.2017 -35.2017 -35.2017 -35.2016 -35.2016 -35.2015
   -35.1981 -35.1980 -35.1979 -35.1979 -35.1979 -35.1977 -35.1977 -35.1977
   -11.8995 -11.8971 -11.8943 -11.8886 -11.8830 -11.8711 -11.8622 -11.8622
   -11.8508 -11.8508 -11.8098 -11.8098 -11.7945 -11.7945 -11.7190 -11.7068
   -11.7068 -11.6988 -11.6976 -11.6976 -11.6949 -11.6925 -11.6881 -11.6855
   -11.6845 -11.6831 -11.6824 -11.6824 -11.6819 -11.6797 -11.6722 -11.6722
   -11.6671 -11.6671 -11.6658 -11.6658 -11.6615 -11.6615 -11.6566 -11.6565
   -11.6565 -11.6542 -11.6540 -11.6469 -11.6414 -11.6412 -11.6412 -11.6397
   -11.6388 -11.6329 -11.6329 -11.6288 -11.6274 -11.6266 -11.6222 -11.6220
   -11.6171 -11.6150 -11.6121 -11.6120 -11.6120 -11.6111 -11.6111 -11.6098
   -11.6094 -11.6094 -11.6084 -11.6064 -11.6063 -11.6063 -11.6036 -11.6036
   -11.6029 -11.6029 -11.6002 -11.5993 -11.5991 -11.5991 -11.5981 -11.5980
    -8.3949  -8.3750  -7.3771  -7.3771  -7.3615  -7.3615  -6.8291  -6.8190
    -6.6774  -6.6774  -6.6689  -6.6689  -6.6194  -6.6120  -5.8907  -5.8902
    -1.8789  -1.3622  -0.7204  -0.7204  -0.5424  -0.5424  -0.1825  -0.1329
    -0.0564   0.1735   0.2351   0.3308   0.4437   0.4437   0.4808   0.6692
     0.6693   0.9720   0.9720   1.2635   1.4644   1.4644   2.6366   3.0929
     5.2335   5.3878   5.4655   5.5516   5.5516   5.5640   5.6167   5.6432
     5.7411   5.7437   5.7437   6.0926   6.1147   6.2070   6.2070   6.4042
     6.4042   6.7318   6.8028   6.8028   6.8130   6.8130   7.0096   7.0096
     7.1367   7.1367   7.4950   7.4950   7.5145   7.6782   7.6849   7.6849
     7.8022   7.8347   7.9642   8.2346   8.2470   8.3683   8.3862   8.4023
     8.4023   8.6878   8.7148   8.8037   8.8188   8.8188   9.0172   9.1304
     9.1339   9.1486   9.2814   9.2850   9.7858   9.8296   9.8296   9.9325
     9.9550   9.9820   9.9820  10.1106  10.1571  10.1800  10.2938  10.2938
    10.3487  10.4681  10.4681  10.5749  10.7836  10.7836  10.9209  10.9209

     occupation numbers 
     1.0000   1.0000   1.0000   1.0000   1.0000   1.0000   1.0000   1.0000
     1.0000   1.0000   1.0000   1.0000   1.0000   1.0000   1.0000   1.0000
     1.0000   1.0000   1.0000   1.0000   1.0000   1.0000   1.0000   1.0000
     1.0000   1.0000   1.0000   1.0000   1.0000   1.0000   1.0000   1.0000
     1.0000   1.0000   1.0000   1.0000   1.0000   1.0000   1.0000   1.0000
     1.0000   1.0000   1.0000   1.0000   1.0000   1.0000   1.0000   1.0000
     1.0000   1.0000   1.0000   1.0000   1.0000   1.0000   1.0000   1.0000
     1.0000   1.0000   1.0000   1.0000   1.0000   1.0000   1.0000   1.0000
     1.0000   1.0000   1.0000   1.0000   1.0000   1.0000   1.0000   1.0000
     1.0000   1.0000   1.0000   1.0000   1.0000   1.0000   1.0000   1.0000
     1.0000   1.0000   1.0000   1.0000   1.0000   1.0000   1.0000   1.0000
     1.0000   1.0000   1.0000   1.0000   1.0000   1.0000   1.0000   1.0000
     1.0000   1.0000   1.0000   1.0000   1.0000   1.0000   1.0000   1.0000
     1.0000   1.0000   1.0000   1.0000   1.0000   1.0000   1.0000   1.0000
     1.0000   1.0000   1.0000   1.0000   1.0000   1.0000   1.0000   1.0000
     1.0000   1.0000   1.0000   1.0000   1.0000   1.0000   1.0000   1.0000
     1.0000   1.0000   1.0000   1.0000   1.0000   1.0000   1.0000   1.0000
     1.0000   1.0000   1.0000   1.0000   1.0000   1.0000   1.0000   1.0000
     1.0000   1.0000   1.0000   1.0000   1.0000   1.0000   1.0000   1.0000
     1.0000   1.0000   1.0000   1.0000   1.0000   1.0000   1.0000   1.0000
     1.0000   1.0000   1.0000   1.0000   1.0000   1.0000   1.0000   1.0000
     1.0000   1.0000   1.0000   1.0000   1.0000   1.0000   1.0000   1.0000
     1.0000   1.0000   1.0000   1.0000   1.0000   1.0000   1.0000   1.0000
     1.0000   1.0000   1.0000   1.0000   1.0000   1.0000   1.0000   1.0000
     1.0000   1.0000   1.0000   1.0000   1.0000   1.0000   1.0000   1.0000
     1.0000   1.0000   1.0000   1.0000   1.0000   1.0000   1.0000   1.0000
     1.0000   1.0000   1.0000   1.0000   1.0000   1.0000   1.0000   1.0000
     1.0000   1.0000   1.0000   1.0000   1.0000   1.0000   1.0000   1.0000
     1.0000   1.0000   1.0000   1.0000   1.0000   1.0000   1.0000   1.0000

          k = 0.1667 0.1667 0.2129 ( 29191 PWs)   bands (ev):

   -35.2092 -35.2091 -35.2091 -35.2091 -35.2088 -35.2088 -35.2087 -35.2087
   -35.2071 -35.2071 -35.2071 -35.2070 -35.2070 -35.2070 -35.2069 -35.2069
   -35.2019 -35.2019 -35.2018 -35.2018 -35.2018 -35.2018 -35.2018 -35.2017
   -35.2016 -35.2016 -35.2016 -35.2016 -35.2016 -35.2016 -35.2016 -35.2016
   -35.1981 -35.1979 -35.1978 -35.1977 -35.1977 -35.1977 -35.1977 -35.1977
   -11.8965 -11.8962 -11.8949 -11.8867 -11.8851 -11.8749 -11.8600 -11.8600
   -11.8535 -11.8535 -11.8064 -11.8064 -11.7977 -11.7977 -11.7149 -11.7041
   -11.7041 -11.7006 -11.6986 -11.6986 -11.6959 -11.6922 -11.6867 -11.6867
   -11.6846 -11.6845 -11.6836 -11.6835 -11.6806 -11.6806 -11.6750 -11.6750
   -11.6682 -11.6682 -11.6648 -11.6648 -11.6639 -11.6639 -11.6591 -11.6591
   -11.6582 -11.6568 -11.6503 -11.6420 -11.6396 -11.6385 -11.6372 -11.6363
   -11.6363 -11.6318 -11.6318 -11.6259 -11.6247 -11.6236 -11.6219 -11.6214
   -11.6184 -11.6161 -11.6132 -11.6123 -11.6116 -11.6112 -11.6106 -11.6106
   -11.6101 -11.6101 -11.6090 -11.6077 -11.6066 -11.6066 -11.6046 -11.6046
   -11.6037 -11.6037 -11.6007 -11.6007 -11.5997 -11.5993 -11.5985 -11.5985
    -8.3907  -8.3792  -7.3738  -7.3738  -7.3648  -7.3648  -6.8269  -6.8211
    -6.6756  -6.6756  -6.6707  -6.6707  -6.6178  -6.6136  -5.8906  -5.8903
    -1.7933  -1.5043  -0.6839  -0.6839  -0.5810  -0.5810  -0.1725  -0.1438
    -0.0233   0.0970   0.3918   0.4608   0.4657   0.4657   0.4660   0.5747
     0.5747   1.0350   1.1234   1.1234   1.3865   1.3865   2.7655   3.0185
     5.2646   5.4093   5.4282   5.4543   5.5729   5.5729   5.6628   5.6764
     5.6764   5.6939   5.7193   5.9593   6.3053   6.3053   6.3206   6.4932
     6.4932   6.6396   6.7040   6.7040   6.7767   6.7767   6.9857   6.9857
     7.0778   7.0778   7.5802   7.5802   7.5891   7.6705   7.6705   7.7116
     7.8639   7.9227   7.9387   8.2324   8.2419   8.4897   8.4897   8.4974
     8.5040   8.5554   8.6934   8.7091   8.7284   8.7284   8.7896   8.9120
     9.1325   9.1337   9.2816   9.2831   9.8456   9.8456   9.9328   9.9328
     9.9561   9.9932  10.0312  10.1094  10.1230  10.2194  10.2684  10.3485
    10.3485  10.4470  10.4470  10.5635  10.8135  10.8135  10.8928  10.8928

     occupation numbers 
     1.0000   1.0000   1.0000   1.0000   1.0000   1.0000   1.0000   1.0000
     1.0000   1.0000   1.0000   1.0000   1.0000   1.0000   1.0000   1.0000
     1.0000   1.0000   1.0000   1.0000   1.0000   1.0000   1.0000   1.0000
     1.0000   1.0000   1.0000   1.0000   1.0000   1.0000   1.0000   1.0000
     1.0000   1.0000   1.0000   1.0000   1.0000   1.0000   1.0000   1.0000
     1.0000   1.0000   1.0000   1.0000   1.0000   1.0000   1.0000   1.0000
     1.0000   1.0000   1.0000   1.0000   1.0000   1.0000   1.0000   1.0000
     1.0000   1.0000   1.0000   1.0000   1.0000   1.0000   1.0000   1.0000
     1.0000   1.0000   1.0000   1.0000   1.0000   1.0000   1.0000   1.0000
     1.0000   1.0000   1.0000   1.0000   1.0000   1.0000   1.0000   1.0000
     1.0000   1.0000   1.0000   1.0000   1.0000   1.0000   1.0000   1.0000
     1.0000   1.0000   1.0000   1.0000   1.0000   1.0000   1.0000   1.0000
     1.0000   1.0000   1.0000   1.0000   1.0000   1.0000   1.0000   1.0000
     1.0000   1.0000   1.0000   1.0000   1.0000   1.0000   1.0000   1.0000
     1.0000   1.0000   1.0000   1.0000   1.0000   1.0000   1.0000   1.0000
     1.0000   1.0000   1.0000   1.0000   1.0000   1.0000   1.0000   1.0000
     1.0000   1.0000   1.0000   1.0000   1.0000   1.0000   1.0000   1.0000
     1.0000   1.0000   1.0000   1.0000   1.0000   1.0000   1.0000   1.0000
     1.0000   1.0000   1.0000   1.0000   1.0000   1.0000   1.0000   1.0000
     1.0000   1.0000   1.0000   1.0000   1.0000   1.0000   1.0000   1.0000
     1.0000   1.0000   1.0000   1.0000   1.0000   1.0000   1.0000   1.0000
     1.0000   1.0000   1.0000   1.0000   1.0000   1.0000   1.0000   1.0000
     1.0000   1.0000   1.0000   1.0000   1.0000   1.0000   1.0000   1.0000
     1.0000   1.0000   1.0000   1.0000   1.0000   1.0000   1.0000   1.0000
     1.0000   1.0000   1.0000   1.0000   1.0000   1.0000   1.0000   1.0000
     1.0000   1.0000   1.0000   1.0000   1.0000   1.0000   1.0000   1.0000
     1.0000   1.0000   1.0000   1.0000   1.0000   1.0000   1.0000   1.0000
     1.0000   1.0000   1.0000   1.0000   1.0000   1.0000   1.0000   1.0000
     1.0000   1.0000   1.0000   1.0000   1.0000   1.0000   1.0000   1.0000

          k = 0.1667 0.1667-0.3194 ( 29224 PWs)   bands (ev):

   -35.2092 -35.2092 -35.2092 -35.2092 -35.2088 -35.2088 -35.2087 -35.2087
   -35.2071 -35.2071 -35.2070 -35.2070 -35.2070 -35.2070 -35.2070 -35.2070
   -35.2019 -35.2019 -35.2018 -35.2018 -35.2018 -35.2018 -35.2018 -35.2018
   -35.2018 -35.2017 -35.2017 -35.2017 -35.2017 -35.2017 -35.2017 -35.2017
   -35.1980 -35.1980 -35.1979 -35.1978 -35.1977 -35.1977 -35.1977 -35.1977
   -11.8957 -11.8957 -11.8916 -11.8916 -11.8801 -11.8801 -11.8569 -11.8569
   -11.8569 -11.8569 -11.8020 -11.8020 -11.8020 -11.8020 -11.7085 -11.7085
   -11.7009 -11.7009 -11.7009 -11.7009 -11.6915 -11.6915 -11.6882 -11.6882
   -11.6854 -11.6854 -11.6842 -11.6842 -11.6780 -11.6780 -11.6780 -11.6780
   -11.6677 -11.6677 -11.6677 -11.6677 -11.6615 -11.6615 -11.6615 -11.6615
   -11.6585 -11.6585 -11.6457 -11.6457 -11.6369 -11.6369 -11.6328 -11.6328
   -11.6328 -11.6328 -11.6321 -11.6321 -11.6200 -11.6200 -11.6197 -11.6197
   -11.6184 -11.6184 -11.6165 -11.6164 -11.6122 -11.6122 -11.6094 -11.6094
   -11.6093 -11.6093 -11.6085 -11.6085 -11.6065 -11.6065 -11.6065 -11.6065
   -11.6026 -11.6026 -11.6026 -11.6026 -11.5991 -11.5991 -11.5991 -11.5991
    -8.3850  -8.3850  -7.3693  -7.3693  -7.3693  -7.3693  -6.8240  -6.8240
    -6.6731  -6.6731  -6.6731  -6.6731  -6.6157  -6.6157  -5.8905  -5.8905
    -1.6616  -1.6615  -0.6330  -0.6330  -0.6330  -0.6330  -0.1585  -0.1584
     0.0293   0.0294   0.4371   0.4371   0.5075   0.5075   0.5075   0.5075
     0.7475   0.7475   1.2679   1.2679   1.2679   1.2679   2.9040   2.9040
     5.3266   5.3266   5.4344   5.4344   5.6146   5.6146   5.6146   5.6146
     5.6905   5.6905   5.8140   5.8141   6.4391   6.4391   6.4391   6.4391
     6.5040   6.5040   6.7108   6.7108   6.7108   6.7108   7.0163   7.0163
     7.0163   7.0163   7.6389   7.6389   7.6389   7.6389   7.6485   7.6485
     7.9022   7.9022   8.2359   8.2359   8.2376   8.2376   8.6088   8.6088
     8.6088   8.6088   8.6249   8.6250   8.6845   8.6845   8.7012   8.7012
     9.1334   9.1334   9.2820   9.2820   9.8810   9.8810   9.8810   9.8810
    10.0489  10.0489  10.0569  10.0569  10.1126  10.1126  10.4058  10.4058
    10.4058  10.4058  10.4502  10.4502  10.8536  10.8536  10.8537  10.8537

     occupation numbers 
     1.0000   1.0000   1.0000   1.0000   1.0000   1.0000   1.0000   1.0000
     1.0000   1.0000   1.0000   1.0000   1.0000   1.0000   1.0000   1.0000
     1.0000   1.0000   1.0000   1.0000   1.0000   1.0000   1.0000   1.0000
     1.0000   1.0000   1.0000   1.0000   1.0000   1.0000   1.0000   1.0000
     1.0000   1.0000   1.0000   1.0000   1.0000   1.0000   1.0000   1.0000
     1.0000   1.0000   1.0000   1.0000   1.0000   1.0000   1.0000   1.0000
     1.0000   1.0000   1.0000   1.0000   1.0000   1.0000   1.0000   1.0000
     1.0000   1.0000   1.0000   1.0000   1.0000   1.0000   1.0000   1.0000
     1.0000   1.0000   1.0000   1.0000   1.0000   1.0000   1.0000   1.0000
     1.0000   1.0000   1.0000   1.0000   1.0000   1.0000   1.0000   1.0000
     1.0000   1.0000   1.0000   1.0000   1.0000   1.0000   1.0000   1.0000
     1.0000   1.0000   1.0000   1.0000   1.0000   1.0000   1.0000   1.0000
     1.0000   1.0000   1.0000   1.0000   1.0000   1.0000   1.0000   1.0000
     1.0000   1.0000   1.0000   1.0000   1.0000   1.0000   1.0000   1.0000
     1.0000   1.0000   1.0000   1.0000   1.0000   1.0000   1.0000   1.0000
     1.0000   1.0000   1.0000   1.0000   1.0000   1.0000   1.0000   1.0000
     1.0000   1.0000   1.0000   1.0000   1.0000   1.0000   1.0000   1.0000
     1.0000   1.0000   1.0000   1.0000   1.0000   1.0000   1.0000   1.0000
     1.0000   1.0000   1.0000   1.0000   1.0000   1.0000   1.0000   1.0000
     1.0000   1.0000   1.0000   1.0000   1.0000   1.0000   1.0000   1.0000
     1.0000   1.0000   1.0000   1.0000   1.0000   1.0000   1.0000   1.0000
     1.0000   1.0000   1.0000   1.0000   1.0000   1.0000   1.0000   1.0000
     1.0000   1.0000   1.0000   1.0000   1.0000   1.0000   1.0000   1.0000
     1.0000   1.0000   1.0000   1.0000   1.0000   1.0000   1.0000   1.0000
     1.0000   1.0000   1.0000   1.0000   1.0000   1.0000   1.0000   1.0000
     1.0000   1.0000   1.0000   1.0000   1.0000   1.0000   1.0000   1.0000
     1.0000   1.0000   1.0000   1.0000   1.0000   1.0000   1.0000   1.0000
     1.0000   1.0000   1.0000   1.0000   1.0000   1.0000   1.0000   1.0000
     1.0000   1.0000   1.0000   1.0000   1.0000   1.0000   1.0000   1.0000

          k = 0.1667 0.3333 0.0000 ( 29163 PWs)   bands (ev):

   -35.2092 -35.2090 -35.2089 -35.2089 -35.2088 -35.2088 -35.2087 -35.2087
   -35.2071 -35.2070 -35.2069 -35.2069 -35.2069 -35.2068 -35.2068 -35.2068
   -35.2020 -35.2020 -35.2019 -35.2019 -35.2018 -35.2018 -35.2018 -35.2018
   -35.2017 -35.2017 -35.2016 -35.2016 -35.2015 -35.2015 -35.2014 -35.2014
   -35.1981 -35.1980 -35.1979 -35.1979 -35.1979 -35.1978 -35.1975 -35.1973
   -11.8938 -11.8920 -11.8874 -11.8763 -11.8759 -11.8719 -11.8708 -11.8662
   -11.8562 -11.8517 -11.8271 -11.8083 -11.7720 -11.7535 -11.7185 -11.7125
   -11.7021 -11.6971 -11.6947 -11.6928 -11.6919 -11.6917 -11.6888 -11.6880
   -11.6843 -11.6810 -11.6800 -11.6789 -11.6768 -11.6747 -11.6733 -11.6722
   -11.6703 -11.6625 -11.6623 -11.6621 -11.6613 -11.6596 -11.6590 -11.6584
   -11.6564 -11.6526 -11.6495 -11.6487 -11.6487 -11.6468 -11.6436 -11.6420
   -11.6412 -11.6409 -11.6368 -11.6303 -11.6290 -11.6271 -11.6262 -11.6258
   -11.6255 -11.6195 -11.6184 -11.6184 -11.6179 -11.6177 -11.6172 -11.6158
   -11.6131 -11.6096 -11.6087 -11.6069 -11.6066 -11.6047 -11.6046 -11.6046
   -11.6040 -11.6033 -11.6031 -11.6016 -11.6015 -11.5997 -11.5985 -11.5982
    -8.2493  -8.2264  -7.7197  -7.6990  -7.2879  -7.2708  -6.9899  -6.9760
    -6.6466  -6.6373  -6.5949  -6.5867  -6.3789  -6.3729  -5.9828  -5.9814
    -1.7501  -1.1774  -1.1376  -0.7536  -0.6349  -0.4589  -0.3087  -0.2622
     0.0444   0.1999   0.3384   0.3424   0.4463   0.4876   0.6400   0.6476
     0.7465   0.7887   1.1617   1.3109   1.4973   1.8854   2.4520   2.7243
     5.1557   5.2485   5.3061   5.3546   5.4152   5.4162   5.5083   5.5407
     5.6920   5.7629   5.8505   5.9541   6.1764   6.1781   6.2182   6.4755
     6.4949   6.5911   6.8176   6.9407   6.9423   6.9640   7.1799   7.2956
     7.3255   7.4963   7.5250   7.6001   7.6190   7.6216   7.6426   7.7656
     7.8267   7.9902   8.0099   8.0679   8.1673   8.2705   8.4186   8.4923
     8.5466   8.6444   8.7201   8.7476   8.8794   9.0078   9.0663   9.0974
     9.2167   9.2555   9.2715   9.3869   9.4934   9.6650   9.7699   9.8099
     9.8411   9.8574  10.0244  10.0261  10.0526  10.1635  10.1691  10.1861
    10.2269  10.2397  10.2469  10.3231  10.5488  10.6743  10.8773  10.8783

     occupation numbers 
     1.0000   1.0000   1.0000   1.0000   1.0000   1.0000   1.0000   1.0000
     1.0000   1.0000   1.0000   1.0000   1.0000   1.0000   1.0000   1.0000
     1.0000   1.0000   1.0000   1.0000   1.0000   1.0000   1.0000   1.0000
     1.0000   1.0000   1.0000   1.0000   1.0000   1.0000   1.0000   1.0000
     1.0000   1.0000   1.0000   1.0000   1.0000   1.0000   1.0000   1.0000
     1.0000   1.0000   1.0000   1.0000   1.0000   1.0000   1.0000   1.0000
     1.0000   1.0000   1.0000   1.0000   1.0000   1.0000   1.0000   1.0000
     1.0000   1.0000   1.0000   1.0000   1.0000   1.0000   1.0000   1.0000
     1.0000   1.0000   1.0000   1.0000   1.0000   1.0000   1.0000   1.0000
     1.0000   1.0000   1.0000   1.0000   1.0000   1.0000   1.0000   1.0000
     1.0000   1.0000   1.0000   1.0000   1.0000   1.0000   1.0000   1.0000
     1.0000   1.0000   1.0000   1.0000   1.0000   1.0000   1.0000   1.0000
     1.0000   1.0000   1.0000   1.0000   1.0000   1.0000   1.0000   1.0000
     1.0000   1.0000   1.0000   1.0000   1.0000   1.0000   1.0000   1.0000
     1.0000   1.0000   1.0000   1.0000   1.0000   1.0000   1.0000   1.0000
     1.0000   1.0000   1.0000   1.0000   1.0000   1.0000   1.0000   1.0000
     1.0000   1.0000   1.0000   1.0000   1.0000   1.0000   1.0000   1.0000
     1.0000   1.0000   1.0000   1.0000   1.0000   1.0000   1.0000   1.0000
     1.0000   1.0000   1.0000   1.0000   1.0000   1.0000   1.0000   1.0000
     1.0000   1.0000   1.0000   1.0000   1.0000   1.0000   1.0000   1.0000
     1.0000   1.0000   1.0000   1.0000   1.0000   1.0000   1.0000   1.0000
     1.0000   1.0000   1.0000   1.0000   1.0000   1.0000   1.0000   1.0000
     1.0000   1.0000   1.0000   1.0000   1.0000   1.0000   1.0000   1.0000
     1.0000   1.0000   1.0000   1.0000   1.0000   1.0000   1.0000   1.0000
     1.0000   1.0000   1.0000   1.0000   1.0000   1.0000   1.0000   1.0000
     1.0000   1.0000   1.0000   1.0000   1.0000   1.0000   1.0000   1.0000
     1.0000   1.0000   1.0000   1.0000   1.0000   1.0000   1.0000   1.0000
     1.0000   1.0000   1.0000   1.0000   1.0000   1.0000   1.0000   1.0000
     1.0000   1.0000   1.0000   1.0000   1.0000   1.0000   1.0000   1.0000

          k = 0.1667 0.3333 0.1065 ( 29165 PWs)   bands (ev):

   -35.2093 -35.2090 -35.2090 -35.2089 -35.2088 -35.2088 -35.2087 -35.2087
   -35.2071 -35.2070 -35.2069 -35.2069 -35.2069 -35.2068 -35.2068 -35.2068
   -35.2019 -35.2019 -35.2019 -35.2018 -35.2018 -35.2018 -35.2018 -35.2018
   -35.2017 -35.2017 -35.2017 -35.2016 -35.2016 -35.2016 -35.2016 -35.2014
   -35.1980 -35.1980 -35.1979 -35.1979 -35.1977 -35.1976 -35.1976 -35.1976
   -11.8927 -11.8917 -11.8878 -11.8773 -11.8757 -11.8706 -11.8699 -11.8669
   -11.8574 -11.8532 -11.8257 -11.8096 -11.7709 -11.7550 -11.7172 -11.7110
   -11.7012 -11.6967 -11.6962 -11.6939 -11.6922 -11.6910 -11.6885 -11.6873
   -11.6845 -11.6826 -11.6803 -11.6801 -11.6782 -11.6740 -11.6738 -11.6711
   -11.6710 -11.6644 -11.6635 -11.6617 -11.6613 -11.6607 -11.6580 -11.6570
   -11.6557 -11.6530 -11.6526 -11.6515 -11.6465 -11.6456 -11.6414 -11.6413
   -11.6406 -11.6381 -11.6355 -11.6295 -11.6284 -11.6268 -11.6266 -11.6249
   -11.6248 -11.6195 -11.6192 -11.6178 -11.6176 -11.6171 -11.6170 -11.6152
   -11.6123 -11.6099 -11.6092 -11.6077 -11.6075 -11.6057 -11.6057 -11.6055
   -11.6038 -11.6036 -11.6028 -11.6021 -11.6015 -11.5999 -11.5988 -11.5987
    -8.2478  -8.2280  -7.7183  -7.7004  -7.2868  -7.2719  -6.9889  -6.9769
    -6.6460  -6.6379  -6.5943  -6.5872  -6.3785  -6.3733  -5.9827  -5.9815
    -1.7219  -1.2341  -1.1165  -0.7862  -0.6234  -0.4709  -0.3050  -0.2648
     0.0548   0.2777   0.2871   0.3465   0.5016   0.5063   0.5735   0.6420
     0.7358   0.8700   1.0997   1.2882   1.5214   1.8583   2.4763   2.7094
     5.1531   5.2672   5.3273   5.3279   5.3359   5.3930   5.4926   5.6402
     5.6606   5.8266   5.8562   5.9460   6.1311   6.2392   6.2406   6.4651
     6.4837   6.6159   6.8437   6.8858   6.9256   6.9522   7.1227   7.2796
     7.3262   7.4360   7.5357   7.5518   7.6395   7.7101   7.7357   7.8273
     7.8790   7.9141   8.0611   8.1104   8.1275   8.2530   8.4412   8.4518
     8.5472   8.6401   8.7123   8.7211   8.8964   8.9949   9.0302   9.0429
     9.1475   9.1942   9.2437   9.2740   9.6473   9.6944   9.7558   9.8513
     9.8679   9.8801  10.0173  10.0209  10.0706  10.1494  10.1587  10.1729
    10.2255  10.2292  10.3287  10.3488  10.5502  10.6853  10.8813  10.8833

     occupation numbers 
     1.0000   1.0000   1.0000   1.0000   1.0000   1.0000   1.0000   1.0000
     1.0000   1.0000   1.0000   1.0000   1.0000   1.0000   1.0000   1.0000
     1.0000   1.0000   1.0000   1.0000   1.0000   1.0000   1.0000   1.0000
     1.0000   1.0000   1.0000   1.0000   1.0000   1.0000   1.0000   1.0000
     1.0000   1.0000   1.0000   1.0000   1.0000   1.0000   1.0000   1.0000
     1.0000   1.0000   1.0000   1.0000   1.0000   1.0000   1.0000   1.0000
     1.0000   1.0000   1.0000   1.0000   1.0000   1.0000   1.0000   1.0000
     1.0000   1.0000   1.0000   1.0000   1.0000   1.0000   1.0000   1.0000
     1.0000   1.0000   1.0000   1.0000   1.0000   1.0000   1.0000   1.0000
     1.0000   1.0000   1.0000   1.0000   1.0000   1.0000   1.0000   1.0000
     1.0000   1.0000   1.0000   1.0000   1.0000   1.0000   1.0000   1.0000
     1.0000   1.0000   1.0000   1.0000   1.0000   1.0000   1.0000   1.0000
     1.0000   1.0000   1.0000   1.0000   1.0000   1.0000   1.0000   1.0000
     1.0000   1.0000   1.0000   1.0000   1.0000   1.0000   1.0000   1.0000
     1.0000   1.0000   1.0000   1.0000   1.0000   1.0000   1.0000   1.0000
     1.0000   1.0000   1.0000   1.0000   1.0000   1.0000   1.0000   1.0000
     1.0000   1.0000   1.0000   1.0000   1.0000   1.0000   1.0000   1.0000
     1.0000   1.0000   1.0000   1.0000   1.0000   1.0000   1.0000   1.0000
     1.0000   1.0000   1.0000   1.0000   1.0000   1.0000   1.0000   1.0000
     1.0000   1.0000   1.0000   1.0000   1.0000   1.0000   1.0000   1.0000
     1.0000   1.0000   1.0000   1.0000   1.0000   1.0000   1.0000   1.0000
     1.0000   1.0000   1.0000   1.0000   1.0000   1.0000   1.0000   1.0000
     1.0000   1.0000   1.0000   1.0000   1.0000   1.0000   1.0000   1.0000
     1.0000   1.0000   1.0000   1.0000   1.0000   1.0000   1.0000   1.0000
     1.0000   1.0000   1.0000   1.0000   1.0000   1.0000   1.0000   1.0000
     1.0000   1.0000   1.0000   1.0000   1.0000   1.0000   1.0000   1.0000
     1.0000   1.0000   1.0000   1.0000   1.0000   1.0000   1.0000   1.0000
     1.0000   1.0000   1.0000   1.0000   1.0000   1.0000   1.0000   1.0000
     1.0000   1.0000   1.0000   1.0000   1.0000   1.0000   1.0000   1.0000

          k = 0.1667 0.3333 0.2129 ( 29179 PWs)   bands (ev):

   -35.2093 -35.2091 -35.2090 -35.2089 -35.2088 -35.2088 -35.2087 -35.2087
   -35.2071 -35.2070 -35.2070 -35.2070 -35.2069 -35.2069 -35.2069 -35.2067
   -35.2019 -35.2019 -35.2019 -35.2018 -35.2018 -35.2018 -35.2018 -35.2017
   -35.2017 -35.2017 -35.2017 -35.2017 -35.2017 -35.2017 -35.2016 -35.2016
   -35.1979 -35.1979 -35.1978 -35.1978 -35.1978 -35.1977 -35.1977 -35.1977
   -11.8909 -11.8896 -11.8886 -11.8807 -11.8739 -11.8689 -11.8675 -11.8671
   -11.8604 -11.8571 -11.8223 -11.8131 -11.7678 -11.7587 -11.7136 -11.7071
   -11.7018 -11.6989 -11.6972 -11.6936 -11.6935 -11.6892 -11.6876 -11.6854
   -11.6850 -11.6849 -11.6843 -11.6801 -11.6793 -11.6775 -11.6723 -11.6714
   -11.6679 -11.6672 -11.6670 -11.6631 -11.6609 -11.6580 -11.6579 -11.6569
   -11.6559 -11.6555 -11.6544 -11.6539 -11.6447 -11.6425 -11.6405 -11.6405
   -11.6355 -11.6334 -11.6327 -11.6286 -11.6279 -11.6274 -11.6266 -11.6230
   -11.6225 -11.6221 -11.6196 -11.6166 -11.6156 -11.6153 -11.6150 -11.6138
   -11.6132 -11.6108 -11.6103 -11.6092 -11.6088 -11.6082 -11.6081 -11.6079
   -11.6043 -11.6036 -11.6032 -11.6021 -11.6013 -11.6005 -11.6002 -11.5996
    -8.2437  -8.2322  -7.7146  -7.7042  -7.2836  -7.2751  -6.9864  -6.9795
    -6.6443  -6.6396  -6.5928  -6.5887  -6.3774  -6.3744  -5.9824  -5.9817
    -1.6403  -1.3669  -1.0565  -0.8681  -0.5918  -0.5035  -0.2954  -0.2723
     0.0860   0.2071   0.3718   0.4706   0.4850   0.5490   0.5815   0.6241
     0.7037   0.9341   0.9990   1.2228   1.5893   1.7846   2.5356   2.6673
     5.1529   5.2299   5.3119   5.3174   5.3481   5.3897   5.4480   5.5801
     5.7731   5.8728   5.9248   5.9762   6.0257   6.2476   6.4065   6.4523
     6.4652   6.6762   6.8036   6.8402   6.8413   6.8759   7.0912   7.2319
     7.3327   7.3836   7.5636   7.6147   7.6260   7.8301   7.8634   7.8640
     7.9128   7.9697   8.0364   8.0412   8.1919   8.3004   8.3405   8.5208
     8.5541   8.6143   8.6385   8.7275   8.8646   8.9133   8.9147   8.9346
     9.0545   9.1382   9.2289   9.2342   9.6380   9.7127   9.9031   9.9242
     9.9281   9.9305   9.9977  10.0103  10.0465  10.1473  10.1537  10.1597
    10.1930  10.2167  10.4136  10.4936  10.5361  10.6871  10.8883  10.8924

     occupation numbers 
     1.0000   1.0000   1.0000   1.0000   1.0000   1.0000   1.0000   1.0000
     1.0000   1.0000   1.0000   1.0000   1.0000   1.0000   1.0000   1.0000
     1.0000   1.0000   1.0000   1.0000   1.0000   1.0000   1.0000   1.0000
     1.0000   1.0000   1.0000   1.0000   1.0000   1.0000   1.0000   1.0000
     1.0000   1.0000   1.0000   1.0000   1.0000   1.0000   1.0000   1.0000
     1.0000   1.0000   1.0000   1.0000   1.0000   1.0000   1.0000   1.0000
     1.0000   1.0000   1.0000   1.0000   1.0000   1.0000   1.0000   1.0000
     1.0000   1.0000   1.0000   1.0000   1.0000   1.0000   1.0000   1.0000
     1.0000   1.0000   1.0000   1.0000   1.0000   1.0000   1.0000   1.0000
     1.0000   1.0000   1.0000   1.0000   1.0000   1.0000   1.0000   1.0000
     1.0000   1.0000   1.0000   1.0000   1.0000   1.0000   1.0000   1.0000
     1.0000   1.0000   1.0000   1.0000   1.0000   1.0000   1.0000   1.0000
     1.0000   1.0000   1.0000   1.0000   1.0000   1.0000   1.0000   1.0000
     1.0000   1.0000   1.0000   1.0000   1.0000   1.0000   1.0000   1.0000
     1.0000   1.0000   1.0000   1.0000   1.0000   1.0000   1.0000   1.0000
     1.0000   1.0000   1.0000   1.0000   1.0000   1.0000   1.0000   1.0000
     1.0000   1.0000   1.0000   1.0000   1.0000   1.0000   1.0000   1.0000
     1.0000   1.0000   1.0000   1.0000   1.0000   1.0000   1.0000   1.0000
     1.0000   1.0000   1.0000   1.0000   1.0000   1.0000   1.0000   1.0000
     1.0000   1.0000   1.0000   1.0000   1.0000   1.0000   1.0000   1.0000
     1.0000   1.0000   1.0000   1.0000   1.0000   1.0000   1.0000   1.0000
     1.0000   1.0000   1.0000   1.0000   1.0000   1.0000   1.0000   1.0000
     1.0000   1.0000   1.0000   1.0000   1.0000   1.0000   1.0000   1.0000
     1.0000   1.0000   1.0000   1.0000   1.0000   1.0000   1.0000   1.0000
     1.0000   1.0000   1.0000   1.0000   1.0000   1.0000   1.0000   1.0000
     1.0000   1.0000   1.0000   1.0000   1.0000   1.0000   1.0000   1.0000
     1.0000   1.0000   1.0000   1.0000   1.0000   1.0000   1.0000   1.0000
     1.0000   1.0000   1.0000   1.0000   1.0000   1.0000   1.0000   1.0000
     1.0000   1.0000   1.0000   1.0000   1.0000   1.0000   1.0000   1.0000

          k = 0.1667 0.3333-0.3194 ( 29206 PWs)   bands (ev):

   -35.2092 -35.2092 -35.2089 -35.2089 -35.2089 -35.2089 -35.2088 -35.2088
   -35.2071 -35.2070 -35.2070 -35.2070 -35.2069 -35.2069 -35.2069 -35.2069
   -35.2019 -35.2019 -35.2019 -35.2019 -35.2018 -35.2018 -35.2018 -35.2018
   -35.2018 -35.2018 -35.2018 -35.2017 -35.2017 -35.2017 -35.2017 -35.2016
   -35.1979 -35.1979 -35.1979 -35.1979 -35.1979 -35.1978 -35.1977 -35.1976
   -11.8898 -11.8898 -11.8853 -11.8853 -11.8714 -11.8714 -11.8641 -11.8641
   -11.8622 -11.8622 -11.8177 -11.8177 -11.7634 -11.7634 -11.7081 -11.7081
   -11.7020 -11.7020 -11.6960 -11.6960 -11.6894 -11.6894 -11.6871 -11.6871
   -11.6863 -11.6863 -11.6816 -11.6816 -11.6799 -11.6799 -11.6701 -11.6701
   -11.6698 -11.6698 -11.6652 -11.6652 -11.6593 -11.6593 -11.6575 -11.6575
   -11.6556 -11.6556 -11.6554 -11.6554 -11.6421 -11.6421 -11.6407 -11.6407
   -11.6301 -11.6301 -11.6298 -11.6298 -11.6286 -11.6286 -11.6267 -11.6267
   -11.6204 -11.6204 -11.6177 -11.6177 -11.6144 -11.6144 -11.6125 -11.6125
   -11.6121 -11.6121 -11.6118 -11.6118 -11.6106 -11.6106 -11.6085 -11.6085
   -11.6048 -11.6048 -11.6019 -11.6019 -11.6013 -11.6013 -11.6007 -11.6007
    -8.2379  -8.2379  -7.7094  -7.7094  -7.2794  -7.2794  -6.9829  -6.9829
    -6.6420  -6.6420  -6.5908  -6.5908  -6.3759  -6.3759  -5.9821  -5.9821
    -1.5152  -1.5152  -0.9675  -0.9675  -0.5479  -0.5479  -0.2833  -0.2833
     0.1376   0.1376   0.4170   0.4170   0.5924   0.5924   0.6513   0.6513
     0.7084   0.7084   1.1224   1.1225   1.6856   1.6856   2.6054   2.6054
     5.1730   5.1730   5.3150   5.3150   5.3841   5.3841   5.4804   5.4804
     5.8977   5.8977   5.9012   5.9012   6.1449   6.1449   6.4527   6.4527
     6.6301   6.6301   6.7598   6.7598   6.8125   6.8125   7.1578   7.1578
     7.3512   7.3512   7.5982   7.5982   7.7877   7.7877   7.8392   7.8392
     7.9780   7.9780   8.0749   8.0749   8.1939   8.1939   8.4975   8.4975
     8.5802   8.5802   8.6721   8.6721   8.7626   8.7626   8.9126   8.9126
     9.0908   9.0908   9.2254   9.2254   9.6632   9.6632   9.9666   9.9666
     9.9684   9.9684   9.9819   9.9819  10.0877  10.0877  10.1623  10.1623
    10.1922  10.1922  10.4868  10.4868  10.6281  10.6281  10.8939  10.8940

     occupation numbers 
     1.0000   1.0000   1.0000   1.0000   1.0000   1.0000   1.0000   1.0000
     1.0000   1.0000   1.0000   1.0000   1.0000   1.0000   1.0000   1.0000
     1.0000   1.0000   1.0000   1.0000   1.0000   1.0000   1.0000   1.0000
     1.0000   1.0000   1.0000   1.0000   1.0000   1.0000   1.0000   1.0000
     1.0000   1.0000   1.0000   1.0000   1.0000   1.0000   1.0000   1.0000
     1.0000   1.0000   1.0000   1.0000   1.0000   1.0000   1.0000   1.0000
     1.0000   1.0000   1.0000   1.0000   1.0000   1.0000   1.0000   1.0000
     1.0000   1.0000   1.0000   1.0000   1.0000   1.0000   1.0000   1.0000
     1.0000   1.0000   1.0000   1.0000   1.0000   1.0000   1.0000   1.0000
     1.0000   1.0000   1.0000   1.0000   1.0000   1.0000   1.0000   1.0000
     1.0000   1.0000   1.0000   1.0000   1.0000   1.0000   1.0000   1.0000
     1.0000   1.0000   1.0000   1.0000   1.0000   1.0000   1.0000   1.0000
     1.0000   1.0000   1.0000   1.0000   1.0000   1.0000   1.0000   1.0000
     1.0000   1.0000   1.0000   1.0000   1.0000   1.0000   1.0000   1.0000
     1.0000   1.0000   1.0000   1.0000   1.0000   1.0000   1.0000   1.0000
     1.0000   1.0000   1.0000   1.0000   1.0000   1.0000   1.0000   1.0000
     1.0000   1.0000   1.0000   1.0000   1.0000   1.0000   1.0000   1.0000
     1.0000   1.0000   1.0000   1.0000   1.0000   1.0000   1.0000   1.0000
     1.0000   1.0000   1.0000   1.0000   1.0000   1.0000   1.0000   1.0000
     1.0000   1.0000   1.0000   1.0000   1.0000   1.0000   1.0000   1.0000
     1.0000   1.0000   1.0000   1.0000   1.0000   1.0000   1.0000   1.0000
     1.0000   1.0000   1.0000   1.0000   1.0000   1.0000   1.0000   1.0000
     1.0000   1.0000   1.0000   1.0000   1.0000   1.0000   1.0000   1.0000
     1.0000   1.0000   1.0000   1.0000   1.0000   1.0000   1.0000   1.0000
     1.0000   1.0000   1.0000   1.0000   1.0000   1.0000   1.0000   1.0000
     1.0000   1.0000   1.0000   1.0000   1.0000   1.0000   1.0000   1.0000
     1.0000   1.0000   1.0000   1.0000   1.0000   1.0000   1.0000   1.0000
     1.0000   1.0000   1.0000   1.0000   1.0000   1.0000   1.0000   1.0000
     1.0000   1.0000   1.0000   1.0000   1.0000   1.0000   1.0000   1.0000

          k = 0.1667-0.5000 0.0000 ( 29174 PWs)   bands (ev):

   -35.2091 -35.2091 -35.2091 -35.2091 -35.2089 -35.2089 -35.2088 -35.2088
   -35.2071 -35.2071 -35.2069 -35.2069 -35.2068 -35.2068 -35.2068 -35.2068
   -35.2020 -35.2020 -35.2019 -35.2019 -35.2018 -35.2018 -35.2018 -35.2018
   -35.2017 -35.2017 -35.2016 -35.2016 -35.2016 -35.2016 -35.2014 -35.2014
   -35.1980 -35.1980 -35.1979 -35.1979 -35.1979 -35.1979 -35.1974 -35.1974
   -11.8850 -11.8850 -11.8823 -11.8823 -11.8781 -11.8781 -11.8661 -11.8661
   -11.8493 -11.8493 -11.8297 -11.8297 -11.7292 -11.7292 -11.7160 -11.7160
   -11.7107 -11.7107 -11.6962 -11.6962 -11.6928 -11.6928 -11.6886 -11.6886
   -11.6865 -11.6865 -11.6761 -11.6761 -11.6761 -11.6761 -11.6740 -11.6740
   -11.6620 -11.6620 -11.6611 -11.6611 -11.6609 -11.6609 -11.6582 -11.6582
   -11.6514 -11.6514 -11.6481 -11.6481 -11.6460 -11.6460 -11.6433 -11.6433
   -11.6372 -11.6372 -11.6361 -11.6361 -11.6360 -11.6360 -11.6321 -11.6321
   -11.6250 -11.6250 -11.6241 -11.6241 -11.6213 -11.6213 -11.6148 -11.6148
   -11.6126 -11.6126 -11.6083 -11.6083 -11.6065 -11.6065 -11.6064 -11.6064
   -11.6032 -11.6032 -11.6023 -11.6023 -11.6018 -11.6018 -11.5982 -11.5982
    -8.0177  -8.0177  -7.9954  -7.9954  -7.1515  -7.1515  -7.1358  -7.1358
    -6.6114  -6.6114  -6.6027  -6.6027  -6.1444  -6.1444  -6.1413  -6.1413
    -1.4896  -1.4896  -0.9866  -0.9866  -0.4858  -0.4858  -0.3617  -0.3617
     0.1945   0.1945   0.3077   0.3077   0.4854   0.4854   0.6436   0.6436
     0.9070   0.9070   1.0440   1.0440   2.1511   2.1511   2.2192   2.2192
     5.2079   5.2079   5.2102   5.2102   5.3035   5.3035   5.5390   5.5390
     5.5960   5.5960   6.1361   6.1361   6.1595   6.1595   6.2014   6.2014
     6.5845   6.5845   6.9716   6.9716   7.1134   7.1134   7.2430   7.2430
     7.4632   7.4632   7.5356   7.5356   7.7046   7.7046   7.7993   7.7993
     7.8442   7.8442   7.8741   7.8741   8.4007   8.4007   8.5498   8.5498
     8.5930   8.5930   8.7521   8.7521   8.7710   8.7710   9.2029   9.2029
     9.2254   9.2254   9.4155   9.4155   9.5248   9.5248   9.7963   9.7963
     9.8367   9.8367   9.9071   9.9071  10.0040  10.0040  10.0565  10.0565
    10.0834  10.0834  10.3081  10.3081  10.5662  10.5662  10.8253  10.8253

     occupation numbers 
     1.0000   1.0000   1.0000   1.0000   1.0000   1.0000   1.0000   1.0000
     1.0000   1.0000   1.0000   1.0000   1.0000   1.0000   1.0000   1.0000
     1.0000   1.0000   1.0000   1.0000   1.0000   1.0000   1.0000   1.0000
     1.0000   1.0000   1.0000   1.0000   1.0000   1.0000   1.0000   1.0000
     1.0000   1.0000   1.0000   1.0000   1.0000   1.0000   1.0000   1.0000
     1.0000   1.0000   1.0000   1.0000   1.0000   1.0000   1.0000   1.0000
     1.0000   1.0000   1.0000   1.0000   1.0000   1.0000   1.0000   1.0000
     1.0000   1.0000   1.0000   1.0000   1.0000   1.0000   1.0000   1.0000
     1.0000   1.0000   1.0000   1.0000   1.0000   1.0000   1.0000   1.0000
     1.0000   1.0000   1.0000   1.0000   1.0000   1.0000   1.0000   1.0000
     1.0000   1.0000   1.0000   1.0000   1.0000   1.0000   1.0000   1.0000
     1.0000   1.0000   1.0000   1.0000   1.0000   1.0000   1.0000   1.0000
     1.0000   1.0000   1.0000   1.0000   1.0000   1.0000   1.0000   1.0000
     1.0000   1.0000   1.0000   1.0000   1.0000   1.0000   1.0000   1.0000
     1.0000   1.0000   1.0000   1.0000   1.0000   1.0000   1.0000   1.0000
     1.0000   1.0000   1.0000   1.0000   1.0000   1.0000   1.0000   1.0000
     1.0000   1.0000   1.0000   1.0000   1.0000   1.0000   1.0000   1.0000
     1.0000   1.0000   1.0000   1.0000   1.0000   1.0000   1.0000   1.0000
     1.0000   1.0000   1.0000   1.0000   1.0000   1.0000   1.0000   1.0000
     1.0000   1.0000   1.0000   1.0000   1.0000   1.0000   1.0000   1.0000
     1.0000   1.0000   1.0000   1.0000   1.0000   1.0000   1.0000   1.0000
     1.0000   1.0000   1.0000   1.0000   1.0000   1.0000   1.0000   1.0000
     1.0000   1.0000   1.0000   1.0000   1.0000   1.0000   1.0000   1.0000
     1.0000   1.0000   1.0000   1.0000   1.0000   1.0000   1.0000   1.0000
     1.0000   1.0000   1.0000   1.0000   1.0000   1.0000   1.0000   1.0000
     1.0000   1.0000   1.0000   1.0000   1.0000   1.0000   1.0000   1.0000
     1.0000   1.0000   1.0000   1.0000   1.0000   1.0000   1.0000   1.0000
     1.0000   1.0000   1.0000   1.0000   1.0000   1.0000   1.0000   1.0000
     1.0000   1.0000   1.0000   1.0000   1.0000   1.0000   1.0000   1.0000

          k = 0.1667-0.5000 0.1065 ( 29142 PWs)   bands (ev):

   -35.2090 -35.2090 -35.2090 -35.2090 -35.2088 -35.2088 -35.2088 -35.2088
   -35.2070 -35.2070 -35.2069 -35.2069 -35.2068 -35.2068 -35.2068 -35.2068
   -35.2020 -35.2020 -35.2018 -35.2018 -35.2018 -35.2018 -35.2018 -35.2018
   -35.2016 -35.2016 -35.2016 -35.2016 -35.2016 -35.2016 -35.2016 -35.2016
   -35.1979 -35.1979 -35.1979 -35.1979 -35.1977 -35.1977 -35.1975 -35.1975
   -11.8846 -11.8846 -11.8814 -11.8814 -11.8786 -11.8786 -11.8673 -11.8673
   -11.8479 -11.8479 -11.8310 -11.8310 -11.7285 -11.7285 -11.7170 -11.7170
   -11.7097 -11.7097 -11.6953 -11.6953 -11.6919 -11.6919 -11.6907 -11.6907
   -11.6869 -11.6869 -11.6771 -11.6771 -11.6759 -11.6759 -11.6748 -11.6748
   -11.6617 -11.6617 -11.6607 -11.6607 -11.6602 -11.6602 -11.6586 -11.6586
   -11.6516 -11.6516 -11.6490 -11.6490 -11.6450 -11.6450 -11.6428 -11.6428
   -11.6380 -11.6380 -11.6376 -11.6376 -11.6330 -11.6330 -11.6307 -11.6307
   -11.6247 -11.6247 -11.6229 -11.6229 -11.6205 -11.6205 -11.6139 -11.6139
   -11.6137 -11.6137 -11.6092 -11.6092 -11.6074 -11.6074 -11.6062 -11.6062
   -11.6030 -11.6030 -11.6029 -11.6029 -11.6021 -11.6021 -11.5987 -11.5987
    -8.0163  -8.0163  -7.9970  -7.9970  -7.1505  -7.1505  -7.1368  -7.1368
    -6.6108  -6.6108  -6.6033  -6.6033  -6.1442  -6.1442  -6.1415  -6.1415
    -1.4640  -1.4640  -1.0341  -1.0341  -0.4774  -0.4774  -0.3698  -0.3698
     0.2039   0.2039   0.3631   0.3631   0.4312   0.4312   0.7050   0.7050
     0.8769   0.8769   1.0272   1.0272   2.1530   2.1530   2.2114   2.2114
     5.1937   5.1937   5.2338   5.2338   5.2465   5.2465   5.5680   5.5680
     5.6359   5.6359   6.1364   6.1364   6.1472   6.1472   6.1945   6.1945
     6.6070   6.6070   6.9557   6.9557   7.1256   7.1256   7.2537   7.2537
     7.4586   7.4586   7.4750   7.4750   7.6250   7.6250   7.8457   7.8457
     7.9038   7.9038   7.9463   7.9463   8.3925   8.3925   8.4887   8.4887
     8.6017   8.6017   8.7702   8.7702   8.7728   8.7728   9.1337   9.1337
     9.2091   9.2091   9.3858   9.3858   9.5116   9.5116   9.7766   9.7766
     9.8836   9.8836   9.9351   9.9351  10.0102  10.0102  10.0604  10.0604
    10.1483  10.1483  10.2636  10.2636  10.6233  10.6233  10.8243  10.8243

     occupation numbers 
     1.0000   1.0000   1.0000   1.0000   1.0000   1.0000   1.0000   1.0000
     1.0000   1.0000   1.0000   1.0000   1.0000   1.0000   1.0000   1.0000
     1.0000   1.0000   1.0000   1.0000   1.0000   1.0000   1.0000   1.0000
     1.0000   1.0000   1.0000   1.0000   1.0000   1.0000   1.0000   1.0000
     1.0000   1.0000   1.0000   1.0000   1.0000   1.0000   1.0000   1.0000
     1.0000   1.0000   1.0000   1.0000   1.0000   1.0000   1.0000   1.0000
     1.0000   1.0000   1.0000   1.0000   1.0000   1.0000   1.0000   1.0000
     1.0000   1.0000   1.0000   1.0000   1.0000   1.0000   1.0000   1.0000
     1.0000   1.0000   1.0000   1.0000   1.0000   1.0000   1.0000   1.0000
     1.0000   1.0000   1.0000   1.0000   1.0000   1.0000   1.0000   1.0000
     1.0000   1.0000   1.0000   1.0000   1.0000   1.0000   1.0000   1.0000
     1.0000   1.0000   1.0000   1.0000   1.0000   1.0000   1.0000   1.0000
     1.0000   1.0000   1.0000   1.0000   1.0000   1.0000   1.0000   1.0000
     1.0000   1.0000   1.0000   1.0000   1.0000   1.0000   1.0000   1.0000
     1.0000   1.0000   1.0000   1.0000   1.0000   1.0000   1.0000   1.0000
     1.0000   1.0000   1.0000   1.0000   1.0000   1.0000   1.0000   1.0000
     1.0000   1.0000   1.0000   1.0000   1.0000   1.0000   1.0000   1.0000
     1.0000   1.0000   1.0000   1.0000   1.0000   1.0000   1.0000   1.0000
     1.0000   1.0000   1.0000   1.0000   1.0000   1.0000   1.0000   1.0000
     1.0000   1.0000   1.0000   1.0000   1.0000   1.0000   1.0000   1.0000
     1.0000   1.0000   1.0000   1.0000   1.0000   1.0000   1.0000   1.0000
     1.0000   1.0000   1.0000   1.0000   1.0000   1.0000   1.0000   1.0000
     1.0000   1.0000   1.0000   1.0000   1.0000   1.0000   1.0000   1.0000
     1.0000   1.0000   1.0000   1.0000   1.0000   1.0000   1.0000   1.0000
     1.0000   1.0000   1.0000   1.0000   1.0000   1.0000   1.0000   1.0000
     1.0000   1.0000   1.0000   1.0000   1.0000   1.0000   1.0000   1.0000
     1.0000   1.0000   1.0000   1.0000   1.0000   1.0000   1.0000   1.0000
     1.0000   1.0000   1.0000   1.0000   1.0000   1.0000   1.0000   1.0000
     1.0000   1.0000   1.0000   1.0000   1.0000   1.0000   1.0000   1.0000

          k = 0.1667-0.5000 0.2129 ( 29174 PWs)   bands (ev):

   -35.2090 -35.2090 -35.2090 -35.2090 -35.2089 -35.2089 -35.2088 -35.2088
   -35.2070 -35.2070 -35.2069 -35.2069 -35.2069 -35.2069 -35.2068 -35.2068
   -35.2020 -35.2020 -35.2019 -35.2019 -35.2018 -35.2018 -35.2018 -35.2018
   -35.2018 -35.2018 -35.2017 -35.2017 -35.2017 -35.2017 -35.2017 -35.2017
   -35.1978 -35.1978 -35.1978 -35.1978 -35.1977 -35.1977 -35.1977 -35.1977
   -11.8834 -11.8834 -11.8799 -11.8799 -11.8786 -11.8786 -11.8706 -11.8706
   -11.8444 -11.8444 -11.8348 -11.8348 -11.7263 -11.7263 -11.7197 -11.7197
   -11.7065 -11.7065 -11.6957 -11.6957 -11.6933 -11.6933 -11.6893 -11.6893
   -11.6883 -11.6883 -11.6810 -11.6810 -11.6754 -11.6754 -11.6752 -11.6752
   -11.6609 -11.6609 -11.6601 -11.6601 -11.6595 -11.6595 -11.6592 -11.6592
   -11.6520 -11.6520 -11.6508 -11.6508 -11.6429 -11.6429 -11.6417 -11.6417
   -11.6393 -11.6393 -11.6388 -11.6388 -11.6295 -11.6295 -11.6268 -11.6268
   -11.6250 -11.6250 -11.6194 -11.6194 -11.6184 -11.6184 -11.6169 -11.6169
   -11.6119 -11.6119 -11.6117 -11.6117 -11.6104 -11.6104 -11.6064 -11.6064
   -11.6041 -11.6041 -11.6028 -11.6028 -11.6024 -11.6024 -11.5999 -11.5999
    -8.0122  -8.0122  -8.0011  -8.0011  -7.1476  -7.1476  -7.1397  -7.1397
    -6.6092  -6.6092  -6.6049  -6.6049  -6.1437  -6.1437  -6.1421  -6.1421
    -1.3902  -1.3902  -1.1478  -1.1478  -0.4544  -0.4544  -0.3921  -0.3921
     0.2325   0.2325   0.3495   0.3495   0.4977   0.4977   0.7891   0.7891
     0.8065   0.8065   0.9785   0.9785   2.1597   2.1597   2.1928   2.1928
     5.1662   5.1662   5.1799   5.1799   5.2998   5.2998   5.4928   5.4928
     5.8105   5.8105   6.0933   6.0933   6.1420   6.1420   6.1771   6.1771
     6.6736   6.6736   6.8887   6.8887   7.1603   7.1603   7.2553   7.2553
     7.4156   7.4156   7.4441   7.4441   7.5901   7.5901   7.7652   7.7652
     8.0861   8.0861   8.0960   8.0961   8.3592   8.3592   8.3619   8.3619
     8.6383   8.6383   8.7789   8.7789   8.7875   8.7875   8.9315   8.9315
     9.2221   9.2221   9.3158   9.3158   9.5383   9.5383   9.6926   9.6926
     9.9818   9.9818  10.0199  10.0199  10.0457  10.0457  10.0781  10.0781
    10.1885  10.1885  10.2097  10.2097  10.7178  10.7178  10.8157  10.8157

     occupation numbers 
     1.0000   1.0000   1.0000   1.0000   1.0000   1.0000   1.0000   1.0000
     1.0000   1.0000   1.0000   1.0000   1.0000   1.0000   1.0000   1.0000
     1.0000   1.0000   1.0000   1.0000   1.0000   1.0000   1.0000   1.0000
     1.0000   1.0000   1.0000   1.0000   1.0000   1.0000   1.0000   1.0000
     1.0000   1.0000   1.0000   1.0000   1.0000   1.0000   1.0000   1.0000
     1.0000   1.0000   1.0000   1.0000   1.0000   1.0000   1.0000   1.0000
     1.0000   1.0000   1.0000   1.0000   1.0000   1.0000   1.0000   1.0000
     1.0000   1.0000   1.0000   1.0000   1.0000   1.0000   1.0000   1.0000
     1.0000   1.0000   1.0000   1.0000   1.0000   1.0000   1.0000   1.0000
     1.0000   1.0000   1.0000   1.0000   1.0000   1.0000   1.0000   1.0000
     1.0000   1.0000   1.0000   1.0000   1.0000   1.0000   1.0000   1.0000
     1.0000   1.0000   1.0000   1.0000   1.0000   1.0000   1.0000   1.0000
     1.0000   1.0000   1.0000   1.0000   1.0000   1.0000   1.0000   1.0000
     1.0000   1.0000   1.0000   1.0000   1.0000   1.0000   1.0000   1.0000
     1.0000   1.0000   1.0000   1.0000   1.0000   1.0000   1.0000   1.0000
     1.0000   1.0000   1.0000   1.0000   1.0000   1.0000   1.0000   1.0000
     1.0000   1.0000   1.0000   1.0000   1.0000   1.0000   1.0000   1.0000
     1.0000   1.0000   1.0000   1.0000   1.0000   1.0000   1.0000   1.0000
     1.0000   1.0000   1.0000   1.0000   1.0000   1.0000   1.0000   1.0000
     1.0000   1.0000   1.0000   1.0000   1.0000   1.0000   1.0000   1.0000
     1.0000   1.0000   1.0000   1.0000   1.0000   1.0000   1.0000   1.0000
     1.0000   1.0000   1.0000   1.0000   1.0000   1.0000   1.0000   1.0000
     1.0000   1.0000   1.0000   1.0000   1.0000   1.0000   1.0000   1.0000
     1.0000   1.0000   1.0000   1.0000   1.0000   1.0000   1.0000   1.0000
     1.0000   1.0000   1.0000   1.0000   1.0000   1.0000   1.0000   1.0000
     1.0000   1.0000   1.0000   1.0000   1.0000   1.0000   1.0000   1.0000
     1.0000   1.0000   1.0000   1.0000   1.0000   1.0000   1.0000   1.0000
     1.0000   1.0000   1.0000   1.0000   1.0000   1.0000   1.0000   1.0000
     1.0000   1.0000   1.0000   1.0000   1.0000   1.0000   1.0000   1.0000

          k = 0.1667-0.5000-0.3194 ( 29164 PWs)   bands (ev):

   -35.2090 -35.2090 -35.2090 -35.2090 -35.2088 -35.2088 -35.2087 -35.2087
   -35.2070 -35.2070 -35.2069 -35.2069 -35.2069 -35.2069 -35.2068 -35.2068
   -35.2018 -35.2018 -35.2018 -35.2018 -35.2018 -35.2018 -35.2018 -35.2018
   -35.2018 -35.2018 -35.2017 -35.2017 -35.2017 -35.2017 -35.2017 -35.2017
   -35.1978 -35.1978 -35.1978 -35.1978 -35.1978 -35.1978 -35.1978 -35.1978
   -11.8816 -11.8816 -11.8816 -11.8816 -11.8747 -11.8747 -11.8747 -11.8747
   -11.8397 -11.8397 -11.8397 -11.8397 -11.7231 -11.7231 -11.7231 -11.7231
   -11.7016 -11.7016 -11.7016 -11.7016 -11.6907 -11.6907 -11.6906 -11.6906
   -11.6854 -11.6854 -11.6854 -11.6854 -11.6752 -11.6752 -11.6752 -11.6752
   -11.6598 -11.6598 -11.6598 -11.6598 -11.6596 -11.6596 -11.6596 -11.6596
   -11.6520 -11.6520 -11.6520 -11.6520 -11.6406 -11.6406 -11.6406 -11.6406
   -11.6405 -11.6405 -11.6405 -11.6405 -11.6265 -11.6265 -11.6265 -11.6265
   -11.6216 -11.6216 -11.6216 -11.6216 -11.6155 -11.6155 -11.6155 -11.6155
   -11.6146 -11.6146 -11.6146 -11.6146 -11.6088 -11.6088 -11.6088 -11.6088
   -11.6037 -11.6037 -11.6037 -11.6037 -11.6013 -11.6013 -11.6013 -11.6013
    -8.0067  -8.0067  -8.0067  -8.0067  -7.1436  -7.1436  -7.1436  -7.1436
    -6.6071  -6.6071  -6.6071  -6.6071  -6.1429  -6.1429  -6.1429  -6.1429
    -1.2783  -1.2783  -1.2783  -1.2783  -0.4231  -0.4231  -0.4231  -0.4231
     0.2811   0.2811   0.2812   0.2812   0.6543   0.6543   0.6543   0.6543
     0.9023   0.9023   0.9023   0.9023   2.1733   2.1733   2.1733   2.1733
     5.1543   5.1543   5.1543   5.1543   5.3939   5.3939   5.3939   5.3939
     5.9772   5.9772   5.9772   5.9772   6.1569   6.1569   6.1569   6.1569
     6.7773   6.7773   6.7773   6.7773   7.2113   7.2113   7.2113   7.2113
     7.4214   7.4214   7.4214   7.4214   7.6589   7.6589   7.6589   7.6589
     8.2232   8.2232   8.2232   8.2232   8.2680   8.2680   8.2680   8.2680
     8.7406   8.7406   8.7406   8.7406   8.7873   8.7873   8.7873   8.7873
     9.2533   9.2533   9.2533   9.2533   9.6113   9.6113   9.6113   9.6113
    10.0123  10.0123  10.0123  10.0123  10.1224  10.1224  10.1224  10.1224
    10.1745  10.1745  10.1745  10.1745  10.7849  10.7849  10.7849  10.7849

     occupation numbers 
     1.0000   1.0000   1.0000   1.0000   1.0000   1.0000   1.0000   1.0000
     1.0000   1.0000   1.0000   1.0000   1.0000   1.0000   1.0000   1.0000
     1.0000   1.0000   1.0000   1.0000   1.0000   1.0000   1.0000   1.0000
     1.0000   1.0000   1.0000   1.0000   1.0000   1.0000   1.0000   1.0000
     1.0000   1.0000   1.0000   1.0000   1.0000   1.0000   1.0000   1.0000
     1.0000   1.0000   1.0000   1.0000   1.0000   1.0000   1.0000   1.0000
     1.0000   1.0000   1.0000   1.0000   1.0000   1.0000   1.0000   1.0000
     1.0000   1.0000   1.0000   1.0000   1.0000   1.0000   1.0000   1.0000
     1.0000   1.0000   1.0000   1.0000   1.0000   1.0000   1.0000   1.0000
     1.0000   1.0000   1.0000   1.0000   1.0000   1.0000   1.0000   1.0000
     1.0000   1.0000   1.0000   1.0000   1.0000   1.0000   1.0000   1.0000
     1.0000   1.0000   1.0000   1.0000   1.0000   1.0000   1.0000   1.0000
     1.0000   1.0000   1.0000   1.0000   1.0000   1.0000   1.0000   1.0000
     1.0000   1.0000   1.0000   1.0000   1.0000   1.0000   1.0000   1.0000
     1.0000   1.0000   1.0000   1.0000   1.0000   1.0000   1.0000   1.0000
     1.0000   1.0000   1.0000   1.0000   1.0000   1.0000   1.0000   1.0000
     1.0000   1.0000   1.0000   1.0000   1.0000   1.0000   1.0000   1.0000
     1.0000   1.0000   1.0000   1.0000   1.0000   1.0000   1.0000   1.0000
     1.0000   1.0000   1.0000   1.0000   1.0000   1.0000   1.0000   1.0000
     1.0000   1.0000   1.0000   1.0000   1.0000   1.0000   1.0000   1.0000
     1.0000   1.0000   1.0000   1.0000   1.0000   1.0000   1.0000   1.0000
     1.0000   1.0000   1.0000   1.0000   1.0000   1.0000   1.0000   1.0000
     1.0000   1.0000   1.0000   1.0000   1.0000   1.0000   1.0000   1.0000
     1.0000   1.0000   1.0000   1.0000   1.0000   1.0000   1.0000   1.0000
     1.0000   1.0000   1.0000   1.0000   1.0000   1.0000   1.0000   1.0000
     1.0000   1.0000   1.0000   1.0000   1.0000   1.0000   1.0000   1.0000
     1.0000   1.0000   1.0000   1.0000   1.0000   1.0000   1.0000   1.0000
     1.0000   1.0000   1.0000   1.0000   1.0000   1.0000   1.0000   1.0000
     1.0000   1.0000   1.0000   1.0000   1.0000   1.0000   1.0000   1.0000

          k = 0.3333 0.3333 0.0000 ( 29195 PWs)   bands (ev):

   -35.2091 -35.2090 -35.2090 -35.2090 -35.2090 -35.2088 -35.2088 -35.2088
   -35.2071 -35.2071 -35.2070 -35.2070 -35.2068 -35.2068 -35.2067 -35.2067
   -35.2021 -35.2021 -35.2019 -35.2019 -35.2019 -35.2019 -35.2019 -35.2019
   -35.2019 -35.2018 -35.2017 -35.2017 -35.2017 -35.2016 -35.2016 -35.2015
   -35.1981 -35.1980 -35.1980 -35.1979 -35.1977 -35.1977 -35.1977 -35.1975
   -11.8924 -11.8889 -11.8829 -11.8803 -11.8803 -11.8765 -11.8686 -11.8686
   -11.8481 -11.8277 -11.7920 -11.7920 -11.7725 -11.7725 -11.7153 -11.7151
   -11.7071 -11.7071 -11.6961 -11.6950 -11.6930 -11.6877 -11.6877 -11.6840
   -11.6833 -11.6823 -11.6801 -11.6801 -11.6761 -11.6738 -11.6701 -11.6674
   -11.6662 -11.6662 -11.6644 -11.6644 -11.6588 -11.6568 -11.6568 -11.6559
   -11.6559 -11.6529 -11.6521 -11.6521 -11.6448 -11.6426 -11.6415 -11.6415
   -11.6381 -11.6379 -11.6363 -11.6363 -11.6361 -11.6324 -11.6285 -11.6269
   -11.6250 -11.6248 -11.6233 -11.6232 -11.6191 -11.6191 -11.6166 -11.6166
   -11.6157 -11.6135 -11.6135 -11.6098 -11.6074 -11.6070 -11.6064 -11.6061
   -11.6054 -11.6054 -11.6051 -11.6051 -11.6038 -11.6038 -11.6026 -11.6016
    -8.1097  -8.0870  -7.6083  -7.6083  -7.5882  -7.5882  -7.2209  -7.2043
    -6.4741  -6.4676  -6.3837  -6.3837  -6.3779  -6.3779  -6.0544  -6.0524
    -1.5995  -1.0616  -1.0188  -1.0188  -0.6683  -0.6683  -0.5868  -0.3987
     0.1774   0.2284   0.3049   0.4251   0.4251   0.5220   0.5220   0.8112
     0.9855   1.0723   1.3675   1.3675   1.6975   1.6975   2.3020   2.4178
     5.0593   5.0971   5.0971   5.1446   5.1482   5.4018   5.4018   5.4392
     5.9440   5.9676   6.1259   6.1738   6.1738   6.2884   6.4579   6.7090
     6.7090   6.7893   6.7893   6.9513   6.9513   6.9895   6.9895   7.1623
     7.3316   7.3531   7.3742   7.3742   7.3882   7.4674   7.5118   7.5507
     7.5507   7.7149   7.8461   8.0277   8.5161   8.6075   8.6075   8.7346
     8.7346   8.8719   8.8840   8.9226   8.9856   8.9856   9.1626   9.1812
     9.2230   9.2354   9.3148   9.5841   9.5841   9.6050   9.6050   9.6535
     9.6584   9.6716   9.6716   9.7230   9.7758   9.9725  10.2389  10.2389
    10.3118  10.3367  10.4015  10.6430  10.6430  10.8036  10.8782  10.8782

     occupation numbers 
     1.0000   1.0000   1.0000   1.0000   1.0000   1.0000   1.0000   1.0000
     1.0000   1.0000   1.0000   1.0000   1.0000   1.0000   1.0000   1.0000
     1.0000   1.0000   1.0000   1.0000   1.0000   1.0000   1.0000   1.0000
     1.0000   1.0000   1.0000   1.0000   1.0000   1.0000   1.0000   1.0000
     1.0000   1.0000   1.0000   1.0000   1.0000   1.0000   1.0000   1.0000
     1.0000   1.0000   1.0000   1.0000   1.0000   1.0000   1.0000   1.0000
     1.0000   1.0000   1.0000   1.0000   1.0000   1.0000   1.0000   1.0000
     1.0000   1.0000   1.0000   1.0000   1.0000   1.0000   1.0000   1.0000
     1.0000   1.0000   1.0000   1.0000   1.0000   1.0000   1.0000   1.0000
     1.0000   1.0000   1.0000   1.0000   1.0000   1.0000   1.0000   1.0000
     1.0000   1.0000   1.0000   1.0000   1.0000   1.0000   1.0000   1.0000
     1.0000   1.0000   1.0000   1.0000   1.0000   1.0000   1.0000   1.0000
     1.0000   1.0000   1.0000   1.0000   1.0000   1.0000   1.0000   1.0000
     1.0000   1.0000   1.0000   1.0000   1.0000   1.0000   1.0000   1.0000
     1.0000   1.0000   1.0000   1.0000   1.0000   1.0000   1.0000   1.0000
     1.0000   1.0000   1.0000   1.0000   1.0000   1.0000   1.0000   1.0000
     1.0000   1.0000   1.0000   1.0000   1.0000   1.0000   1.0000   1.0000
     1.0000   1.0000   1.0000   1.0000   1.0000   1.0000   1.0000   1.0000
     1.0000   1.0000   1.0000   1.0000   1.0000   1.0000   1.0000   1.0000
     1.0000   1.0000   1.0000   1.0000   1.0000   1.0000   1.0000   1.0000
     1.0000   1.0000   1.0000   1.0000   1.0000   1.0000   1.0000   1.0000
     1.0000   1.0000   1.0000   1.0000   1.0000   1.0000   1.0000   1.0000
     1.0000   1.0000   1.0000   1.0000   1.0000   1.0000   1.0000   1.0000
     1.0000   1.0000   1.0000   1.0000   1.0000   1.0000   1.0000   1.0000
     1.0000   1.0000   1.0000   1.0000   1.0000   1.0000   1.0000   1.0000
     1.0000   1.0000   1.0000   1.0000   1.0000   1.0000   1.0000   1.0000
     1.0000   1.0000   1.0000   1.0000   1.0000   1.0000   1.0000   1.0000
     1.0000   1.0000   1.0000   1.0000   1.0000   1.0000   1.0000   1.0000
     1.0000   1.0000   1.0000   1.0000   1.0000   1.0000   1.0000   1.0000

          k = 0.3333 0.3333 0.1065 ( 29175 PWs)   bands (ev):

   -35.2091 -35.2090 -35.2090 -35.2089 -35.2089 -35.2089 -35.2088 -35.2088
   -35.2071 -35.2070 -35.2070 -35.2069 -35.2069 -35.2069 -35.2069 -35.2067
   -35.2020 -35.2019 -35.2019 -35.2018 -35.2018 -35.2018 -35.2018 -35.2018
   -35.2018 -35.2018 -35.2018 -35.2017 -35.2016 -35.2016 -35.2015 -35.2015
   -35.1980 -35.1979 -35.1978 -35.1978 -35.1978 -35.1976 -35.1976 -35.1976
   -11.8914 -11.8885 -11.8833 -11.8795 -11.8795 -11.8776 -11.8694 -11.8694
   -11.8469 -11.8292 -11.7909 -11.7909 -11.7740 -11.7740 -11.7147 -11.7142
   -11.7058 -11.7058 -11.6969 -11.6952 -11.6922 -11.6891 -11.6891 -11.6876
   -11.6832 -11.6813 -11.6793 -11.6793 -11.6778 -11.6727 -11.6699 -11.6676
   -11.6674 -11.6674 -11.6645 -11.6645 -11.6588 -11.6581 -11.6581 -11.6549
   -11.6549 -11.6536 -11.6513 -11.6513 -11.6437 -11.6424 -11.6411 -11.6411
   -11.6376 -11.6376 -11.6364 -11.6359 -11.6359 -11.6303 -11.6266 -11.6265
   -11.6252 -11.6250 -11.6226 -11.6223 -11.6186 -11.6186 -11.6169 -11.6157
   -11.6157 -11.6131 -11.6131 -11.6106 -11.6082 -11.6076 -11.6074 -11.6060
   -11.6060 -11.6058 -11.6058 -11.6058 -11.6045 -11.6045 -11.6030 -11.6019
    -8.1082  -8.0886  -7.6069  -7.6069  -7.5896  -7.5896  -7.2198  -7.2054
    -6.4737  -6.4680  -6.3833  -6.3833  -6.3783  -6.3783  -6.0543  -6.0526
    -1.5727  -1.1140  -0.9993  -0.9993  -0.6976  -0.6976  -0.5752  -0.4123
     0.1832   0.2914   0.2945   0.4375   0.4375   0.5192   0.5192   0.8347
     0.9428   1.0586   1.3892   1.3892   1.6755   1.6755   2.3094   2.4096
     5.0834   5.1145   5.1145   5.1351   5.1366   5.3769   5.3769   5.4120
     5.9677   6.0398   6.1348   6.2025   6.2025   6.2747   6.4017   6.6689
     6.6689   6.8113   6.8113   6.9558   6.9558   6.9835   6.9835   7.1040
     7.1848   7.2222   7.2222   7.3624   7.4481   7.4569   7.6170   7.7181
     7.7555   7.7555   7.9974   8.0006   8.4718   8.5885   8.5885   8.7355
     8.7355   8.8726   8.8830   8.9322   8.9322   8.9376   9.1249   9.1591
     9.1815   9.2178   9.2808   9.5469   9.5469   9.6138   9.6629   9.6697
     9.6697   9.6880   9.6880   9.7687   9.8099   9.9916  10.1907  10.1907
    10.2533  10.3082  10.5341  10.6580  10.6580  10.8092  10.8619  10.8619

     occupation numbers 
     1.0000   1.0000   1.0000   1.0000   1.0000   1.0000   1.0000   1.0000
     1.0000   1.0000   1.0000   1.0000   1.0000   1.0000   1.0000   1.0000
     1.0000   1.0000   1.0000   1.0000   1.0000   1.0000   1.0000   1.0000
     1.0000   1.0000   1.0000   1.0000   1.0000   1.0000   1.0000   1.0000
     1.0000   1.0000   1.0000   1.0000   1.0000   1.0000   1.0000   1.0000
     1.0000   1.0000   1.0000   1.0000   1.0000   1.0000   1.0000   1.0000
     1.0000   1.0000   1.0000   1.0000   1.0000   1.0000   1.0000   1.0000
     1.0000   1.0000   1.0000   1.0000   1.0000   1.0000   1.0000   1.0000
     1.0000   1.0000   1.0000   1.0000   1.0000   1.0000   1.0000   1.0000
     1.0000   1.0000   1.0000   1.0000   1.0000   1.0000   1.0000   1.0000
     1.0000   1.0000   1.0000   1.0000   1.0000   1.0000   1.0000   1.0000
     1.0000   1.0000   1.0000   1.0000   1.0000   1.0000   1.0000   1.0000
     1.0000   1.0000   1.0000   1.0000   1.0000   1.0000   1.0000   1.0000
     1.0000   1.0000   1.0000   1.0000   1.0000   1.0000   1.0000   1.0000
     1.0000   1.0000   1.0000   1.0000   1.0000   1.0000   1.0000   1.0000
     1.0000   1.0000   1.0000   1.0000   1.0000   1.0000   1.0000   1.0000
     1.0000   1.0000   1.0000   1.0000   1.0000   1.0000   1.0000   1.0000
     1.0000   1.0000   1.0000   1.0000   1.0000   1.0000   1.0000   1.0000
     1.0000   1.0000   1.0000   1.0000   1.0000   1.0000   1.0000   1.0000
     1.0000   1.0000   1.0000   1.0000   1.0000   1.0000   1.0000   1.0000
     1.0000   1.0000   1.0000   1.0000   1.0000   1.0000   1.0000   1.0000
     1.0000   1.0000   1.0000   1.0000   1.0000   1.0000   1.0000   1.0000
     1.0000   1.0000   1.0000   1.0000   1.0000   1.0000   1.0000   1.0000
     1.0000   1.0000   1.0000   1.0000   1.0000   1.0000   1.0000   1.0000
     1.0000   1.0000   1.0000   1.0000   1.0000   1.0000   1.0000   1.0000
     1.0000   1.0000   1.0000   1.0000   1.0000   1.0000   1.0000   1.0000
     1.0000   1.0000   1.0000   1.0000   1.0000   1.0000   1.0000   1.0000
     1.0000   1.0000   1.0000   1.0000   1.0000   1.0000   1.0000   1.0000
     1.0000   1.0000   1.0000   1.0000   1.0000   1.0000   1.0000   1.0000

          k = 0.3333 0.3333 0.2129 ( 29182 PWs)   bands (ev):

   -35.2092 -35.2090 -35.2090 -35.2089 -35.2089 -35.2089 -35.2088 -35.2088
   -35.2071 -35.2070 -35.2069 -35.2069 -35.2069 -35.2069 -35.2069 -35.2068
   -35.2020 -35.2019 -35.2019 -35.2018 -35.2018 -35.2018 -35.2018 -35.2018
   -35.2018 -35.2018 -35.2016 -35.2016 -35.2016 -35.2016 -35.2016 -35.2016
   -35.1980 -35.1979 -35.1978 -35.1978 -35.1978 -35.1978 -35.1977 -35.1977
   -11.8886 -11.8874 -11.8844 -11.8807 -11.8775 -11.8775 -11.8717 -11.8717
   -11.8434 -11.8332 -11.7876 -11.7876 -11.7780 -11.7780 -11.7130 -11.7121
   -11.7024 -11.7024 -11.6997 -11.6939 -11.6929 -11.6929 -11.6927 -11.6898
   -11.6857 -11.6817 -11.6775 -11.6772 -11.6772 -11.6723 -11.6706 -11.6706
   -11.6693 -11.6681 -11.6639 -11.6639 -11.6603 -11.6603 -11.6584 -11.6554
   -11.6530 -11.6530 -11.6506 -11.6506 -11.6418 -11.6410 -11.6395 -11.6395
   -11.6395 -11.6375 -11.6359 -11.6359 -11.6323 -11.6276 -11.6261 -11.6258
   -11.6253 -11.6219 -11.6200 -11.6200 -11.6200 -11.6165 -11.6165 -11.6134
   -11.6134 -11.6132 -11.6120 -11.6120 -11.6115 -11.6109 -11.6089 -11.6089
   -11.6070 -11.6070 -11.6070 -11.6062 -11.6062 -11.6049 -11.6042 -11.6027
    -8.1041  -8.0927  -7.6033  -7.6033  -7.5933  -7.5933  -7.2167  -7.2084
    -6.4725  -6.4692  -6.3822  -6.3822  -6.3793  -6.3793  -6.0539  -6.0529
    -1.4952  -1.2376  -0.9440  -0.9440  -0.7717  -0.7717  -0.5426  -0.4487
     0.2003   0.2605   0.4561   0.4651   0.4651   0.5099   0.5099   0.8231
     0.8924   1.0192   1.4492   1.4492   1.6150   1.6150   2.3300   2.3877
     5.1138   5.1194   5.1500   5.1635   5.1635   5.3134   5.3134   5.3391
     6.0369   6.1602   6.2306   6.2401   6.2772   6.2860   6.2860   6.5576
     6.5576   6.7968   6.8603   6.8603   6.9504   6.9504   6.9841   6.9841
     7.0877   7.0877   7.2441   7.3910   7.3951   7.5143   7.6133   7.9181
     7.9644   8.0413   8.0413   8.2518   8.3517   8.5041   8.5041   8.7414
     8.7414   8.8273   8.8273   8.8630   8.8745   8.8805   8.9836   9.1343
     9.1830   9.2142   9.2518   9.4972   9.5536   9.5536   9.6480   9.6480
     9.6876   9.7485   9.8083   9.8083   9.9940  10.0418  10.0756  10.0756
    10.1774  10.2737  10.6897  10.6996  10.6996  10.8139  10.8175  10.8175

     occupation numbers 
     1.0000   1.0000   1.0000   1.0000   1.0000   1.0000   1.0000   1.0000
     1.0000   1.0000   1.0000   1.0000   1.0000   1.0000   1.0000   1.0000
     1.0000   1.0000   1.0000   1.0000   1.0000   1.0000   1.0000   1.0000
     1.0000   1.0000   1.0000   1.0000   1.0000   1.0000   1.0000   1.0000
     1.0000   1.0000   1.0000   1.0000   1.0000   1.0000   1.0000   1.0000
     1.0000   1.0000   1.0000   1.0000   1.0000   1.0000   1.0000   1.0000
     1.0000   1.0000   1.0000   1.0000   1.0000   1.0000   1.0000   1.0000
     1.0000   1.0000   1.0000   1.0000   1.0000   1.0000   1.0000   1.0000
     1.0000   1.0000   1.0000   1.0000   1.0000   1.0000   1.0000   1.0000
     1.0000   1.0000   1.0000   1.0000   1.0000   1.0000   1.0000   1.0000
     1.0000   1.0000   1.0000   1.0000   1.0000   1.0000   1.0000   1.0000
     1.0000   1.0000   1.0000   1.0000   1.0000   1.0000   1.0000   1.0000
     1.0000   1.0000   1.0000   1.0000   1.0000   1.0000   1.0000   1.0000
     1.0000   1.0000   1.0000   1.0000   1.0000   1.0000   1.0000   1.0000
     1.0000   1.0000   1.0000   1.0000   1.0000   1.0000   1.0000   1.0000
     1.0000   1.0000   1.0000   1.0000   1.0000   1.0000   1.0000   1.0000
     1.0000   1.0000   1.0000   1.0000   1.0000   1.0000   1.0000   1.0000
     1.0000   1.0000   1.0000   1.0000   1.0000   1.0000   1.0000   1.0000
     1.0000   1.0000   1.0000   1.0000   1.0000   1.0000   1.0000   1.0000
     1.0000   1.0000   1.0000   1.0000   1.0000   1.0000   1.0000   1.0000
     1.0000   1.0000   1.0000   1.0000   1.0000   1.0000   1.0000   1.0000
     1.0000   1.0000   1.0000   1.0000   1.0000   1.0000   1.0000   1.0000
     1.0000   1.0000   1.0000   1.0000   1.0000   1.0000   1.0000   1.0000
     1.0000   1.0000   1.0000   1.0000   1.0000   1.0000   1.0000   1.0000
     1.0000   1.0000   1.0000   1.0000   1.0000   1.0000   1.0000   1.0000
     1.0000   1.0000   1.0000   1.0000   1.0000   1.0000   1.0000   1.0000
     1.0000   1.0000   1.0000   1.0000   1.0000   1.0000   1.0000   1.0000
     1.0000   1.0000   1.0000   1.0000   1.0000   1.0000   1.0000   1.0000
     1.0000   1.0000   1.0000   1.0000   1.0000   1.0000   1.0000   1.0000

          k = 0.3333 0.3333-0.3194 ( 29178 PWs)   bands (ev):

   -35.2092 -35.2091 -35.2090 -35.2089 -35.2088 -35.2088 -35.2088 -35.2088
   -35.2070 -35.2070 -35.2069 -35.2069 -35.2069 -35.2069 -35.2069 -35.2069
   -35.2018 -35.2018 -35.2018 -35.2018 -35.2018 -35.2018 -35.2018 -35.2018
   -35.2018 -35.2017 -35.2017 -35.2017 -35.2017 -35.2017 -35.2017 -35.2017
   -35.1978 -35.1978 -35.1978 -35.1978 -35.1978 -35.1978 -35.1978 -35.1977
   -11.8859 -11.8859 -11.8847 -11.8847 -11.8746 -11.8746 -11.8746 -11.8746
   -11.8385 -11.8385 -11.7829 -11.7829 -11.7829 -11.7829 -11.7113 -11.7113
   -11.6990 -11.6990 -11.6978 -11.6978 -11.6977 -11.6977 -11.6892 -11.6892
   -11.6861 -11.6861 -11.6742 -11.6742 -11.6741 -11.6741 -11.6741 -11.6741
   -11.6687 -11.6687 -11.6623 -11.6623 -11.6623 -11.6623 -11.6572 -11.6572
   -11.6514 -11.6514 -11.6514 -11.6514 -11.6408 -11.6408 -11.6386 -11.6386
   -11.6373 -11.6373 -11.6373 -11.6373 -11.6280 -11.6280 -11.6261 -11.6261
   -11.6237 -11.6237 -11.6167 -11.6167 -11.6164 -11.6164 -11.6155 -11.6155
   -11.6128 -11.6128 -11.6128 -11.6128 -11.6116 -11.6116 -11.6115 -11.6115
   -11.6076 -11.6076 -11.6076 -11.6076 -11.6057 -11.6057 -11.6038 -11.6038
    -8.0984  -8.0984  -7.5983  -7.5983  -7.5983  -7.5983  -7.2126  -7.2126
    -6.4709  -6.4709  -6.3808  -6.3808  -6.3808  -6.3808  -6.0534  -6.0534
    -1.3769  -1.3769  -0.8624  -0.8624  -0.8623  -0.8623  -0.4966  -0.4966
     0.2272   0.2272   0.4918   0.4918   0.4918   0.4918   0.6490   0.6490
     0.9601   0.9601   1.5320   1.5320   1.5320   1.5320   2.3585   2.3585
     5.1077   5.1077   5.2350   5.2350   5.2350   5.2350   5.2431   5.2431
     6.1449   6.1449   6.1979   6.1979   6.4135   6.4135   6.4135   6.4135
     6.4954   6.4954   6.9124   6.9124   6.9124   6.9124   7.0181   7.0181
     7.0181   7.0181   7.3210   7.3210   7.4405   7.4405   7.7826   7.7826
     8.1783   8.1783   8.3094   8.3094   8.3094   8.3094   8.5517   8.5517
     8.7635   8.7635   8.7635   8.7635   8.8774   8.8774   9.0584   9.0584
     9.1881   9.1881   9.3565   9.3565   9.5993   9.5993   9.5993   9.5993
     9.7192   9.7192   9.9408   9.9408   9.9408   9.9408  10.1076  10.1077
    10.1685  10.1685  10.7578  10.7578  10.7578  10.7578  10.7849  10.7849

     occupation numbers 
     1.0000   1.0000   1.0000   1.0000   1.0000   1.0000   1.0000   1.0000
     1.0000   1.0000   1.0000   1.0000   1.0000   1.0000   1.0000   1.0000
     1.0000   1.0000   1.0000   1.0000   1.0000   1.0000   1.0000   1.0000
     1.0000   1.0000   1.0000   1.0000   1.0000   1.0000   1.0000   1.0000
     1.0000   1.0000   1.0000   1.0000   1.0000   1.0000   1.0000   1.0000
     1.0000   1.0000   1.0000   1.0000   1.0000   1.0000   1.0000   1.0000
     1.0000   1.0000   1.0000   1.0000   1.0000   1.0000   1.0000   1.0000
     1.0000   1.0000   1.0000   1.0000   1.0000   1.0000   1.0000   1.0000
     1.0000   1.0000   1.0000   1.0000   1.0000   1.0000   1.0000   1.0000
     1.0000   1.0000   1.0000   1.0000   1.0000   1.0000   1.0000   1.0000
     1.0000   1.0000   1.0000   1.0000   1.0000   1.0000   1.0000   1.0000
     1.0000   1.0000   1.0000   1.0000   1.0000   1.0000   1.0000   1.0000
     1.0000   1.0000   1.0000   1.0000   1.0000   1.0000   1.0000   1.0000
     1.0000   1.0000   1.0000   1.0000   1.0000   1.0000   1.0000   1.0000
     1.0000   1.0000   1.0000   1.0000   1.0000   1.0000   1.0000   1.0000
     1.0000   1.0000   1.0000   1.0000   1.0000   1.0000   1.0000   1.0000
     1.0000   1.0000   1.0000   1.0000   1.0000   1.0000   1.0000   1.0000
     1.0000   1.0000   1.0000   1.0000   1.0000   1.0000   1.0000   1.0000
     1.0000   1.0000   1.0000   1.0000   1.0000   1.0000   1.0000   1.0000
     1.0000   1.0000   1.0000   1.0000   1.0000   1.0000   1.0000   1.0000
     1.0000   1.0000   1.0000   1.0000   1.0000   1.0000   1.0000   1.0000
     1.0000   1.0000   1.0000   1.0000   1.0000   1.0000   1.0000   1.0000
     1.0000   1.0000   1.0000   1.0000   1.0000   1.0000   1.0000   1.0000
     1.0000   1.0000   1.0000   1.0000   1.0000   1.0000   1.0000   1.0000
     1.0000   1.0000   1.0000   1.0000   1.0000   1.0000   1.0000   1.0000
     1.0000   1.0000   1.0000   1.0000   1.0000   1.0000   1.0000   1.0000
     1.0000   1.0000   1.0000   1.0000   1.0000   1.0000   1.0000   1.0000
     1.0000   1.0000   1.0000   1.0000   1.0000   1.0000   1.0000   1.0000
     1.0000   1.0000   1.0000   1.0000   1.0000   1.0000   1.0000   1.0000

          k = 0.3333-0.5000 0.0000 ( 29156 PWs)   bands (ev):

   -35.2090 -35.2090 -35.2090 -35.2090 -35.2089 -35.2088 -35.2088 -35.2088
   -35.2070 -35.2070 -35.2069 -35.2069 -35.2068 -35.2068 -35.2067 -35.2067
   -35.2019 -35.2019 -35.2019 -35.2019 -35.2019 -35.2019 -35.2018 -35.2018
   -35.2017 -35.2017 -35.2017 -35.2016 -35.2016 -35.2016 -35.2016 -35.2016
   -35.1979 -35.1979 -35.1979 -35.1979 -35.1978 -35.1978 -35.1976 -35.1976
   -11.8865 -11.8865 -11.8852 -11.8852 -11.8767 -11.8767 -11.8728 -11.8728
   -11.8197 -11.8197 -11.7994 -11.7994 -11.7526 -11.7526 -11.7327 -11.7327
   -11.7114 -11.7114 -11.7012 -11.7012 -11.6861 -11.6861 -11.6848 -11.6848
   -11.6832 -11.6832 -11.6728 -11.6728 -11.6708 -11.6708 -11.6701 -11.6701
   -11.6654 -11.6654 -11.6620 -11.6620 -11.6586 -11.6586 -11.6576 -11.6576
   -11.6526 -11.6526 -11.6510 -11.6510 -11.6454 -11.6454 -11.6413 -11.6413
   -11.6379 -11.6379 -11.6369 -11.6369 -11.6325 -11.6325 -11.6321 -11.6321
   -11.6287 -11.6287 -11.6256 -11.6256 -11.6221 -11.6221 -11.6185 -11.6185
   -11.6136 -11.6136 -11.6115 -11.6115 -11.6100 -11.6100 -11.6075 -11.6075
   -11.6062 -11.6062 -11.6056 -11.6056 -11.6040 -11.6040 -11.6038 -11.6038
    -7.8900  -7.8900  -7.8682  -7.8682  -7.4356  -7.4356  -7.4169  -7.4169
    -6.4088  -6.4088  -6.4030  -6.4030  -6.1854  -6.1854  -6.1820  -6.1820
    -1.3524  -1.3524  -0.8838  -0.8838  -0.8307  -0.8307  -0.5425  -0.5425
     0.2950   0.2950   0.3490   0.3490   0.3500   0.3500   0.7544   0.7544
     1.1342   1.1342   1.4103   1.4103   1.9419   1.9419   2.0441   2.0441
     4.9980   4.9980   5.0349   5.0349   5.2225   5.2225   5.4126   5.4126
     5.9470   5.9470   6.4555   6.4555   6.4606   6.4606   6.5980   6.5980
     6.6372   6.6372   6.7017   6.7017   7.0322   7.0322   7.0660   7.0660
     7.1360   7.1360   7.5033   7.5033   7.5215   7.5215   7.5326   7.5326
     7.5728   7.5728   7.5851   7.5851   8.7899   8.7899   8.8326   8.8326
     8.8828   8.8828   8.9877   8.9877   8.9980   8.9980   9.0797   9.0797
     9.1489   9.1489   9.3497   9.3497   9.4367   9.4367   9.5058   9.5058
     9.6843   9.6843   9.7074   9.7074  10.1962  10.1962  10.3015  10.3015
    10.3619  10.3619  10.3893  10.3893  10.7933  10.7933  10.8201  10.8201

     occupation numbers 
     1.0000   1.0000   1.0000   1.0000   1.0000   1.0000   1.0000   1.0000
     1.0000   1.0000   1.0000   1.0000   1.0000   1.0000   1.0000   1.0000
     1.0000   1.0000   1.0000   1.0000   1.0000   1.0000   1.0000   1.0000
     1.0000   1.0000   1.0000   1.0000   1.0000   1.0000   1.0000   1.0000
     1.0000   1.0000   1.0000   1.0000   1.0000   1.0000   1.0000   1.0000
     1.0000   1.0000   1.0000   1.0000   1.0000   1.0000   1.0000   1.0000
     1.0000   1.0000   1.0000   1.0000   1.0000   1.0000   1.0000   1.0000
     1.0000   1.0000   1.0000   1.0000   1.0000   1.0000   1.0000   1.0000
     1.0000   1.0000   1.0000   1.0000   1.0000   1.0000   1.0000   1.0000
     1.0000   1.0000   1.0000   1.0000   1.0000   1.0000   1.0000   1.0000
     1.0000   1.0000   1.0000   1.0000   1.0000   1.0000   1.0000   1.0000
     1.0000   1.0000   1.0000   1.0000   1.0000   1.0000   1.0000   1.0000
     1.0000   1.0000   1.0000   1.0000   1.0000   1.0000   1.0000   1.0000
     1.0000   1.0000   1.0000   1.0000   1.0000   1.0000   1.0000   1.0000
     1.0000   1.0000   1.0000   1.0000   1.0000   1.0000   1.0000   1.0000
     1.0000   1.0000   1.0000   1.0000   1.0000   1.0000   1.0000   1.0000
     1.0000   1.0000   1.0000   1.0000   1.0000   1.0000   1.0000   1.0000
     1.0000   1.0000   1.0000   1.0000   1.0000   1.0000   1.0000   1.0000
     1.0000   1.0000   1.0000   1.0000   1.0000   1.0000   1.0000   1.0000
     1.0000   1.0000   1.0000   1.0000   1.0000   1.0000   1.0000   1.0000
     1.0000   1.0000   1.0000   1.0000   1.0000   1.0000   1.0000   1.0000
     1.0000   1.0000   1.0000   1.0000   1.0000   1.0000   1.0000   1.0000
     1.0000   1.0000   1.0000   1.0000   1.0000   1.0000   1.0000   1.0000
     1.0000   1.0000   1.0000   1.0000   1.0000   1.0000   1.0000   1.0000
     1.0000   1.0000   1.0000   1.0000   1.0000   1.0000   1.0000   1.0000
     1.0000   1.0000   1.0000   1.0000   1.0000   1.0000   1.0000   1.0000
     1.0000   1.0000   1.0000   1.0000   1.0000   1.0000   1.0000   1.0000
     1.0000   1.0000   1.0000   1.0000   1.0000   1.0000   1.0000   1.0000
     1.0000   1.0000   1.0000   1.0000   1.0000   1.0000   1.0000   1.0000

          k = 0.3333-0.5000 0.1065 ( 29140 PWs)   bands (ev):

   -35.2090 -35.2090 -35.2090 -35.2090 -35.2088 -35.2088 -35.2088 -35.2088
   -35.2069 -35.2069 -35.2069 -35.2069 -35.2069 -35.2069 -35.2067 -35.2067
   -35.2020 -35.2020 -35.2019 -35.2019 -35.2018 -35.2018 -35.2018 -35.2018
   -35.2017 -35.2017 -35.2017 -35.2017 -35.2016 -35.2016 -35.2015 -35.2015
   -35.1979 -35.1979 -35.1978 -35.1978 -35.1977 -35.1977 -35.1975 -35.1975
   -11.8856 -11.8856 -11.8847 -11.8847 -11.8773 -11.8773 -11.8738 -11.8738
   -11.8185 -11.8185 -11.8010 -11.8010 -11.7516 -11.7516 -11.7346 -11.7346
   -11.7097 -11.7097 -11.7001 -11.7001 -11.6875 -11.6875 -11.6853 -11.6853
   -11.6846 -11.6846 -11.6722 -11.6722 -11.6720 -11.6720 -11.6694 -11.6694
   -11.6649 -11.6649 -11.6617 -11.6617 -11.6582 -11.6582 -11.6576 -11.6576
   -11.6529 -11.6529 -11.6524 -11.6524 -11.6442 -11.6442 -11.6410 -11.6410
   -11.6376 -11.6376 -11.6362 -11.6362 -11.6327 -11.6327 -11.6321 -11.6321
   -11.6275 -11.6275 -11.6242 -11.6242 -11.6209 -11.6209 -11.6179 -11.6179
   -11.6133 -11.6133 -11.6126 -11.6126 -11.6096 -11.6096 -11.6081 -11.6081
   -11.6074 -11.6074 -11.6065 -11.6065 -11.6046 -11.6046 -11.6042 -11.6042
    -7.8885  -7.8885  -7.8697  -7.8697  -7.4343  -7.4343  -7.4181  -7.4181
    -6.4084  -6.4084  -6.4034  -6.4034  -6.1851  -6.1851  -6.1822  -6.1822
    -1.3283  -1.3283  -0.9274  -0.9274  -0.8142  -0.8142  -0.5656  -0.5656
     0.3403   0.3403   0.3513   0.3513   0.3513   0.3513   0.7333   0.7333
     1.1543   1.1543   1.3933   1.3933   1.9458   1.9458   2.0341   2.0341
     5.0231   5.0231   5.0429   5.0429   5.2052   5.2052   5.3814   5.3814
     5.9887   5.9887   6.4613   6.4613   6.4861   6.4861   6.5449   6.5449
     6.6004   6.6004   6.7485   6.7485   7.0465   7.0465   7.0585   7.0585
     7.1196   7.1196   7.2862   7.2862   7.3537   7.3537   7.5055   7.5055
     7.8096   7.8096   7.8564   7.8564   8.7310   8.7310   8.8219   8.8219
     8.8827   8.8827   8.9867   8.9867   9.0021   9.0021   9.0730   9.0730
     9.1049   9.1049   9.3946   9.3946   9.4100   9.4100   9.5142   9.5142
     9.6783   9.6783   9.7516   9.7516  10.1520  10.1520  10.2286  10.2286
    10.2983  10.2983  10.4659  10.4659  10.8205  10.8205  10.8267  10.8267

     occupation numbers 
     1.0000   1.0000   1.0000   1.0000   1.0000   1.0000   1.0000   1.0000
     1.0000   1.0000   1.0000   1.0000   1.0000   1.0000   1.0000   1.0000
     1.0000   1.0000   1.0000   1.0000   1.0000   1.0000   1.0000   1.0000
     1.0000   1.0000   1.0000   1.0000   1.0000   1.0000   1.0000   1.0000
     1.0000   1.0000   1.0000   1.0000   1.0000   1.0000   1.0000   1.0000
     1.0000   1.0000   1.0000   1.0000   1.0000   1.0000   1.0000   1.0000
     1.0000   1.0000   1.0000   1.0000   1.0000   1.0000   1.0000   1.0000
     1.0000   1.0000   1.0000   1.0000   1.0000   1.0000   1.0000   1.0000
     1.0000   1.0000   1.0000   1.0000   1.0000   1.0000   1.0000   1.0000
     1.0000   1.0000   1.0000   1.0000   1.0000   1.0000   1.0000   1.0000
     1.0000   1.0000   1.0000   1.0000   1.0000   1.0000   1.0000   1.0000
     1.0000   1.0000   1.0000   1.0000   1.0000   1.0000   1.0000   1.0000
     1.0000   1.0000   1.0000   1.0000   1.0000   1.0000   1.0000   1.0000
     1.0000   1.0000   1.0000   1.0000   1.0000   1.0000   1.0000   1.0000
     1.0000   1.0000   1.0000   1.0000   1.0000   1.0000   1.0000   1.0000
     1.0000   1.0000   1.0000   1.0000   1.0000   1.0000   1.0000   1.0000
     1.0000   1.0000   1.0000   1.0000   1.0000   1.0000   1.0000   1.0000
     1.0000   1.0000   1.0000   1.0000   1.0000   1.0000   1.0000   1.0000
     1.0000   1.0000   1.0000   1.0000   1.0000   1.0000   1.0000   1.0000
     1.0000   1.0000   1.0000   1.0000   1.0000   1.0000   1.0000   1.0000
     1.0000   1.0000   1.0000   1.0000   1.0000   1.0000   1.0000   1.0000
     1.0000   1.0000   1.0000   1.0000   1.0000   1.0000   1.0000   1.0000
     1.0000   1.0000   1.0000   1.0000   1.0000   1.0000   1.0000   1.0000
     1.0000   1.0000   1.0000   1.0000   1.0000   1.0000   1.0000   1.0000
     1.0000   1.0000   1.0000   1.0000   1.0000   1.0000   1.0000   1.0000
     1.0000   1.0000   1.0000   1.0000   1.0000   1.0000   1.0000   1.0000
     1.0000   1.0000   1.0000   1.0000   1.0000   1.0000   1.0000   1.0000
     1.0000   1.0000   1.0000   1.0000   1.0000   1.0000   1.0000   1.0000
     1.0000   1.0000   1.0000   1.0000   1.0000   1.0000   1.0000   1.0000

          k = 0.3333-0.5000 0.2129 ( 29158 PWs)   bands (ev):

   -35.2090 -35.2090 -35.2090 -35.2090 -35.2089 -35.2089 -35.2088 -35.2088
   -35.2069 -35.2069 -35.2069 -35.2069 -35.2068 -35.2068 -35.2068 -35.2068
   -35.2019 -35.2019 -35.2019 -35.2019 -35.2018 -35.2018 -35.2018 -35.2018
   -35.2017 -35.2017 -35.2017 -35.2017 -35.2017 -35.2017 -35.2016 -35.2016
   -35.1978 -35.1978 -35.1978 -35.1978 -35.1977 -35.1977 -35.1976 -35.1976
   -11.8833 -11.8833 -11.8831 -11.8831 -11.8789 -11.8789 -11.8764 -11.8764
   -11.8151 -11.8151 -11.8051 -11.8051 -11.7486 -11.7486 -11.7391 -11.7391
   -11.7055 -11.7055 -11.6971 -11.6971 -11.6933 -11.6933 -11.6882 -11.6882
   -11.6831 -11.6831 -11.6758 -11.6758 -11.6703 -11.6703 -11.6685 -11.6685
   -11.6635 -11.6635 -11.6613 -11.6613 -11.6576 -11.6576 -11.6576 -11.6576
   -11.6543 -11.6543 -11.6538 -11.6538 -11.6425 -11.6425 -11.6408 -11.6408
   -11.6365 -11.6365 -11.6350 -11.6350 -11.6333 -11.6333 -11.6328 -11.6328
   -11.6242 -11.6242 -11.6204 -11.6203 -11.6178 -11.6178 -11.6163 -11.6163
   -11.6155 -11.6155 -11.6129 -11.6129 -11.6107 -11.6107 -11.6098 -11.6098
   -11.6091 -11.6091 -11.6081 -11.6081 -11.6062 -11.6062 -11.6053 -11.6053
    -7.8846  -7.8846  -7.8737  -7.8737  -7.4309  -7.4309  -7.4216  -7.4216
    -6.4073  -6.4073  -6.4044  -6.4044  -6.1845  -6.1845  -6.1828  -6.1828
    -1.2589  -1.2589  -1.0325  -1.0325  -0.7676  -0.7676  -0.6251  -0.6251
     0.3541   0.3541   0.3550   0.3550   0.4483   0.4483   0.6705   0.6705
     1.2081   1.2081   1.3459   1.3459   1.9584   1.9584   2.0091   2.0091
     5.0682   5.0682   5.0933   5.0933   5.1618   5.1618   5.2994   5.2994
     6.1027   6.1027   6.4183   6.4183   6.4791   6.4791   6.5511   6.5511
     6.5643   6.5643   6.8318   6.8318   6.8916   6.8916   7.0516   7.0516
     7.0842   7.0842   7.2081   7.2081   7.2923   7.2923   7.4578   7.4578
     8.0952   8.0952   8.1666   8.1666   8.5758   8.5758   8.7367   8.7367
     8.8836   8.8836   8.9341   8.9341   8.9928   8.9928   9.0053   9.0053
     9.1634   9.1634   9.3380   9.3380   9.5241   9.5241   9.5469   9.5469
     9.6502   9.6502   9.8625   9.8625   9.9344   9.9344  10.1615  10.1615
    10.3131  10.3131  10.4798  10.4798  10.8428  10.8428  10.8534  10.8534

     occupation numbers 
     1.0000   1.0000   1.0000   1.0000   1.0000   1.0000   1.0000   1.0000
     1.0000   1.0000   1.0000   1.0000   1.0000   1.0000   1.0000   1.0000
     1.0000   1.0000   1.0000   1.0000   1.0000   1.0000   1.0000   1.0000
     1.0000   1.0000   1.0000   1.0000   1.0000   1.0000   1.0000   1.0000
     1.0000   1.0000   1.0000   1.0000   1.0000   1.0000   1.0000   1.0000
     1.0000   1.0000   1.0000   1.0000   1.0000   1.0000   1.0000   1.0000
     1.0000   1.0000   1.0000   1.0000   1.0000   1.0000   1.0000   1.0000
     1.0000   1.0000   1.0000   1.0000   1.0000   1.0000   1.0000   1.0000
     1.0000   1.0000   1.0000   1.0000   1.0000   1.0000   1.0000   1.0000
     1.0000   1.0000   1.0000   1.0000   1.0000   1.0000   1.0000   1.0000
     1.0000   1.0000   1.0000   1.0000   1.0000   1.0000   1.0000   1.0000
     1.0000   1.0000   1.0000   1.0000   1.0000   1.0000   1.0000   1.0000
     1.0000   1.0000   1.0000   1.0000   1.0000   1.0000   1.0000   1.0000
     1.0000   1.0000   1.0000   1.0000   1.0000   1.0000   1.0000   1.0000
     1.0000   1.0000   1.0000   1.0000   1.0000   1.0000   1.0000   1.0000
     1.0000   1.0000   1.0000   1.0000   1.0000   1.0000   1.0000   1.0000
     1.0000   1.0000   1.0000   1.0000   1.0000   1.0000   1.0000   1.0000
     1.0000   1.0000   1.0000   1.0000   1.0000   1.0000   1.0000   1.0000
     1.0000   1.0000   1.0000   1.0000   1.0000   1.0000   1.0000   1.0000
     1.0000   1.0000   1.0000   1.0000   1.0000   1.0000   1.0000   1.0000
     1.0000   1.0000   1.0000   1.0000   1.0000   1.0000   1.0000   1.0000
     1.0000   1.0000   1.0000   1.0000   1.0000   1.0000   1.0000   1.0000
     1.0000   1.0000   1.0000   1.0000   1.0000   1.0000   1.0000   1.0000
     1.0000   1.0000   1.0000   1.0000   1.0000   1.0000   1.0000   1.0000
     1.0000   1.0000   1.0000   1.0000   1.0000   1.0000   1.0000   1.0000
     1.0000   1.0000   1.0000   1.0000   1.0000   1.0000   1.0000   1.0000
     1.0000   1.0000   1.0000   1.0000   1.0000   1.0000   1.0000   1.0000
     1.0000   1.0000   1.0000   1.0000   1.0000   1.0000   1.0000   1.0000
     1.0000   1.0000   1.0000   1.0000   1.0000   1.0000   1.0000   1.0000

          k = 0.3333-0.5000-0.3194 ( 29148 PWs)   bands (ev):

   -35.2089 -35.2089 -35.2088 -35.2088 -35.2088 -35.2088 -35.2088 -35.2088
   -35.2069 -35.2069 -35.2069 -35.2069 -35.2068 -35.2068 -35.2068 -35.2067
   -35.2018 -35.2018 -35.2018 -35.2018 -35.2018 -35.2018 -35.2018 -35.2018
   -35.2017 -35.2017 -35.2017 -35.2017 -35.2017 -35.2017 -35.2016 -35.2016
   -35.1978 -35.1978 -35.1978 -35.1978 -35.1978 -35.1978 -35.1977 -35.1977
   -11.8810 -11.8810 -11.8810 -11.8810 -11.8799 -11.8799 -11.8799 -11.8799
   -11.8102 -11.8102 -11.8102 -11.8102 -11.7442 -11.7442 -11.7442 -11.7442
   -11.6998 -11.6998 -11.6998 -11.6998 -11.6928 -11.6928 -11.6928 -11.6928
   -11.6797 -11.6797 -11.6797 -11.6797 -11.6689 -11.6689 -11.6689 -11.6689
   -11.6619 -11.6619 -11.6619 -11.6619 -11.6575 -11.6575 -11.6575 -11.6575
   -11.6547 -11.6547 -11.6547 -11.6547 -11.6414 -11.6414 -11.6414 -11.6414
   -11.6345 -11.6345 -11.6345 -11.6345 -11.6341 -11.6341 -11.6341 -11.6341
   -11.6197 -11.6197 -11.6197 -11.6197 -11.6154 -11.6154 -11.6154 -11.6154
   -11.6141 -11.6141 -11.6140 -11.6140 -11.6137 -11.6137 -11.6137 -11.6137
   -11.6082 -11.6082 -11.6082 -11.6082 -11.6067 -11.6067 -11.6067 -11.6067
    -7.8791  -7.8791  -7.8791  -7.8791  -7.4262  -7.4262  -7.4262  -7.4262
    -6.4059  -6.4059  -6.4059  -6.4059  -6.1837  -6.1837  -6.1837  -6.1837
    -1.1540  -1.1540  -1.1540  -1.1540  -0.6995  -0.6995  -0.6995  -0.6995
     0.3561   0.3561   0.3561   0.3561   0.5700   0.5700   0.5700   0.5700
     1.2786   1.2786   1.2786   1.2786   1.9807   1.9807   1.9807   1.9807
     5.1106   5.1106   5.1106   5.1106   5.1934   5.1934   5.1934   5.1934
     6.2591   6.2591   6.2591   6.2591   6.5094   6.5094   6.5094   6.5094
     6.6999   6.6999   6.6999   6.6999   6.9375   6.9375   6.9375   6.9375
     7.1357   7.1357   7.1357   7.1357   7.3813   7.3813   7.3813   7.3813
     8.3561   8.3561   8.3561   8.3561   8.4814   8.4814   8.4814   8.4814
     8.8909   8.8909   8.8909   8.8909   9.0018   9.0018   9.0018   9.0018
     9.2458   9.2458   9.2459   9.2459   9.5996   9.5996   9.5997   9.5997
     9.7147   9.7147   9.7147   9.7147  10.0075  10.0075  10.0075  10.0075
    10.4136  10.4136  10.4137  10.4137  10.8575  10.8575  10.8575  10.8575

     occupation numbers 
     1.0000   1.0000   1.0000   1.0000   1.0000   1.0000   1.0000   1.0000
     1.0000   1.0000   1.0000   1.0000   1.0000   1.0000   1.0000   1.0000
     1.0000   1.0000   1.0000   1.0000   1.0000   1.0000   1.0000   1.0000
     1.0000   1.0000   1.0000   1.0000   1.0000   1.0000   1.0000   1.0000
     1.0000   1.0000   1.0000   1.0000   1.0000   1.0000   1.0000   1.0000
     1.0000   1.0000   1.0000   1.0000   1.0000   1.0000   1.0000   1.0000
     1.0000   1.0000   1.0000   1.0000   1.0000   1.0000   1.0000   1.0000
     1.0000   1.0000   1.0000   1.0000   1.0000   1.0000   1.0000   1.0000
     1.0000   1.0000   1.0000   1.0000   1.0000   1.0000   1.0000   1.0000
     1.0000   1.0000   1.0000   1.0000   1.0000   1.0000   1.0000   1.0000
     1.0000   1.0000   1.0000   1.0000   1.0000   1.0000   1.0000   1.0000
     1.0000   1.0000   1.0000   1.0000   1.0000   1.0000   1.0000   1.0000
     1.0000   1.0000   1.0000   1.0000   1.0000   1.0000   1.0000   1.0000
     1.0000   1.0000   1.0000   1.0000   1.0000   1.0000   1.0000   1.0000
     1.0000   1.0000   1.0000   1.0000   1.0000   1.0000   1.0000   1.0000
     1.0000   1.0000   1.0000   1.0000   1.0000   1.0000   1.0000   1.0000
     1.0000   1.0000   1.0000   1.0000   1.0000   1.0000   1.0000   1.0000
     1.0000   1.0000   1.0000   1.0000   1.0000   1.0000   1.0000   1.0000
     1.0000   1.0000   1.0000   1.0000   1.0000   1.0000   1.0000   1.0000
     1.0000   1.0000   1.0000   1.0000   1.0000   1.0000   1.0000   1.0000
     1.0000   1.0000   1.0000   1.0000   1.0000   1.0000   1.0000   1.0000
     1.0000   1.0000   1.0000   1.0000   1.0000   1.0000   1.0000   1.0000
     1.0000   1.0000   1.0000   1.0000   1.0000   1.0000   1.0000   1.0000
     1.0000   1.0000   1.0000   1.0000   1.0000   1.0000   1.0000   1.0000
     1.0000   1.0000   1.0000   1.0000   1.0000   1.0000   1.0000   1.0000
     1.0000   1.0000   1.0000   1.0000   1.0000   1.0000   1.0000   1.0000
     1.0000   1.0000   1.0000   1.0000   1.0000   1.0000   1.0000   1.0000
     1.0000   1.0000   1.0000   1.0000   1.0000   1.0000   1.0000   1.0000
     1.0000   1.0000   1.0000   1.0000   1.0000   1.0000   1.0000   1.0000

          k =-0.5000-0.5000 0.0000 ( 29128 PWs)   bands (ev):

   -35.2089 -35.2089 -35.2089 -35.2089 -35.2089 -35.2089 -35.2089 -35.2089
   -35.2067 -35.2067 -35.2067 -35.2067 -35.2067 -35.2067 -35.2067 -35.2067
   -35.2018 -35.2018 -35.2018 -35.2018 -35.2018 -35.2018 -35.2018 -35.2018
   -35.2017 -35.2017 -35.2017 -35.2017 -35.2017 -35.2017 -35.2017 -35.2017
   -35.1978 -35.1978 -35.1978 -35.1978 -35.1978 -35.1978 -35.1978 -35.1978
   -11.8862 -11.8862 -11.8862 -11.8862 -11.8754 -11.8754 -11.8754 -11.8753
   -11.7854 -11.7854 -11.7854 -11.7854 -11.7651 -11.7651 -11.7651 -11.7651
   -11.7062 -11.7062 -11.7062 -11.7062 -11.6822 -11.6822 -11.6822 -11.6822
   -11.6731 -11.6731 -11.6731 -11.6731 -11.6676 -11.6676 -11.6676 -11.6676
   -11.6660 -11.6660 -11.6660 -11.6660 -11.6612 -11.6612 -11.6612 -11.6612
   -11.6493 -11.6493 -11.6493 -11.6493 -11.6462 -11.6462 -11.6462 -11.6462
   -11.6348 -11.6348 -11.6348 -11.6348 -11.6333 -11.6333 -11.6333 -11.6333
   -11.6280 -11.6280 -11.6280 -11.6280 -11.6226 -11.6226 -11.6226 -11.6226
   -11.6145 -11.6145 -11.6145 -11.6145 -11.6091 -11.6091 -11.6091 -11.6091
   -11.6067 -11.6067 -11.6067 -11.6067 -11.6062 -11.6062 -11.6062 -11.6062
    -7.6898  -7.6898  -7.6898  -7.6898  -7.6692  -7.6692  -7.6692  -7.6692
    -6.2687  -6.2687  -6.2687  -6.2687  -6.2646  -6.2646  -6.2646  -6.2646
    -1.1295  -1.1295  -1.1295  -1.1295  -0.7279  -0.7279  -0.7279  -0.7279
     0.2971   0.2971   0.2971   0.2971   0.5519   0.5519   0.5519   0.5519
     1.5908   1.5908   1.5908   1.5908   1.7626   1.7626   1.7626   1.7626
     4.9292   4.9292   4.9292   4.9292   5.2929   5.2929   5.2929   5.2929
     6.4651   6.4651   6.4651   6.4651   6.4927   6.4927   6.4927   6.4927
     6.7998   6.7998   6.7998   6.7998   6.9227   6.9227   6.9227   6.9227
     7.0909   7.0909   7.0909   7.0909   7.4947   7.4947   7.4947   7.4947
     7.5463   7.5463   7.5463   7.5463   9.0055   9.0055   9.0055   9.0055
     9.0314   9.0314   9.0314   9.0314   9.0410   9.0410   9.0410   9.0410
     9.1466   9.1466   9.1466   9.1466   9.4114   9.4114   9.4114   9.4114
     9.5378   9.5378   9.5378   9.5378  10.3857  10.3857  10.3857  10.3857
    10.5913  10.5913  10.5913  10.5913  10.8347  10.8347  10.8347  10.8347

     occupation numbers 
     1.0000   1.0000   1.0000   1.0000   1.0000   1.0000   1.0000   1.0000
     1.0000   1.0000   1.0000   1.0000   1.0000   1.0000   1.0000   1.0000
     1.0000   1.0000   1.0000   1.0000   1.0000   1.0000   1.0000   1.0000
     1.0000   1.0000   1.0000   1.0000   1.0000   1.0000   1.0000   1.0000
     1.0000   1.0000   1.0000   1.0000   1.0000   1.0000   1.0000   1.0000
     1.0000   1.0000   1.0000   1.0000   1.0000   1.0000   1.0000   1.0000
     1.0000   1.0000   1.0000   1.0000   1.0000   1.0000   1.0000   1.0000
     1.0000   1.0000   1.0000   1.0000   1.0000   1.0000   1.0000   1.0000
     1.0000   1.0000   1.0000   1.0000   1.0000   1.0000   1.0000   1.0000
     1.0000   1.0000   1.0000   1.0000   1.0000   1.0000   1.0000   1.0000
     1.0000   1.0000   1.0000   1.0000   1.0000   1.0000   1.0000   1.0000
     1.0000   1.0000   1.0000   1.0000   1.0000   1.0000   1.0000   1.0000
     1.0000   1.0000   1.0000   1.0000   1.0000   1.0000   1.0000   1.0000
     1.0000   1.0000   1.0000   1.0000   1.0000   1.0000   1.0000   1.0000
     1.0000   1.0000   1.0000   1.0000   1.0000   1.0000   1.0000   1.0000
     1.0000   1.0000   1.0000   1.0000   1.0000   1.0000   1.0000   1.0000
     1.0000   1.0000   1.0000   1.0000   1.0000   1.0000   1.0000   1.0000
     1.0000   1.0000   1.0000   1.0000   1.0000   1.0000   1.0000   1.0000
     1.0000   1.0000   1.0000   1.0000   1.0000   1.0000   1.0000   1.0000
     1.0000   1.0000   1.0000   1.0000   1.0000   1.0000   1.0000   1.0000
     1.0000   1.0000   1.0000   1.0000   1.0000   1.0000   1.0000   1.0000
     1.0000   1.0000   1.0000   1.0000   1.0000   1.0000   1.0000   1.0000
     1.0000   1.0000   1.0000   1.0000   1.0000   1.0000   1.0000   1.0000
     1.0000   1.0000   1.0000   1.0000   1.0000   1.0000   1.0000   1.0000
     1.0000   1.0000   1.0000   1.0000   1.0000   1.0000   1.0000   1.0000
     1.0000   1.0000   1.0000   1.0000   1.0000   1.0000   1.0000   1.0000
     1.0000   1.0000   1.0000   1.0000   1.0000   1.0000   1.0000   1.0000
     1.0000   1.0000   1.0000   1.0000   1.0000   1.0000   1.0000   1.0000
     1.0000   1.0000   1.0000   1.0000   1.0000   1.0000   1.0000   1.0000

          k =-0.5000-0.5000 0.1065 ( 29144 PWs)   bands (ev):

   -35.2090 -35.2090 -35.2090 -35.2090 -35.2089 -35.2089 -35.2089 -35.2089
   -35.2068 -35.2068 -35.2068 -35.2068 -35.2067 -35.2067 -35.2067 -35.2067
   -35.2019 -35.2019 -35.2019 -35.2019 -35.2018 -35.2018 -35.2018 -35.2018
   -35.2018 -35.2018 -35.2018 -35.2018 -35.2017 -35.2017 -35.2017 -35.2017
   -35.1978 -35.1978 -35.1978 -35.1978 -35.1975 -35.1975 -35.1975 -35.1975
   -11.8855 -11.8855 -11.8855 -11.8855 -11.8761 -11.8761 -11.8761 -11.8761
   -11.7843 -11.7843 -11.7843 -11.7843 -11.7668 -11.7668 -11.7668 -11.7668
   -11.7048 -11.7048 -11.7048 -11.7048 -11.6846 -11.6846 -11.6846 -11.6846
   -11.6726 -11.6726 -11.6726 -11.6726 -11.6668 -11.6668 -11.6668 -11.6668
   -11.6649 -11.6649 -11.6649 -11.6649 -11.6626 -11.6626 -11.6626 -11.6626
   -11.6489 -11.6489 -11.6489 -11.6489 -11.6464 -11.6464 -11.6464 -11.6464
   -11.6348 -11.6348 -11.6348 -11.6348 -11.6334 -11.6334 -11.6334 -11.6334
   -11.6262 -11.6262 -11.6262 -11.6262 -11.6216 -11.6216 -11.6216 -11.6216
   -11.6141 -11.6140 -11.6140 -11.6140 -11.6098 -11.6098 -11.6098 -11.6098
   -11.6079 -11.6079 -11.6079 -11.6079 -11.6068 -11.6068 -11.6068 -11.6068
    -7.6885  -7.6885  -7.6885  -7.6885  -7.6706  -7.6706  -7.6706  -7.6706
    -6.2684  -6.2684  -6.2684  -6.2684  -6.2648  -6.2648  -6.2648  -6.2648
    -1.1082  -1.1082  -1.1082  -1.1082  -0.7638  -0.7638  -0.7638  -0.7638
     0.3252   0.3252   0.3252   0.3252   0.5421   0.5421   0.5421   0.5421
     1.6000   1.6000   1.6000   1.6000   1.7491   1.7491   1.7491   1.7491
     4.9518   4.9518   4.9518   4.9518   5.2664   5.2664   5.2664   5.2664
     6.4961   6.4961   6.4961   6.4961   6.5064   6.5064   6.5064   6.5064
     6.7576   6.7576   6.7576   6.7576   6.9549   6.9549   6.9549   6.9549
     7.0858   7.0858   7.0858   7.0858   7.2162   7.2162   7.2162   7.2162
     7.8501   7.8501   7.8501   7.8501   8.9418   8.9418   8.9418   8.9418
     9.0317   9.0317   9.0317   9.0317   9.0391   9.0391   9.0391   9.0391
     9.1735   9.1735   9.1735   9.1735   9.4670   9.4670   9.4670   9.4670
     9.5111   9.5111   9.5111   9.5111  10.2985  10.2985  10.2985  10.2985
    10.6070  10.6070  10.6070  10.6070  10.8183  10.8183  10.8183  10.8183

     occupation numbers 
     1.0000   1.0000   1.0000   1.0000   1.0000   1.0000   1.0000   1.0000
     1.0000   1.0000   1.0000   1.0000   1.0000   1.0000   1.0000   1.0000
     1.0000   1.0000   1.0000   1.0000   1.0000   1.0000   1.0000   1.0000
     1.0000   1.0000   1.0000   1.0000   1.0000   1.0000   1.0000   1.0000
     1.0000   1.0000   1.0000   1.0000   1.0000   1.0000   1.0000   1.0000
     1.0000   1.0000   1.0000   1.0000   1.0000   1.0000   1.0000   1.0000
     1.0000   1.0000   1.0000   1.0000   1.0000   1.0000   1.0000   1.0000
     1.0000   1.0000   1.0000   1.0000   1.0000   1.0000   1.0000   1.0000
     1.0000   1.0000   1.0000   1.0000   1.0000   1.0000   1.0000   1.0000
     1.0000   1.0000   1.0000   1.0000   1.0000   1.0000   1.0000   1.0000
     1.0000   1.0000   1.0000   1.0000   1.0000   1.0000   1.0000   1.0000
     1.0000   1.0000   1.0000   1.0000   1.0000   1.0000   1.0000   1.0000
     1.0000   1.0000   1.0000   1.0000   1.0000   1.0000   1.0000   1.0000
     1.0000   1.0000   1.0000   1.0000   1.0000   1.0000   1.0000   1.0000
     1.0000   1.0000   1.0000   1.0000   1.0000   1.0000   1.0000   1.0000
     1.0000   1.0000   1.0000   1.0000   1.0000   1.0000   1.0000   1.0000
     1.0000   1.0000   1.0000   1.0000   1.0000   1.0000   1.0000   1.0000
     1.0000   1.0000   1.0000   1.0000   1.0000   1.0000   1.0000   1.0000
     1.0000   1.0000   1.0000   1.0000   1.0000   1.0000   1.0000   1.0000
     1.0000   1.0000   1.0000   1.0000   1.0000   1.0000   1.0000   1.0000
     1.0000   1.0000   1.0000   1.0000   1.0000   1.0000   1.0000   1.0000
     1.0000   1.0000   1.0000   1.0000   1.0000   1.0000   1.0000   1.0000
     1.0000   1.0000   1.0000   1.0000   1.0000   1.0000   1.0000   1.0000
     1.0000   1.0000   1.0000   1.0000   1.0000   1.0000   1.0000   1.0000
     1.0000   1.0000   1.0000   1.0000   1.0000   1.0000   1.0000   1.0000
     1.0000   1.0000   1.0000   1.0000   1.0000   1.0000   1.0000   1.0000
     1.0000   1.0000   1.0000   1.0000   1.0000   1.0000   1.0000   1.0000
     1.0000   1.0000   1.0000   1.0000   1.0000   1.0000   1.0000   1.0000
     1.0000   1.0000   1.0000   1.0000   1.0000   1.0000   1.0000   1.0000

          k =-0.5000-0.5000 0.2129 ( 29112 PWs)   bands (ev):

   -35.2089 -35.2089 -35.2089 -35.2089 -35.2088 -35.2088 -35.2088 -35.2088
   -35.2068 -35.2068 -35.2068 -35.2068 -35.2066 -35.2066 -35.2066 -35.2066
   -35.2018 -35.2018 -35.2018 -35.2018 -35.2017 -35.2017 -35.2017 -35.2017
   -35.2017 -35.2017 -35.2017 -35.2017 -35.2016 -35.2016 -35.2016 -35.2016
   -35.1977 -35.1977 -35.1977 -35.1977 -35.1976 -35.1976 -35.1976 -35.1976
   -11.8836 -11.8836 -11.8836 -11.8836 -11.8782 -11.8782 -11.8782 -11.8782
   -11.7811 -11.7811 -11.7811 -11.7811 -11.7710 -11.7710 -11.7710 -11.7710
   -11.7011 -11.7011 -11.7011 -11.7011 -11.6899 -11.6899 -11.6899 -11.6899
   -11.6710 -11.6710 -11.6710 -11.6710 -11.6656 -11.6656 -11.6656 -11.6656
   -11.6650 -11.6650 -11.6650 -11.6650 -11.6636 -11.6636 -11.6636 -11.6636
   -11.6481 -11.6481 -11.6481 -11.6481 -11.6467 -11.6467 -11.6467 -11.6467
   -11.6348 -11.6348 -11.6348 -11.6348 -11.6339 -11.6339 -11.6339 -11.6339
   -11.6217 -11.6217 -11.6217 -11.6217 -11.6192 -11.6192 -11.6192 -11.6192
   -11.6135 -11.6135 -11.6135 -11.6135 -11.6113 -11.6113 -11.6113 -11.6113
   -11.6112 -11.6112 -11.6112 -11.6112 -11.6082 -11.6082 -11.6082 -11.6082
    -7.6847  -7.6847  -7.6847  -7.6847  -7.6744  -7.6744  -7.6744  -7.6744
    -6.2676  -6.2676  -6.2676  -6.2676  -6.2656  -6.2656  -6.2656  -6.2656
    -1.0472  -1.0472  -1.0472  -1.0472  -0.8519  -0.8519  -0.8519  -0.8519
     0.3903   0.3903   0.3903   0.3903   0.5117   0.5117   0.5117   0.5117
     1.6271   1.6271   1.6271   1.6271   1.7135   1.7135   1.7135   1.7135
     5.0147   5.0147   5.0147   5.0147   5.1959   5.1959   5.1959   5.1959
     6.5462   6.5462   6.5462   6.5462   6.5890   6.5890   6.5890   6.5890
     6.6821   6.6821   6.6821   6.6821   6.9539   6.9539   6.9539   6.9539
     7.0035   7.0035   7.0035   7.0035   7.0701   7.0701   7.0701   7.0701
     8.1838   8.1838   8.1838   8.1838   8.7629   8.7629   8.7629   8.7629
     9.0325   9.0325   9.0325   9.0325   9.0361   9.0361   9.0361   9.0361
     9.2449   9.2449   9.2449   9.2449   9.4388   9.4388   9.4388   9.4388
     9.6219   9.6219   9.6219   9.6219  10.0899  10.0899  10.0899  10.0899
    10.6503  10.6503  10.6503  10.6503  10.7726  10.7726  10.7726  10.7726

     occupation numbers 
     1.0000   1.0000   1.0000   1.0000   1.0000   1.0000   1.0000   1.0000
     1.0000   1.0000   1.0000   1.0000   1.0000   1.0000   1.0000   1.0000
     1.0000   1.0000   1.0000   1.0000   1.0000   1.0000   1.0000   1.0000
     1.0000   1.0000   1.0000   1.0000   1.0000   1.0000   1.0000   1.0000
     1.0000   1.0000   1.0000   1.0000   1.0000   1.0000   1.0000   1.0000
     1.0000   1.0000   1.0000   1.0000   1.0000   1.0000   1.0000   1.0000
     1.0000   1.0000   1.0000   1.0000   1.0000   1.0000   1.0000   1.0000
     1.0000   1.0000   1.0000   1.0000   1.0000   1.0000   1.0000   1.0000
     1.0000   1.0000   1.0000   1.0000   1.0000   1.0000   1.0000   1.0000
     1.0000   1.0000   1.0000   1.0000   1.0000   1.0000   1.0000   1.0000
     1.0000   1.0000   1.0000   1.0000   1.0000   1.0000   1.0000   1.0000
     1.0000   1.0000   1.0000   1.0000   1.0000   1.0000   1.0000   1.0000
     1.0000   1.0000   1.0000   1.0000   1.0000   1.0000   1.0000   1.0000
     1.0000   1.0000   1.0000   1.0000   1.0000   1.0000   1.0000   1.0000
     1.0000   1.0000   1.0000   1.0000   1.0000   1.0000   1.0000   1.0000
     1.0000   1.0000   1.0000   1.0000   1.0000   1.0000   1.0000   1.0000
     1.0000   1.0000   1.0000   1.0000   1.0000   1.0000   1.0000   1.0000
     1.0000   1.0000   1.0000   1.0000   1.0000   1.0000   1.0000   1.0000
     1.0000   1.0000   1.0000   1.0000   1.0000   1.0000   1.0000   1.0000
     1.0000   1.0000   1.0000   1.0000   1.0000   1.0000   1.0000   1.0000
     1.0000   1.0000   1.0000   1.0000   1.0000   1.0000   1.0000   1.0000
     1.0000   1.0000   1.0000   1.0000   1.0000   1.0000   1.0000   1.0000
     1.0000   1.0000   1.0000   1.0000   1.0000   1.0000   1.0000   1.0000
     1.0000   1.0000   1.0000   1.0000   1.0000   1.0000   1.0000   1.0000
     1.0000   1.0000   1.0000   1.0000   1.0000   1.0000   1.0000   1.0000
     1.0000   1.0000   1.0000   1.0000   1.0000   1.0000   1.0000   1.0000
     1.0000   1.0000   1.0000   1.0000   1.0000   1.0000   1.0000   1.0000
     1.0000   1.0000   1.0000   1.0000   1.0000   1.0000   1.0000   1.0000
     1.0000   1.0000   1.0000   1.0000   1.0000   1.0000   1.0000   1.0000

          k =-0.5000-0.5000-0.3194 ( 29216 PWs)   bands (ev):

   -35.2089 -35.2089 -35.2089 -35.2089 -35.2089 -35.2089 -35.2089 -35.2089
   -35.2069 -35.2069 -35.2069 -35.2069 -35.2069 -35.2069 -35.2069 -35.2069
   -35.2019 -35.2019 -35.2019 -35.2019 -35.2019 -35.2019 -35.2019 -35.2019
   -35.2019 -35.2019 -35.2019 -35.2019 -35.2019 -35.2019 -35.2019 -35.2019
   -35.1978 -35.1978 -35.1978 -35.1978 -35.1978 -35.1978 -35.1978 -35.1978
   -11.8809 -11.8809 -11.8809 -11.8809 -11.8809 -11.8809 -11.8809 -11.8809
   -11.7764 -11.7764 -11.7764 -11.7764 -11.7764 -11.7764 -11.7764 -11.7764
   -11.6959 -11.6959 -11.6959 -11.6959 -11.6959 -11.6959 -11.6959 -11.6959
   -11.6687 -11.6687 -11.6687 -11.6687 -11.6687 -11.6687 -11.6687 -11.6687
   -11.6636 -11.6636 -11.6636 -11.6636 -11.6636 -11.6636 -11.6636 -11.6636
   -11.6474 -11.6474 -11.6474 -11.6474 -11.6474 -11.6474 -11.6474 -11.6474
   -11.6345 -11.6345 -11.6345 -11.6345 -11.6345 -11.6345 -11.6345 -11.6345
   -11.6163 -11.6163 -11.6163 -11.6163 -11.6163 -11.6163 -11.6163 -11.6163
   -11.6160 -11.6160 -11.6160 -11.6160 -11.6160 -11.6160 -11.6160 -11.6160
   -11.6101 -11.6101 -11.6101 -11.6101 -11.6101 -11.6101 -11.6101 -11.6101
    -7.6796  -7.6796  -7.6796  -7.6796  -7.6796  -7.6796  -7.6796  -7.6796
    -6.2666  -6.2666  -6.2666  -6.2666  -6.2666  -6.2666  -6.2666  -6.2666
    -0.9559  -0.9559  -0.9559  -0.9559  -0.9559  -0.9559  -0.9559  -0.9559
     0.4592   0.4592   0.4592   0.4592   0.4593   0.4593   0.4593   0.4593
     1.6682   1.6682   1.6682   1.6682   1.6682   1.6682   1.6682   1.6682
     5.1034   5.1034   5.1034   5.1034   5.1034   5.1034   5.1034   5.1034
     6.6074   6.6074   6.6074   6.6074   6.6074   6.6074   6.6074   6.6074
     6.7426   6.7426   6.7426   6.7426   6.7426   6.7426   6.7426   6.7426
     7.0429   7.0429   7.0429   7.0429   7.0429   7.0429   7.0429   7.0429
     8.4985   8.4985   8.4985   8.4985   8.4985   8.4985   8.4985   8.4985
     9.0339   9.0339   9.0339   9.0339   9.0339   9.0339   9.0339   9.0339
     9.3415   9.3415   9.3415   9.3415   9.3415   9.3415   9.3415   9.3415
     9.8443   9.8443   9.8443   9.8443   9.8443   9.8443   9.8443   9.8443
    10.7107  10.7107  10.7107  10.7107  10.7108  10.7108  10.7108  10.7108

     occupation numbers 
     1.0000   1.0000   1.0000   1.0000   1.0000   1.0000   1.0000   1.0000
     1.0000   1.0000   1.0000   1.0000   1.0000   1.0000   1.0000   1.0000
     1.0000   1.0000   1.0000   1.0000   1.0000   1.0000   1.0000   1.0000
     1.0000   1.0000   1.0000   1.0000   1.0000   1.0000   1.0000   1.0000
     1.0000   1.0000   1.0000   1.0000   1.0000   1.0000   1.0000   1.0000
     1.0000   1.0000   1.0000   1.0000   1.0000   1.0000   1.0000   1.0000
     1.0000   1.0000   1.0000   1.0000   1.0000   1.0000   1.0000   1.0000
     1.0000   1.0000   1.0000   1.0000   1.0000   1.0000   1.0000   1.0000
     1.0000   1.0000   1.0000   1.0000   1.0000   1.0000   1.0000   1.0000
     1.0000   1.0000   1.0000   1.0000   1.0000   1.0000   1.0000   1.0000
     1.0000   1.0000   1.0000   1.0000   1.0000   1.0000   1.0000   1.0000
     1.0000   1.0000   1.0000   1.0000   1.0000   1.0000   1.0000   1.0000
     1.0000   1.0000   1.0000   1.0000   1.0000   1.0000   1.0000   1.0000
     1.0000   1.0000   1.0000   1.0000   1.0000   1.0000   1.0000   1.0000
     1.0000   1.0000   1.0000   1.0000   1.0000   1.0000   1.0000   1.0000
     1.0000   1.0000   1.0000   1.0000   1.0000   1.0000   1.0000   1.0000
     1.0000   1.0000   1.0000   1.0000   1.0000   1.0000   1.0000   1.0000
     1.0000   1.0000   1.0000   1.0000   1.0000   1.0000   1.0000   1.0000
     1.0000   1.0000   1.0000   1.0000   1.0000   1.0000   1.0000   1.0000
     1.0000   1.0000   1.0000   1.0000   1.0000   1.0000   1.0000   1.0000
     1.0000   1.0000   1.0000   1.0000   1.0000   1.0000   1.0000   1.0000
     1.0000   1.0000   1.0000   1.0000   1.0000   1.0000   1.0000   1.0000
     1.0000   1.0000   1.0000   1.0000   1.0000   1.0000   1.0000   1.0000
     1.0000   1.0000   1.0000   1.0000   1.0000   1.0000   1.0000   1.0000
     1.0000   1.0000   1.0000   1.0000   1.0000   1.0000   1.0000   1.0000
     1.0000   1.0000   1.0000   1.0000   1.0000   1.0000   1.0000   1.0000
     1.0000   1.0000   1.0000   1.0000   1.0000   1.0000   1.0000   1.0000
     1.0000   1.0000   1.0000   1.0000   1.0000   1.0000   1.0000   1.0000
     1.0000   1.0000   1.0000   1.0000   1.0000   1.0000   1.0000   1.0000

     highest occupied level (ev):    10.9978

!    total energy              =  -18167.90900378 Ry
     total all-electron energy =   -730063.174279 Ry
     estimated scf accuracy    <          2.9E-09 Ry

     The total energy is the sum of the following terms:
     one-electron contribution =   -2204.40686321 Ry
     hartree contribution      =    1416.76558839 Ry
     xc contribution           =    -859.33643535 Ry
     ewald contribution        =   -3342.57262766 Ry
     one-center paw contrib.   =  -13178.35866595 Ry
      -> PAW hartree energy AE =     108.64497513 Ry
      -> PAW hartree energy PS =    -108.35027437 Ry
      -> PAW xc energy AE      =    -777.02573584 Ry
      -> PAW xc energy PS      =      31.22409190 Ry
      -> total E_H with PAW    =    1417.06028914 Ry
      -> total E_XC with PAW   =   -1605.13807929 Ry

     convergence has been achieved in  28 iterations

     Forces acting on atoms (cartesian axes, Ry/au):

     atom    1 type  1   force =     0.00000000    0.00000000    0.00010743
     atom    2 type  1   force =     0.00000000    0.00000000   -0.00010743
     atom    3 type  1   force =    -0.00000011   -0.00000011    0.00010755
     atom    4 type  1   force =    -0.00000011   -0.00000011   -0.00010755
     atom    5 type  1   force =     0.00000000    0.00000000    0.00010745
     atom    6 type  1   force =     0.00000000    0.00000000   -0.00010745
     atom    7 type  1   force =     0.00000000    0.00000000    0.00010745
     atom    8 type  1   force =     0.00000000    0.00000000   -0.00010745
     atom    9 type  1   force =    -0.00000011    0.00000011    0.00010755
     atom   10 type  1   force =    -0.00000011    0.00000011   -0.00010755
     atom   11 type  1   force =     0.00000011   -0.00000011    0.00010755
     atom   12 type  1   force =     0.00000011   -0.00000011   -0.00010755
     atom   13 type  1   force =     0.00000000    0.00000000    0.00010750
     atom   14 type  1   force =     0.00000000    0.00000000   -0.00010750
     atom   15 type  1   force =     0.00000011    0.00000011    0.00010755
     atom   16 type  1   force =     0.00000011    0.00000011   -0.00010755
     atom   17 type  3   force =     0.00000000    0.00000000    0.00000000
     atom   18 type  3   force =    -0.00000130   -0.00000130    0.00000000
     atom   19 type  3   force =     0.00000000    0.00000000    0.00000000
     atom   20 type  3   force =     0.00000000    0.00000000    0.00000000
     atom   21 type  3   force =    -0.00000130    0.00000130    0.00000000
     atom   22 type  3   force =     0.00000130   -0.00000130    0.00000000
     atom   23 type  3   force =     0.00000000    0.00000000    0.00000000
     atom   24 type  3   force =     0.00000130    0.00000130    0.00000000
     atom   25 type  2   force =     0.00000000   -0.00000006    0.00000022
     atom   26 type  2   force =     0.00000000    0.00000006   -0.00000022
     atom   27 type  2   force =     0.00000000    0.00000006    0.00000022
     atom   28 type  2   force =     0.00000000   -0.00000006   -0.00000022
     atom   29 type  2   force =     0.00000006    0.00000000    0.00000022
     atom   30 type  2   force =    -0.00000006    0.00000000   -0.00000022
     atom   31 type  2   force =    -0.00000006    0.00000000    0.00000022
     atom   32 type  2   force =     0.00000006    0.00000000   -0.00000022
     atom   33 type  2   force =    -0.00000005    0.00000000   -0.00000022
     atom   34 type  2   force =    -0.00000005    0.00000000    0.00000022
     atom   35 type  2   force =     0.00000000   -0.00000005    0.00000022
     atom   36 type  2   force =     0.00000000   -0.00000005   -0.00000022
     atom   37 type  2   force =     0.00000000    0.00000005    0.00000022
     atom   38 type  2   force =     0.00000000    0.00000005   -0.00000022
     atom   39 type  2   force =     0.00000005    0.00000000   -0.00000022
     atom   40 type  2   force =     0.00000005    0.00000000    0.00000022
     The non-local contrib.  to forces
     atom    1 type  1   force =     0.00000000    0.00000000   -0.33913516
     atom    2 type  1   force =     0.00000000    0.00000000    0.33913516
     atom    3 type  1   force =     0.00000000    0.00000000   -0.33913626
     atom    4 type  1   force =     0.00000000    0.00000000    0.33913626
     atom    5 type  1   force =     0.00000000    0.00000000   -0.33913498
     atom    6 type  1   force =     0.00000000    0.00000000    0.33913498
     atom    7 type  1   force =     0.00000000    0.00000000   -0.33913498
     atom    8 type  1   force =     0.00000000    0.00000000    0.33913498
     atom    9 type  1   force =     0.00000000   -0.00000000   -0.33913626
     atom   10 type  1   force =     0.00000000   -0.00000000    0.33913626
     atom   11 type  1   force =    -0.00000000    0.00000000   -0.33913626
     atom   12 type  1   force =    -0.00000000    0.00000000    0.33913626
     atom   13 type  1   force =     0.00000000    0.00000000   -0.33913482
     atom   14 type  1   force =     0.00000000    0.00000000    0.33913482
     atom   15 type  1   force =    -0.00000000   -0.00000000   -0.33913626
     atom   16 type  1   force =    -0.00000000   -0.00000000    0.33913626
     atom   17 type  3   force =     0.00000000    0.00000000    0.00000000
     atom   18 type  3   force =    -0.00000101   -0.00000101    0.00000000
     atom   19 type  3   force =     0.00000000    0.00000000    0.00000000
     atom   20 type  3   force =     0.00000000    0.00000000    0.00000000
     atom   21 type  3   force =    -0.00000101    0.00000101    0.00000000
     atom   22 type  3   force =     0.00000101   -0.00000101    0.00000000
     atom   23 type  3   force =     0.00000000    0.00000000    0.00000000
     atom   24 type  3   force =     0.00000101    0.00000101    0.00000000
     atom   25 type  2   force =     0.00000000   -0.00000007    0.00000245
     atom   26 type  2   force =     0.00000000    0.00000007   -0.00000245
     atom   27 type  2   force =     0.00000000    0.00000007    0.00000245
     atom   28 type  2   force =     0.00000000   -0.00000007   -0.00000245
     atom   29 type  2   force =     0.00000007    0.00000000    0.00000245
     atom   30 type  2   force =    -0.00000007    0.00000000   -0.00000245
     atom   31 type  2   force =    -0.00000007    0.00000000    0.00000245
     atom   32 type  2   force =     0.00000007    0.00000000   -0.00000245
     atom   33 type  2   force =    -0.00000005    0.00000000   -0.00000180
     atom   34 type  2   force =    -0.00000005    0.00000000    0.00000180
     atom   35 type  2   force =     0.00000000   -0.00000005    0.00000180
     atom   36 type  2   force =     0.00000000   -0.00000005   -0.00000180
     atom   37 type  2   force =     0.00000000    0.00000005    0.00000180
     atom   38 type  2   force =     0.00000000    0.00000005   -0.00000180
     atom   39 type  2   force =     0.00000005    0.00000000   -0.00000180
     atom   40 type  2   force =     0.00000005    0.00000000    0.00000180
     The ionic contribution  to forces
     atom    1 type  1   force =    -0.00000000   -0.00000000    8.66266230
     atom    2 type  1   force =     0.00000000    0.00000000   -8.66266230
     atom    3 type  1   force =    -0.00000934   -0.00000934    8.66269526
     atom    4 type  1   force =    -0.00000934   -0.00000934   -8.66269526
     atom    5 type  1   force =    -0.00000000   -0.00000000    8.66265523
     atom    6 type  1   force =    -0.00000000    0.00000000   -8.66265523
     atom    7 type  1   force =    -0.00000000    0.00000000    8.66265523
     atom    8 type  1   force =     0.00000000   -0.00000000   -8.66265523
     atom    9 type  1   force =    -0.00000934    0.00000934    8.66269526
     atom   10 type  1   force =    -0.00000934    0.00000934   -8.66269526
     atom   11 type  1   force =     0.00000934   -0.00000934    8.66269526
     atom   12 type  1   force =     0.00000934   -0.00000934   -8.66269526
     atom   13 type  1   force =     0.00000000   -0.00000000    8.66264707
     atom   14 type  1   force =    -0.00000000    0.00000000   -8.66264707
     atom   15 type  1   force =     0.00000934    0.00000934    8.66269526
     atom   16 type  1   force =     0.00000934    0.00000934   -8.66269526
     atom   17 type  3   force =    -0.00000000   -0.00000000   -0.00000000
     atom   18 type  3   force =    -0.00001812   -0.00001812    0.00000000
     atom   19 type  3   force =    -0.00000000    0.00000000   -0.00000000
     atom   20 type  3   force =     0.00000000   -0.00000000   -0.00000000
     atom   21 type  3   force =    -0.00001812    0.00001812    0.00000000
     atom   22 type  3   force =     0.00001812   -0.00001812    0.00000000
     atom   23 type  3   force =     0.00000000    0.00000000   -0.00000000
     atom   24 type  3   force =     0.00001812    0.00001812    0.00000000
     atom   25 type  2   force =    -0.00000000   -0.00000447   -0.00000733
     atom   26 type  2   force =     0.00000000    0.00000447    0.00000733
     atom   27 type  2   force =    -0.00000000    0.00000447   -0.00000733
     atom   28 type  2   force =     0.00000000   -0.00000447    0.00000733
     atom   29 type  2   force =     0.00000447   -0.00000000   -0.00000733
     atom   30 type  2   force =    -0.00000447   -0.00000000    0.00000733
     atom   31 type  2   force =    -0.00000447   -0.00000000   -0.00000733
     atom   32 type  2   force =     0.00000447    0.00000000    0.00000733
     atom   33 type  2   force =    -0.00000413    0.00000000    0.00000574
     atom   34 type  2   force =    -0.00000413    0.00000000   -0.00000574
     atom   35 type  2   force =     0.00000000   -0.00000413   -0.00000574
     atom   36 type  2   force =     0.00000000   -0.00000413    0.00000574
     atom   37 type  2   force =    -0.00000000    0.00000413   -0.00000574
     atom   38 type  2   force =     0.00000000    0.00000413    0.00000574
     atom   39 type  2   force =     0.00000413    0.00000000    0.00000574
     atom   40 type  2   force =     0.00000413   -0.00000000   -0.00000574
     The local contribution  to forces
     atom    1 type  1   force =    -0.00000000   -0.00000000   -8.33564713
     atom    2 type  1   force =     0.00000000    0.00000000    8.33564713
     atom    3 type  1   force =     0.00000664    0.00000664   -8.33570376
     atom    4 type  1   force =     0.00000664    0.00000664    8.33570376
     atom    5 type  1   force =     0.00000000    0.00000000   -8.33563633
     atom    6 type  1   force =    -0.00000000   -0.00000000    8.33563633
     atom    7 type  1   force =     0.00000000   -0.00000000   -8.33563633
     atom    8 type  1   force =     0.00000000    0.00000000    8.33563633
     atom    9 type  1   force =     0.00000664   -0.00000664   -8.33570376
     atom   10 type  1   force =     0.00000664   -0.00000664    8.33570376
     atom   11 type  1   force =    -0.00000664    0.00000664   -8.33570376
     atom   12 type  1   force =    -0.00000664    0.00000664    8.33570376
     atom   13 type  1   force =     0.00000000   -0.00000000   -8.33562476
     atom   14 type  1   force =    -0.00000000    0.00000000    8.33562476
     atom   15 type  1   force =    -0.00000664   -0.00000664   -8.33570376
     atom   16 type  1   force =    -0.00000664   -0.00000664    8.33570376
     atom   17 type  3   force =     0.00000000    0.00000000    0.00000000
     atom   18 type  3   force =     0.00002015    0.00002015    0.00000000
     atom   19 type  3   force =     0.00000000    0.00000000    0.00000000
     atom   20 type  3   force =     0.00000000    0.00000000    0.00000000
     atom   21 type  3   force =     0.00002015   -0.00002015    0.00000000
     atom   22 type  3   force =    -0.00002015    0.00002015    0.00000000
     atom   23 type  3   force =     0.00000000    0.00000000    0.00000000
     atom   24 type  3   force =    -0.00002015   -0.00002015    0.00000000
     atom   25 type  2   force =     0.00000000    0.00000427    0.00001036
     atom   26 type  2   force =    -0.00000000   -0.00000427   -0.00001036
     atom   27 type  2   force =     0.00000000   -0.00000427    0.00001036
     atom   28 type  2   force =    -0.00000000    0.00000427   -0.00001036
     atom   29 type  2   force =    -0.00000427   -0.00000000    0.00001036
     atom   30 type  2   force =     0.00000427    0.00000000   -0.00001036
     atom   31 type  2   force =     0.00000427    0.00000000    0.00001036
     atom   32 type  2   force =    -0.00000427    0.00000000   -0.00001036
     atom   33 type  2   force =     0.00000416    0.00000000   -0.00001039
     atom   34 type  2   force =     0.00000416    0.00000000    0.00001039
     atom   35 type  2   force =     0.00000000    0.00000416    0.00001039
     atom   36 type  2   force =     0.00000000    0.00000416   -0.00001039
     atom   37 type  2   force =     0.00000000   -0.00000416    0.00001039
     atom   38 type  2   force =     0.00000000   -0.00000416   -0.00001039
     atom   39 type  2   force =    -0.00000416    0.00000000   -0.00001039
     atom   40 type  2   force =    -0.00000416    0.00000000    0.00001039
     The core correction contribution to forces
     atom    1 type  1   force =    -0.00000000    0.00000000    0.01228643
     atom    2 type  1   force =     0.00000000   -0.00000000   -0.01228643
     atom    3 type  1   force =    -0.00000001   -0.00000001    0.01228622
     atom    4 type  1   force =    -0.00000001   -0.00000001   -0.01228622
     atom    5 type  1   force =     0.00000000   -0.00000000    0.01228644
     atom    6 type  1   force =    -0.00000000    0.00000000   -0.01228644
     atom    7 type  1   force =     0.00000000   -0.00000000    0.01228644
     atom    8 type  1   force =     0.00000000    0.00000000   -0.01228644
     atom    9 type  1   force =    -0.00000001    0.00000001    0.01228622
     atom   10 type  1   force =    -0.00000001    0.00000001   -0.01228622
     atom   11 type  1   force =     0.00000001   -0.00000001    0.01228622
     atom   12 type  1   force =     0.00000001   -0.00000001   -0.01228622
     atom   13 type  1   force =     0.00000000   -0.00000000    0.01228645
     atom   14 type  1   force =    -0.00000000    0.00000000   -0.01228645
     atom   15 type  1   force =     0.00000001    0.00000001    0.01228622
     atom   16 type  1   force =     0.00000001    0.00000001   -0.01228622
     atom   17 type  3   force =     0.00000000    0.00000000    0.00000000
     atom   18 type  3   force =     0.00000000    0.00000000    0.00000000
     atom   19 type  3   force =    -0.00000000    0.00000000    0.00000000
     atom   20 type  3   force =     0.00000000    0.00000000    0.00000000
     atom   21 type  3   force =     0.00000000   -0.00000000    0.00000000
     atom   22 type  3   force =    -0.00000000    0.00000000    0.00000000
     atom   23 type  3   force =     0.00000000    0.00000000    0.00000000
     atom   24 type  3   force =    -0.00000000   -0.00000000    0.00000000
     atom   25 type  2   force =    -0.00000000    0.00000000   -0.00000003
     atom   26 type  2   force =     0.00000000   -0.00000000    0.00000003
     atom   27 type  2   force =     0.00000000   -0.00000000   -0.00000003
     atom   28 type  2   force =    -0.00000000    0.00000000    0.00000003
     atom   29 type  2   force =    -0.00000000   -0.00000000   -0.00000003
     atom   30 type  2   force =     0.00000000    0.00000000    0.00000003
     atom   31 type  2   force =     0.00000000    0.00000000   -0.00000003
     atom   32 type  2   force =    -0.00000000   -0.00000000    0.00000003
     atom   33 type  2   force =     0.00000000    0.00000000    0.00000003
     atom   34 type  2   force =     0.00000000   -0.00000000   -0.00000003
     atom   35 type  2   force =     0.00000000    0.00000000   -0.00000003
     atom   36 type  2   force =     0.00000000    0.00000000    0.00000003
     atom   37 type  2   force =     0.00000000   -0.00000000   -0.00000003
     atom   38 type  2   force =    -0.00000000   -0.00000000    0.00000003
     atom   39 type  2   force =    -0.00000000    0.00000000    0.00000003
     atom   40 type  2   force =    -0.00000000   -0.00000000   -0.00000003
     The Hubbard contrib.    to forces
     atom    1 type  1   force =     0.00000000    0.00000000    0.00000000
     atom    2 type  1   force =     0.00000000    0.00000000    0.00000000
     atom    3 type  1   force =     0.00000000    0.00000000    0.00000000
     atom    4 type  1   force =     0.00000000    0.00000000    0.00000000
     atom    5 type  1   force =     0.00000000    0.00000000    0.00000000
     atom    6 type  1   force =     0.00000000    0.00000000    0.00000000
     atom    7 type  1   force =     0.00000000    0.00000000    0.00000000
     atom    8 type  1   force =     0.00000000    0.00000000    0.00000000
     atom    9 type  1   force =     0.00000000    0.00000000    0.00000000
     atom   10 type  1   force =     0.00000000    0.00000000    0.00000000
     atom   11 type  1   force =     0.00000000    0.00000000    0.00000000
     atom   12 type  1   force =     0.00000000    0.00000000    0.00000000
     atom   13 type  1   force =     0.00000000    0.00000000    0.00000000
     atom   14 type  1   force =     0.00000000    0.00000000    0.00000000
     atom   15 type  1   force =     0.00000000    0.00000000    0.00000000
     atom   16 type  1   force =     0.00000000    0.00000000    0.00000000
     atom   17 type  3   force =     0.00000000    0.00000000    0.00000000
     atom   18 type  3   force =     0.00000000    0.00000000    0.00000000
     atom   19 type  3   force =     0.00000000    0.00000000    0.00000000
     atom   20 type  3   force =     0.00000000    0.00000000    0.00000000
     atom   21 type  3   force =     0.00000000    0.00000000    0.00000000
     atom   22 type  3   force =     0.00000000    0.00000000    0.00000000
     atom   23 type  3   force =     0.00000000    0.00000000    0.00000000
     atom   24 type  3   force =     0.00000000    0.00000000    0.00000000
     atom   25 type  2   force =     0.00000000    0.00000000    0.00000000
     atom   26 type  2   force =     0.00000000    0.00000000    0.00000000
     atom   27 type  2   force =     0.00000000    0.00000000    0.00000000
     atom   28 type  2   force =     0.00000000    0.00000000    0.00000000
     atom   29 type  2   force =     0.00000000    0.00000000    0.00000000
     atom   30 type  2   force =     0.00000000    0.00000000    0.00000000
     atom   31 type  2   force =     0.00000000    0.00000000    0.00000000
     atom   32 type  2   force =     0.00000000    0.00000000    0.00000000
     atom   33 type  2   force =     0.00000000    0.00000000    0.00000000
     atom   34 type  2   force =     0.00000000    0.00000000    0.00000000
     atom   35 type  2   force =     0.00000000    0.00000000    0.00000000
     atom   36 type  2   force =     0.00000000    0.00000000    0.00000000
     atom   37 type  2   force =     0.00000000    0.00000000    0.00000000
     atom   38 type  2   force =     0.00000000    0.00000000    0.00000000
     atom   39 type  2   force =     0.00000000    0.00000000    0.00000000
     atom   40 type  2   force =     0.00000000    0.00000000    0.00000000
     The SCF correction term to forces
     atom    1 type  1   force =     0.00000000    0.00000000   -0.00005900
     atom    2 type  1   force =    -0.00000000   -0.00000000    0.00005900
     atom    3 type  1   force =     0.00000259    0.00000259   -0.00003392
     atom    4 type  1   force =     0.00000259    0.00000259    0.00003392
     atom    5 type  1   force =    -0.00000000    0.00000000   -0.00006291
     atom    6 type  1   force =     0.00000000   -0.00000000    0.00006291
     atom    7 type  1   force =     0.00000000    0.00000000   -0.00006291
     atom    8 type  1   force =    -0.00000000   -0.00000000    0.00006291
     atom    9 type  1   force =     0.00000259   -0.00000259   -0.00003392
     atom   10 type  1   force =     0.00000259   -0.00000259    0.00003392
     atom   11 type  1   force =    -0.00000259    0.00000259   -0.00003392
     atom   12 type  1   force =    -0.00000259    0.00000259    0.00003392
     atom   13 type  1   force =    -0.00000000    0.00000000   -0.00006644
     atom   14 type  1   force =    -0.00000000    0.00000000    0.00006644
     atom   15 type  1   force =    -0.00000259   -0.00000259   -0.00003392
     atom   16 type  1   force =    -0.00000259   -0.00000259    0.00003392
     atom   17 type  3   force =    -0.00000000   -0.00000000    0.00000000
     atom   18 type  3   force =    -0.00000232   -0.00000232    0.00000000
     atom   19 type  3   force =    -0.00000000    0.00000000    0.00000000
     atom   20 type  3   force =    -0.00000000   -0.00000000    0.00000000
     atom   21 type  3   force =    -0.00000232    0.00000232    0.00000000
     atom   22 type  3   force =     0.00000232   -0.00000232    0.00000000
     atom   23 type  3   force =    -0.00000000   -0.00000000    0.00000000
     atom   24 type  3   force =     0.00000232    0.00000232    0.00000000
     atom   25 type  2   force =     0.00000000    0.00000020   -0.00000522
     atom   26 type  2   force =     0.00000000   -0.00000020    0.00000522
     atom   27 type  2   force =    -0.00000000   -0.00000020   -0.00000522
     atom   28 type  2   force =     0.00000000    0.00000020    0.00000522
     atom   29 type  2   force =    -0.00000020    0.00000000   -0.00000522
     atom   30 type  2   force =     0.00000020    0.00000000    0.00000522
     atom   31 type  2   force =     0.00000020    0.00000000   -0.00000522
     atom   32 type  2   force =    -0.00000020    0.00000000    0.00000522
     atom   33 type  2   force =    -0.00000003   -0.00000000    0.00000621
     atom   34 type  2   force =    -0.00000003   -0.00000000   -0.00000621
     atom   35 type  2   force =    -0.00000000   -0.00000003   -0.00000621
     atom   36 type  2   force =     0.00000000   -0.00000003    0.00000621
     atom   37 type  2   force =    -0.00000000    0.00000003   -0.00000621
     atom   38 type  2   force =     0.00000000    0.00000003    0.00000621
     atom   39 type  2   force =     0.00000003   -0.00000000    0.00000621
     atom   40 type  2   force =     0.00000003   -0.00000000   -0.00000621

     Total force =     0.000430     Total SCF correction =     0.000204
     SCF correction compared to forces is large: reduce conv_thr to get better values


     Computing stress (Cartesian axis) and pressure

          total   stress  (Ry/bohr**3)                   (kbar)     P=        0.05
   0.00000193   0.00000000   0.00000000            0.28        0.00        0.00
   0.00000000   0.00000193   0.00000000            0.00        0.28        0.00
   0.00000000   0.00000000  -0.00000291            0.00        0.00       -0.43

     kinetic stress (kbar)  31079.80      0.00      0.00
                                0.00  31079.80      0.00
                                0.00      0.00  31059.26

     local   stress (kbar)     49.72     -0.00      0.00
                               -0.00     49.72      0.00
                                0.00      0.00   5540.05

     nonloc. stress (kbar)  -6891.37      0.00      0.00
                                0.00  -6891.37      0.00
                                0.00      0.00  -6891.64

     hartree stress (kbar)  14964.10     -0.00      0.00
                               -0.00  14964.10      0.00
                                0.00      0.00  12717.47

     exc-cor stress (kbar)    905.95      0.00      0.00
                                0.00    905.95     -0.00
                                0.00     -0.00    904.83

     corecor stress (kbar)  -7644.32     -0.00      0.00
                               -0.00  -7644.32     -0.00
                                0.00     -0.00  -7643.72

     ewald   stress (kbar) -32463.60     -0.00     -0.00
                               -0.00 -32463.60     -0.00
                               -0.00     -0.00 -35686.67

     hubbard stress (kbar)      0.00      0.00      0.00
                                0.00      0.00      0.00
                                0.00      0.00      0.00

     DFT-D   stress (kbar)      0.00      0.00      0.00
                                0.00      0.00      0.00
                                0.00      0.00      0.00

     XDM     stress (kbar)      0.00      0.00      0.00
                                0.00      0.00      0.00
                                0.00      0.00      0.00

     dft-nl  stress (kbar)      0.00      0.00      0.00
                                0.00      0.00      0.00
                                0.00      0.00      0.00

     TS-vdW  stress (kbar)      0.00      0.00      0.00
                                0.00      0.00      0.00
                                0.00      0.00      0.00

     MDB     stress (kbar)      0.00      0.00      0.00
                                0.00      0.00      0.00
                                0.00      0.00      0.00

     3D-RISM stress (kbar)      0.00      0.00      0.00
                                0.00      0.00      0.00
                                0.00      0.00      0.00


     BFGS Geometry Optimization
     Energy error            =      0.0E+00 Ry
     Gradient error          =      1.1E-04 Ry/Bohr
     Cell gradient error     =      4.3E-01 kbar

     bfgs converged in   1 scf cycles and   0 bfgs steps
     (criteria: energy <  1.0E-04 Ry, force <  1.0E-02 Ry/Bohr, cell <  5.0E-01 kbar)

     End of BFGS Geometry Optimization

     Final enthalpy           =  -18167.9090037767 Ry
Begin final coordinates
     new unit-cell volume =   4887.09404 a.u.^3 (   724.19262 Ang^3 )
     density =      9.70230 g/cm^3

CELL_PARAMETERS (angstrom)
   7.733817352   0.000000000   0.000000000
   0.000000000   7.733817352   0.000000000
   0.000000000   0.000000000  12.107828830

ATOMIC_POSITIONS (crystal)
Bi               0.0000000000        0.0000000000        0.3548936152
Bi               0.0000000000        0.0000000000        0.6451063848
Bi               0.2500000211        0.2500000211        0.8548935562
Bi               0.2500000211        0.2500000211        0.1451064438
Bi               0.0000000000        0.5000000000        0.3548936225
Bi               0.0000000000        0.5000000000        0.6451063775
Bi               0.5000000000        0.0000000000        0.3548936225
Bi               0.5000000000        0.0000000000        0.6451063775
Bi               0.2500000211        0.7499999789        0.8548935562
Bi               0.2500000211        0.7499999789        0.1451064438
Bi               0.7499999789        0.2500000211        0.8548935562
Bi               0.7499999789        0.2500000211        0.1451064438
Bi               0.5000000000        0.5000000000        0.3548936325
Bi               0.5000000000        0.5000000000        0.6451063675
Bi               0.7499999789        0.7499999789        0.8548935562
Bi               0.7499999789        0.7499999789        0.1451064438
Se               0.0000000000        0.0000000000        0.0000000000
Se               0.2500000507        0.2500000507        0.5000000000
Se               0.0000000000        0.5000000000        0.0000000000
Se               0.5000000000        0.0000000000        0.0000000000
Se               0.2500000507        0.7499999493        0.5000000000
Se               0.7499999493        0.2500000507        0.5000000000
Se               0.5000000000        0.5000000000        0.0000000000
Se               0.7499999493        0.7499999493        0.5000000000
O                0.0000000000        0.2500000186        0.2500000110
O                0.0000000000        0.7499999814        0.7499999890
O                0.0000000000        0.7499999814        0.2500000110
O                0.0000000000        0.2500000186        0.7499999890
O                0.7499999814        0.0000000000        0.2500000110
O                0.2500000186        0.0000000000        0.7499999890
O                0.2500000186        0.0000000000        0.2500000110
O                0.7499999814        0.0000000000        0.7499999890
O                0.2500000172        0.5000000000        0.7499999927
O                0.2500000172        0.5000000000        0.2500000073
O                0.5000000000        0.2500000172        0.2500000073
O                0.5000000000        0.2500000172        0.7499999927
O                0.5000000000        0.7499999828        0.2500000073
O                0.5000000000        0.7499999828        0.7499999927
O                0.7499999828        0.5000000000        0.7499999927
O                0.7499999828        0.5000000000        0.2500000073
End final coordinates



     Writing config-only to output data dir ./out/v.save/ :
     XML data file

     Final scf calculation at the relaxed structure.
     The G-vectors are recalculated for the final unit cell
     Results may differ from those at the preceding step.
 
     Parallelization info
     --------------------
     sticks:   dense  smooth     PW     G-vecs:    dense   smooth      PW
     Min         424     212     58                41245    14589    2092
     Max         426     214     59                41250    14594    2095
     Sum        6793    3397    941               659969   233475   33497
 
     Using Slab Decomposition
 


     bravais-lattice index     =            0
     lattice parameter (alat)  =      14.6148  a.u.
     unit-cell volume          =    4887.0940 (a.u.)^3
     number of atoms/cell      =           40
     number of atomic types    =            3
     number of electrons       =       464.00
     number of Kohn-Sham states=          232
     kinetic-energy cutoff     =      50.0000  Ry
     charge density cutoff     =     400.0000  Ry
     scf convergence threshold =      8.0E-09
     mixing beta               =       0.4000
     number of iterations used =            8  plain     mixing
     press convergence thresh. =      5.0E-01
     Exchange-correlation= SLA  PW   PSX  PSC
                           (   1   4  10   8   0   0   0)

     celldm(1)=  14.614797  celldm(2)=   0.000000  celldm(3)=   0.000000
     celldm(4)=   0.000000  celldm(5)=   0.000000  celldm(6)=   0.000000

     crystal axes: (cart. coord. in units of alat)
               a(1) = (   1.000000   0.000000   0.000000 )  
               a(2) = (   0.000000   1.000000   0.000000 )  
               a(3) = (   0.000000   0.000000   1.565570 )  

     reciprocal axes: (cart. coord. in units 2 pi/alat)
               b(1) = (  1.000000  0.000000  0.000000 )  
               b(2) = (  0.000000  1.000000  0.000000 )  
               b(3) = (  0.000000  0.000000  0.638745 )  


     PseudoPot. # 1 for Bi read from file:
     ./Bi.pbesol-dn-kjpaw_psl.1.0.0.UPF
     MD5 check sum: 7be8f0579536e02bffb20a5e6d7f8f09
     Pseudo is Projector augmented-wave + core cor, Zval = 15.0
     Generated using 'atomic' code by A. Dal Corso  v.7.5
     Shape of augmentation charge: PSQ
     Using radial grid of 1283 points,  6 beta functions with: 
                l(1) =   0
                l(2) =   0
                l(3) =   1
                l(4) =   1
                l(5) =   2
                l(6) =   2
     Q(r) pseudized with 0 coefficients 


     PseudoPot. # 2 for O  read from file:
     ./O.pbesol-n-kjpaw_psl.1.0.0.UPF
     MD5 check sum: 0da0a744fc221d9787b91fb8f66090a3
     Pseudo is Projector augmented-wave + core cor, Zval =  6.0
     Generated using 'atomic' code by A. Dal Corso  v.7.5
     Shape of augmentation charge: PSQ
     Using radial grid of 1095 points,  4 beta functions with: 
                l(1) =   0
                l(2) =   0
                l(3) =   1
                l(4) =   1
     Q(r) pseudized with 0 coefficients 


     PseudoPot. # 3 for Se read from file:
     ./Se.pbesol-dn-kjpaw_psl.1.0.0.UPF
     MD5 check sum: d41405d669a01b338432c3f197775ddd
     Pseudo is Projector augmented-wave + core cor, Zval = 16.0
     Generated using 'atomic' code by A. Dal Corso  v.7.5
     Shape of augmentation charge: PSQ
     Using radial grid of 1211 points,  6 beta functions with: 
                l(1) =   0
                l(2) =   0
                l(3) =   1
                l(4) =   1
                l(5) =   2
                l(6) =   2
     Q(r) pseudized with 0 coefficients 


     atomic species   valence    mass     pseudopotential
     Bi               15.00   208.98040     Bi( 1.00)
     O                 6.00    15.99940     O ( 1.00)
     Se               16.00    78.96000     Se( 1.00)

     16 Sym. Ops., with inversion, found


                                    s                        frac. trans.

      isym =  1     identity                                     

 cryst.   s( 1) = (     1          0          0      )
                  (     0          1          0      )
                  (     0          0          1      )

 cart.    s( 1) = (  1.0000000  0.0000000  0.0000000 )
                  (  0.0000000  1.0000000  0.0000000 )
                  (  0.0000000  0.0000000  1.0000000 )


      isym =  2     180 deg rotation - cart. axis [0,0,1]        

 cryst.   s( 2) = (    -1          0          0      )
                  (     0         -1          0      )
                  (     0          0          1      )

 cart.    s( 2) = ( -1.0000000  0.0000000  0.0000000 )
                  (  0.0000000 -1.0000000  0.0000000 )
                  (  0.0000000  0.0000000  1.0000000 )


      isym =  3     180 deg rotation - cart. axis [0,1,0]        

 cryst.   s( 3) = (    -1          0          0      )
                  (     0          1          0      )
                  (     0          0         -1      )

 cart.    s( 3) = ( -1.0000000  0.0000000  0.0000000 )
                  (  0.0000000  1.0000000  0.0000000 )
                  (  0.0000000  0.0000000 -1.0000000 )


      isym =  4     180 deg rotation - cart. axis [1,0,0]        

 cryst.   s( 4) = (     1          0          0      )
                  (     0         -1          0      )
                  (     0          0         -1      )

 cart.    s( 4) = (  1.0000000  0.0000000  0.0000000 )
                  (  0.0000000 -1.0000000  0.0000000 )
                  (  0.0000000  0.0000000 -1.0000000 )


      isym =  5     180 deg rotation - cart. axis [1,1,0]        

 cryst.   s( 5) = (     0          1          0      )
                  (     1          0          0      )
                  (     0          0         -1      )

 cart.    s( 5) = (  0.0000000  1.0000000  0.0000000 )
                  (  1.0000000  0.0000000  0.0000000 )
                  (  0.0000000  0.0000000 -1.0000000 )


      isym =  6     180 deg rotation - cart. axis [1,-1,0]       

 cryst.   s( 6) = (     0         -1          0      )
                  (    -1          0          0      )
                  (     0          0         -1      )

 cart.    s( 6) = (  0.0000000 -1.0000000  0.0000000 )
                  ( -1.0000000  0.0000000  0.0000000 )
                  (  0.0000000  0.0000000 -1.0000000 )


      isym =  7      90 deg rotation - cart. axis [0,0,-1]       

 cryst.   s( 7) = (     0         -1          0      )
                  (     1          0          0      )
                  (     0          0          1      )

 cart.    s( 7) = (  0.0000000  1.0000000  0.0000000 )
                  ( -1.0000000  0.0000000  0.0000000 )
                  (  0.0000000  0.0000000  1.0000000 )


      isym =  8      90 deg rotation - cart. axis [0,0,1]        

 cryst.   s( 8) = (     0          1          0      )
                  (    -1          0          0      )
                  (     0          0          1      )

 cart.    s( 8) = (  0.0000000 -1.0000000  0.0000000 )
                  (  1.0000000  0.0000000  0.0000000 )
                  (  0.0000000  0.0000000  1.0000000 )


      isym =  9     inversion                                    

 cryst.   s( 9) = (    -1          0          0      )
                  (     0         -1          0      )
                  (     0          0         -1      )

 cart.    s( 9) = ( -1.0000000  0.0000000  0.0000000 )
                  (  0.0000000 -1.0000000  0.0000000 )
                  (  0.0000000  0.0000000 -1.0000000 )


      isym = 10     inv. 180 deg rotation - cart. axis [0,0,1]   

 cryst.   s(10) = (     1          0          0      )
                  (     0          1          0      )
                  (     0          0         -1      )

 cart.    s(10) = (  1.0000000  0.0000000  0.0000000 )
                  (  0.0000000  1.0000000  0.0000000 )
                  (  0.0000000  0.0000000 -1.0000000 )


      isym = 11     inv. 180 deg rotation - cart. axis [0,1,0]   

 cryst.   s(11) = (     1          0          0      )
                  (     0         -1          0      )
                  (     0          0          1      )

 cart.    s(11) = (  1.0000000  0.0000000  0.0000000 )
                  (  0.0000000 -1.0000000  0.0000000 )
                  (  0.0000000  0.0000000  1.0000000 )


      isym = 12     inv. 180 deg rotation - cart. axis [1,0,0]   

 cryst.   s(12) = (    -1          0          0      )
                  (     0          1          0      )
                  (     0          0          1      )

 cart.    s(12) = ( -1.0000000  0.0000000  0.0000000 )
                  (  0.0000000  1.0000000  0.0000000 )
                  (  0.0000000  0.0000000  1.0000000 )


      isym = 13     inv. 180 deg rotation - cart. axis [1,1,0]   

 cryst.   s(13) = (     0         -1          0      )
                  (    -1          0          0      )
                  (     0          0          1      )

 cart.    s(13) = (  0.0000000 -1.0000000  0.0000000 )
                  ( -1.0000000  0.0000000  0.0000000 )
                  (  0.0000000  0.0000000  1.0000000 )


      isym = 14     inv. 180 deg rotation - cart. axis [1,-1,0]  

 cryst.   s(14) = (     0          1          0      )
                  (     1          0          0      )
                  (     0          0          1      )

 cart.    s(14) = (  0.0000000  1.0000000  0.0000000 )
                  (  1.0000000  0.0000000  0.0000000 )
                  (  0.0000000  0.0000000  1.0000000 )


      isym = 15     inv.  90 deg rotation - cart. axis [0,0,-1]  

 cryst.   s(15) = (     0          1          0      )
                  (    -1          0          0      )
                  (     0          0         -1      )

 cart.    s(15) = (  0.0000000 -1.0000000  0.0000000 )
                  (  1.0000000  0.0000000  0.0000000 )
                  (  0.0000000  0.0000000 -1.0000000 )


      isym = 16     inv.  90 deg rotation - cart. axis [0,0,1]   

 cryst.   s(16) = (     0         -1          0      )
                  (     1          0          0      )
                  (     0          0         -1      )

 cart.    s(16) = (  0.0000000  1.0000000  0.0000000 )
                  ( -1.0000000  0.0000000  0.0000000 )
                  (  0.0000000  0.0000000 -1.0000000 )


   Cartesian axes

     site n.     atom                  positions (alat units)
         1        Bi     tau(   1) = (   0.0000000   0.0000000   0.5556106  )
         2        Bi     tau(   2) = (   0.0000000   0.0000000   1.0099589  )
         3        Bi     tau(   3) = (   0.2500000   0.2500000   1.3383953  )
         4        Bi     tau(   4) = (   0.2500000   0.2500000   0.2271742  )
         5        Bi     tau(   5) = (   0.0000000   0.5000000   0.5556106  )
         6        Bi     tau(   6) = (   0.0000000   0.5000000   1.0099589  )
         7        Bi     tau(   7) = (   0.5000000   0.0000000   0.5556106  )
         8        Bi     tau(   8) = (   0.5000000   0.0000000   1.0099589  )
         9        Bi     tau(   9) = (   0.2500000   0.7500000   1.3383953  )
        10        Bi     tau(  10) = (   0.2500000   0.7500000   0.2271742  )
        11        Bi     tau(  11) = (   0.7500000   0.2500000   1.3383953  )
        12        Bi     tau(  12) = (   0.7500000   0.2500000   0.2271742  )
        13        Bi     tau(  13) = (   0.5000000   0.5000000   0.5556107  )
        14        Bi     tau(  14) = (   0.5000000   0.5000000   1.0099589  )
        15        Bi     tau(  15) = (   0.7500000   0.7500000   1.3383953  )
        16        Bi     tau(  16) = (   0.7500000   0.7500000   0.2271742  )
        17        Se     tau(  17) = (   0.0000000   0.0000000   0.0000000  )
        18        Se     tau(  18) = (   0.2500001   0.2500001   0.7827848  )
        19        Se     tau(  19) = (   0.0000000   0.5000000   0.0000000  )
        20        Se     tau(  20) = (   0.5000000   0.0000000   0.0000000  )
        21        Se     tau(  21) = (   0.2500001   0.7499999   0.7827848  )
        22        Se     tau(  22) = (   0.7499999   0.2500001   0.7827848  )
        23        Se     tau(  23) = (   0.5000000   0.5000000   0.0000000  )
        24        Se     tau(  24) = (   0.7499999   0.7499999   0.7827848  )
        25        O      tau(  25) = (   0.0000000   0.2500000   0.3913924  )
        26        O      tau(  26) = (   0.0000000   0.7500000   1.1741771  )
        27        O      tau(  27) = (   0.0000000   0.7500000   0.3913924  )
        28        O      tau(  28) = (   0.0000000   0.2500000   1.1741771  )
        29        O      tau(  29) = (   0.7500000   0.0000000   0.3913924  )
        30        O      tau(  30) = (   0.2500000   0.0000000   1.1741771  )
        31        O      tau(  31) = (   0.2500000   0.0000000   0.3913924  )
        32        O      tau(  32) = (   0.7500000   0.0000000   1.1741771  )
        33        O      tau(  33) = (   0.2500000   0.5000000   1.1741771  )
        34        O      tau(  34) = (   0.2500000   0.5000000   0.3913924  )
        35        O      tau(  35) = (   0.5000000   0.2500000   0.3913924  )
        36        O      tau(  36) = (   0.5000000   0.2500000   1.1741771  )
        37        O      tau(  37) = (   0.5000000   0.7500000   0.3913924  )
        38        O      tau(  38) = (   0.5000000   0.7500000   1.1741771  )
        39        O      tau(  39) = (   0.7500000   0.5000000   1.1741771  )
        40        O      tau(  40) = (   0.7500000   0.5000000   0.3913924  )

   Crystallographic axes

     site n.     atom                  positions (cryst. coord.)
         1        Bi     tau(   1) = (  0.0000000  0.0000000  0.3548936  )
         2        Bi     tau(   2) = (  0.0000000  0.0000000  0.6451064  )
         3        Bi     tau(   3) = (  0.2500000  0.2500000  0.8548936  )
         4        Bi     tau(   4) = (  0.2500000  0.2500000  0.1451064  )
         5        Bi     tau(   5) = (  0.0000000  0.5000000  0.3548936  )
         6        Bi     tau(   6) = (  0.0000000  0.5000000  0.6451064  )
         7        Bi     tau(   7) = (  0.5000000  0.0000000  0.3548936  )
         8        Bi     tau(   8) = (  0.5000000  0.0000000  0.6451064  )
         9        Bi     tau(   9) = (  0.2500000  0.7500000  0.8548936  )
        10        Bi     tau(  10) = (  0.2500000  0.7500000  0.1451064  )
        11        Bi     tau(  11) = (  0.7500000  0.2500000  0.8548936  )
        12        Bi     tau(  12) = (  0.7500000  0.2500000  0.1451064  )
        13        Bi     tau(  13) = (  0.5000000  0.5000000  0.3548936  )
        14        Bi     tau(  14) = (  0.5000000  0.5000000  0.6451064  )
        15        Bi     tau(  15) = (  0.7500000  0.7500000  0.8548936  )
        16        Bi     tau(  16) = (  0.7500000  0.7500000  0.1451064  )
        17        Se     tau(  17) = (  0.0000000  0.0000000  0.0000000  )
        18        Se     tau(  18) = (  0.2500001  0.2500001  0.5000000  )
        19        Se     tau(  19) = (  0.0000000  0.5000000  0.0000000  )
        20        Se     tau(  20) = (  0.5000000  0.0000000  0.0000000  )
        21        Se     tau(  21) = (  0.2500001  0.7499999  0.5000000  )
        22        Se     tau(  22) = (  0.7499999  0.2500001  0.5000000  )
        23        Se     tau(  23) = (  0.5000000  0.5000000  0.0000000  )
        24        Se     tau(  24) = (  0.7499999  0.7499999  0.5000000  )
        25        O      tau(  25) = (  0.0000000  0.2500000  0.2500000  )
        26        O      tau(  26) = (  0.0000000  0.7500000  0.7500000  )
        27        O      tau(  27) = (  0.0000000  0.7500000  0.2500000  )
        28        O      tau(  28) = (  0.0000000  0.2500000  0.7500000  )
        29        O      tau(  29) = (  0.7500000  0.0000000  0.2500000  )
        30        O      tau(  30) = (  0.2500000  0.0000000  0.7500000  )
        31        O      tau(  31) = (  0.2500000  0.0000000  0.2500000  )
        32        O      tau(  32) = (  0.7500000  0.0000000  0.7500000  )
        33        O      tau(  33) = (  0.2500000  0.5000000  0.7500000  )
        34        O      tau(  34) = (  0.2500000  0.5000000  0.2500000  )
        35        O      tau(  35) = (  0.5000000  0.2500000  0.2500000  )
        36        O      tau(  36) = (  0.5000000  0.2500000  0.7500000  )
        37        O      tau(  37) = (  0.5000000  0.7500000  0.2500000  )
        38        O      tau(  38) = (  0.5000000  0.7500000  0.7500000  )
        39        O      tau(  39) = (  0.7500000  0.5000000  0.7500000  )
        40        O      tau(  40) = (  0.7500000  0.5000000  0.2500000  )

     number of k points=    40
                       cart. coord. in units 2pi/alat
        k(    1) = (   0.0000000   0.0000000   0.0000000), wk =   0.0092593
        k(    2) = (   0.0000000   0.0000000   0.1064575), wk =   0.0185185
        k(    3) = (   0.0000000   0.0000000   0.2129151), wk =   0.0185185
        k(    4) = (   0.0000000   0.0000000  -0.3193726), wk =   0.0092593
        k(    5) = (   0.0000000   0.1666667   0.0000000), wk =   0.0370370
        k(    6) = (   0.0000000   0.1666667   0.1064575), wk =   0.0740741
        k(    7) = (   0.0000000   0.1666667   0.2129151), wk =   0.0740741
        k(    8) = (   0.0000000   0.1666667  -0.3193726), wk =   0.0370370
        k(    9) = (   0.0000000   0.3333333   0.0000000), wk =   0.0370370
        k(   10) = (   0.0000000   0.3333333   0.1064575), wk =   0.0740741
        k(   11) = (   0.0000000   0.3333333   0.2129151), wk =   0.0740741
        k(   12) = (   0.0000000   0.3333333  -0.3193726), wk =   0.0370370
        k(   13) = (   0.0000000  -0.5000000   0.0000000), wk =   0.0185185
        k(   14) = (   0.0000000  -0.5000000   0.1064575), wk =   0.0370370
        k(   15) = (   0.0000000  -0.5000000   0.2129151), wk =   0.0370370
        k(   16) = (   0.0000000  -0.5000000  -0.3193726), wk =   0.0185185
        k(   17) = (   0.1666667   0.1666667   0.0000000), wk =   0.0370370
        k(   18) = (   0.1666667   0.1666667   0.1064575), wk =   0.0740741
        k(   19) = (   0.1666667   0.1666667   0.2129151), wk =   0.0740741
        k(   20) = (   0.1666667   0.1666667  -0.3193726), wk =   0.0370370
        k(   21) = (   0.1666667   0.3333333   0.0000000), wk =   0.0740741
        k(   22) = (   0.1666667   0.3333333   0.1064575), wk =   0.1481481
        k(   23) = (   0.1666667   0.3333333   0.2129151), wk =   0.1481481
        k(   24) = (   0.1666667   0.3333333  -0.3193726), wk =   0.0740741
        k(   25) = (   0.1666667  -0.5000000   0.0000000), wk =   0.0370370
        k(   26) = (   0.1666667  -0.5000000   0.1064575), wk =   0.0740741
        k(   27) = (   0.1666667  -0.5000000   0.2129151), wk =   0.0740741
        k(   28) = (   0.1666667  -0.5000000  -0.3193726), wk =   0.0370370
        k(   29) = (   0.3333333   0.3333333   0.0000000), wk =   0.0370370
        k(   30) = (   0.3333333   0.3333333   0.1064575), wk =   0.0740741
        k(   31) = (   0.3333333   0.3333333   0.2129151), wk =   0.0740741
        k(   32) = (   0.3333333   0.3333333  -0.3193726), wk =   0.0370370
        k(   33) = (   0.3333333  -0.5000000   0.0000000), wk =   0.0370370
        k(   34) = (   0.3333333  -0.5000000   0.1064575), wk =   0.0740741
        k(   35) = (   0.3333333  -0.5000000   0.2129151), wk =   0.0740741
        k(   36) = (   0.3333333  -0.5000000  -0.3193726), wk =   0.0370370
        k(   37) = (  -0.5000000  -0.5000000   0.0000000), wk =   0.0092593
        k(   38) = (  -0.5000000  -0.5000000   0.1064575), wk =   0.0185185
        k(   39) = (  -0.5000000  -0.5000000   0.2129151), wk =   0.0185185
        k(   40) = (  -0.5000000  -0.5000000  -0.3193726), wk =   0.0092593

                       cryst. coord.
        k(    1) = (   0.0000000   0.0000000   0.0000000), wk =   0.0092593
        k(    2) = (   0.0000000   0.0000000   0.1666667), wk =   0.0185185
        k(    3) = (   0.0000000   0.0000000   0.3333333), wk =   0.0185185
        k(    4) = (   0.0000000   0.0000000  -0.5000000), wk =   0.0092593
        k(    5) = (   0.0000000   0.1666667   0.0000000), wk =   0.0370370
        k(    6) = (   0.0000000   0.1666667   0.1666667), wk =   0.0740741
        k(    7) = (   0.0000000   0.1666667   0.3333333), wk =   0.0740741
        k(    8) = (   0.0000000   0.1666667  -0.5000000), wk =   0.0370370
        k(    9) = (   0.0000000   0.3333333   0.0000000), wk =   0.0370370
        k(   10) = (   0.0000000   0.3333333   0.1666667), wk =   0.0740741
        k(   11) = (   0.0000000   0.3333333   0.3333333), wk =   0.0740741
        k(   12) = (   0.0000000   0.3333333  -0.5000000), wk =   0.0370370
        k(   13) = (   0.0000000  -0.5000000   0.0000000), wk =   0.0185185
        k(   14) = (   0.0000000  -0.5000000   0.1666667), wk =   0.0370370
        k(   15) = (   0.0000000  -0.5000000   0.3333333), wk =   0.0370370
        k(   16) = (   0.0000000  -0.5000000  -0.5000000), wk =   0.0185185
        k(   17) = (   0.1666667   0.1666667   0.0000000), wk =   0.0370370
        k(   18) = (   0.1666667   0.1666667   0.1666667), wk =   0.0740741
        k(   19) = (   0.1666667   0.1666667   0.3333333), wk =   0.0740741
        k(   20) = (   0.1666667   0.1666667  -0.5000000), wk =   0.0370370
        k(   21) = (   0.1666667   0.3333333   0.0000000), wk =   0.0740741
        k(   22) = (   0.1666667   0.3333333   0.1666667), wk =   0.1481481
        k(   23) = (   0.1666667   0.3333333   0.3333333), wk =   0.1481481
        k(   24) = (   0.1666667   0.3333333  -0.5000000), wk =   0.0740741
        k(   25) = (   0.1666667  -0.5000000   0.0000000), wk =   0.0370370
        k(   26) = (   0.1666667  -0.5000000   0.1666667), wk =   0.0740741
        k(   27) = (   0.1666667  -0.5000000   0.3333333), wk =   0.0740741
        k(   28) = (   0.1666667  -0.5000000  -0.5000000), wk =   0.0370370
        k(   29) = (   0.3333333   0.3333333   0.0000000), wk =   0.0370370
        k(   30) = (   0.3333333   0.3333333   0.1666667), wk =   0.0740741
        k(   31) = (   0.3333333   0.3333333   0.3333333), wk =   0.0740741
        k(   32) = (   0.3333333   0.3333333  -0.5000000), wk =   0.0370370
        k(   33) = (   0.3333333  -0.5000000   0.0000000), wk =   0.0370370
        k(   34) = (   0.3333333  -0.5000000   0.1666667), wk =   0.0740741
        k(   35) = (   0.3333333  -0.5000000   0.3333333), wk =   0.0740741
        k(   36) = (   0.3333333  -0.5000000  -0.5000000), wk =   0.0370370
        k(   37) = (  -0.5000000  -0.5000000   0.0000000), wk =   0.0092593
        k(   38) = (  -0.5000000  -0.5000000   0.1666667), wk =   0.0185185
        k(   39) = (  -0.5000000  -0.5000000   0.3333333), wk =   0.0185185
        k(   40) = (  -0.5000000  -0.5000000  -0.5000000), wk =   0.0092593

     Dense  grid:   659969 G-vectors     FFT dimensions: (  96,  96, 150)

     Smooth grid:   233475 G-vectors     FFT dimensions: (  72,  72, 108)

     Dynamical RAM for                 wfc:       6.45 MB

     Dynamical RAM for     wfc (w. buffer):      70.99 MB

     Dynamical RAM for           str. fact:       1.89 MB

     Dynamical RAM for           local pot:       0.94 MB

     Dynamical RAM for          nlocal pot:      15.58 MB

     Dynamical RAM for                qrad:       9.63 MB

     Dynamical RAM for          rho,v,vnew:       4.00 MB

     Dynamical RAM for               rhoin:       1.33 MB

     Dynamical RAM for            rho*nmix:      10.07 MB

     Dynamical RAM for           G-vectors:       2.47 MB

     Dynamical RAM for          h,s,v(r/c):       2.46 MB

     Dynamical RAM for          <psi|beta>:       1.98 MB

     Dynamical RAM for                 psi:      12.91 MB

     Dynamical RAM for                hpsi:      12.91 MB

     Dynamical RAM for                spsi:      12.91 MB

     Dynamical RAM for      wfcinit/wfcrot:      17.37 MB

     Dynamical RAM for           addusdens:      32.26 MB

     Dynamical RAM for          addusforce:      36.88 MB

     Dynamical RAM for         addusstress:      31.86 MB

     Estimated static dynamical RAM per process >     112.87 MB

     Estimated max dynamical RAM per process >     166.10 MB

     Estimated total dynamical RAM >       9.91 GB

     Initial potential from superposition of free atoms

     starting charge     463.9876, renormalised to     464.0000
     Starting wfcs are  280 randomized atomic wfcs
     Checking if some PAW data can be deallocated... 
       PAW data deallocated on   32 nodes for type:  1
       PAW data deallocated on   48 nodes for type:  2
       PAW data deallocated on   48 nodes for type:  3

     total cpu time spent up to now is     1016.3 secs

     Self-consistent Calculation

     iteration #  1     ecut=    50.00 Ry     beta= 0.40
     Davidson diagonalization with overlap

---- Real-time Memory Report at c_bands before calling an iterative solver
           806 MiB given to the printing process from OS
             0 MiB allocation reported by mallinfo(arena+hblkhd)
         39283 MiB available memory on the node where the printing process lives
------------------
     ethr =  1.00E-06,  avg # of iterations = 11.6

     total cpu time spent up to now is     1115.5 secs

     total energy              =  -18165.13669618 Ry
     estimated scf accuracy    <       9.22378655 Ry

     iteration #  2     ecut=    50.00 Ry     beta= 0.40
     Davidson diagonalization with overlap

---- Real-time Memory Report at c_bands before calling an iterative solver
           806 MiB given to the printing process from OS
             0 MiB allocation reported by mallinfo(arena+hblkhd)
         39108 MiB available memory on the node where the printing process lives
------------------
     ethr =  1.99E-03,  avg # of iterations =  5.3

     total cpu time spent up to now is     1151.5 secs

     total energy              =  -18167.28988491 Ry
     estimated scf accuracy    <       3.65055289 Ry

     iteration #  3     ecut=    50.00 Ry     beta= 0.40
     Davidson diagonalization with overlap

---- Real-time Memory Report at c_bands before calling an iterative solver
           806 MiB given to the printing process from OS
             0 MiB allocation reported by mallinfo(arena+hblkhd)
         38903 MiB available memory on the node where the printing process lives
------------------
     ethr =  7.87E-04,  avg # of iterations =  5.2

     total cpu time spent up to now is     1174.0 secs

     total energy              =  -18167.42454196 Ry
     estimated scf accuracy    <       0.53713677 Ry

     iteration #  4     ecut=    50.00 Ry     beta= 0.40
     Davidson diagonalization with overlap

---- Real-time Memory Report at c_bands before calling an iterative solver
           806 MiB given to the printing process from OS
             0 MiB allocation reported by mallinfo(arena+hblkhd)
         38911 MiB available memory on the node where the printing process lives
------------------
     ethr =  1.16E-04,  avg # of iterations =  8.8

     total cpu time spent up to now is     1216.6 secs

     total energy              =  -18167.71839738 Ry
     estimated scf accuracy    <       1.40314955 Ry

     iteration #  5     ecut=    50.00 Ry     beta= 0.40
     Davidson diagonalization with overlap

---- Real-time Memory Report at c_bands before calling an iterative solver
           806 MiB given to the printing process from OS
             0 MiB allocation reported by mallinfo(arena+hblkhd)
         38758 MiB available memory on the node where the printing process lives
------------------
     ethr =  1.16E-04,  avg # of iterations =  5.9

     total cpu time spent up to now is     1252.9 secs

     total energy              =  -18167.89677870 Ry
     estimated scf accuracy    <       0.02433026 Ry

     iteration #  6     ecut=    50.00 Ry     beta= 0.40
     Davidson diagonalization with overlap

---- Real-time Memory Report at c_bands before calling an iterative solver
           806 MiB given to the printing process from OS
             0 MiB allocation reported by mallinfo(arena+hblkhd)
         38693 MiB available memory on the node where the printing process lives
------------------
     ethr =  5.24E-06,  avg # of iterations = 10.8

     total cpu time spent up to now is     1298.2 secs

     total energy              =  -18167.87359975 Ry
     estimated scf accuracy    <       0.23302631 Ry

     iteration #  7     ecut=    50.00 Ry     beta= 0.40
     Davidson diagonalization with overlap

---- Real-time Memory Report at c_bands before calling an iterative solver
           806 MiB given to the printing process from OS
             0 MiB allocation reported by mallinfo(arena+hblkhd)
         38588 MiB available memory on the node where the printing process lives
------------------
     ethr =  5.24E-06,  avg # of iterations =  9.2

     total cpu time spent up to now is     1340.8 secs

     total energy              =  -18167.90893977 Ry
     estimated scf accuracy    <       0.00045690 Ry

     iteration #  8     ecut=    50.00 Ry     beta= 0.40
     Davidson diagonalization with overlap

---- Real-time Memory Report at c_bands before calling an iterative solver
           806 MiB given to the printing process from OS
             0 MiB allocation reported by mallinfo(arena+hblkhd)
         38568 MiB available memory on the node where the printing process lives
------------------
     ethr =  9.85E-08,  avg # of iterations = 12.6

     total cpu time spent up to now is     1396.1 secs

     total energy              =  -18167.90416714 Ry
     estimated scf accuracy    <       0.01976116 Ry

     iteration #  9     ecut=    50.00 Ry     beta= 0.40
     Davidson diagonalization with overlap

---- Real-time Memory Report at c_bands before calling an iterative solver
           806 MiB given to the printing process from OS
             0 MiB allocation reported by mallinfo(arena+hblkhd)
         38530 MiB available memory on the node where the printing process lives
------------------
     ethr =  9.85E-08,  avg # of iterations = 12.1

     total cpu time spent up to now is     1459.2 secs

     total energy              =  -18167.90891098 Ry
     estimated scf accuracy    <       0.00305406 Ry

     iteration # 10     ecut=    50.00 Ry     beta= 0.40
     Davidson diagonalization with overlap

---- Real-time Memory Report at c_bands before calling an iterative solver
           806 MiB given to the printing process from OS
             0 MiB allocation reported by mallinfo(arena+hblkhd)
         38408 MiB available memory on the node where the printing process lives
------------------
     ethr =  9.85E-08,  avg # of iterations =  6.0

     total cpu time spent up to now is     1495.0 secs

     total energy              =  -18167.90896156 Ry
     estimated scf accuracy    <       0.00054092 Ry

     iteration # 11     ecut=    50.00 Ry     beta= 0.40
     Davidson diagonalization with overlap

---- Real-time Memory Report at c_bands before calling an iterative solver
           806 MiB given to the printing process from OS
             0 MiB allocation reported by mallinfo(arena+hblkhd)
         38366 MiB available memory on the node where the printing process lives
------------------
     ethr =  9.85E-08,  avg # of iterations =  3.8

     total cpu time spent up to now is     1514.8 secs

     total energy              =  -18167.90889670 Ry
     estimated scf accuracy    <       0.00023668 Ry

     iteration # 12     ecut=    50.00 Ry     beta= 0.40
     Davidson diagonalization with overlap

---- Real-time Memory Report at c_bands before calling an iterative solver
           806 MiB given to the printing process from OS
             0 MiB allocation reported by mallinfo(arena+hblkhd)
         38342 MiB available memory on the node where the printing process lives
------------------
     ethr =  5.10E-08,  avg # of iterations =  6.2

     total cpu time spent up to now is     1551.1 secs

     total energy              =  -18167.90900460 Ry
     estimated scf accuracy    <       0.00012007 Ry

     iteration # 13     ecut=    50.00 Ry     beta= 0.40
     Davidson diagonalization with overlap

---- Real-time Memory Report at c_bands before calling an iterative solver
           806 MiB given to the printing process from OS
             0 MiB allocation reported by mallinfo(arena+hblkhd)
         38307 MiB available memory on the node where the printing process lives
------------------
     ethr =  2.59E-08,  avg # of iterations =  1.6

     total cpu time spent up to now is     1575.6 secs

     total energy              =  -18167.90899370 Ry
     estimated scf accuracy    <       0.00007327 Ry

     iteration # 14     ecut=    50.00 Ry     beta= 0.40
     Davidson diagonalization with overlap

---- Real-time Memory Report at c_bands before calling an iterative solver
           806 MiB given to the printing process from OS
             0 MiB allocation reported by mallinfo(arena+hblkhd)
         38303 MiB available memory on the node where the printing process lives
------------------
     ethr =  1.58E-08,  avg # of iterations =  4.6

     total cpu time spent up to now is     1598.5 secs

     total energy              =  -18167.90900167 Ry
     estimated scf accuracy    <       0.00001454 Ry

     iteration # 15     ecut=    50.00 Ry     beta= 0.40
     Davidson diagonalization with overlap

---- Real-time Memory Report at c_bands before calling an iterative solver
           806 MiB given to the printing process from OS
             0 MiB allocation reported by mallinfo(arena+hblkhd)
         38291 MiB available memory on the node where the printing process lives
------------------
     ethr =  3.13E-09,  avg # of iterations =  6.2

     total cpu time spent up to now is     1628.7 secs

     total energy              =  -18167.90900347 Ry
     estimated scf accuracy    <       0.00000482 Ry

     iteration # 16     ecut=    50.00 Ry     beta= 0.40
     Davidson diagonalization with overlap

---- Real-time Memory Report at c_bands before calling an iterative solver
           806 MiB given to the printing process from OS
             0 MiB allocation reported by mallinfo(arena+hblkhd)
         38271 MiB available memory on the node where the printing process lives
------------------
     ethr =  1.04E-09,  avg # of iterations =  5.9

     total cpu time spent up to now is     1651.3 secs

     total energy              =  -18167.90900408 Ry
     estimated scf accuracy    <       0.00000271 Ry

     iteration # 17     ecut=    50.00 Ry     beta= 0.40
     Davidson diagonalization with overlap

---- Real-time Memory Report at c_bands before calling an iterative solver
           806 MiB given to the printing process from OS
             0 MiB allocation reported by mallinfo(arena+hblkhd)
         38239 MiB available memory on the node where the printing process lives
------------------
     ethr =  5.85E-10,  avg # of iterations =  2.0

     total cpu time spent up to now is     1676.3 secs

     total energy              =  -18167.90900380 Ry
     estimated scf accuracy    <       0.00000281 Ry

     iteration # 18     ecut=    50.00 Ry     beta= 0.40
     Davidson diagonalization with overlap

---- Real-time Memory Report at c_bands before calling an iterative solver
           806 MiB given to the printing process from OS
             0 MiB allocation reported by mallinfo(arena+hblkhd)
         38242 MiB available memory on the node where the printing process lives
------------------
     ethr =  5.85E-10,  avg # of iterations =  2.0

     total cpu time spent up to now is     1700.9 secs

     total energy              =  -18167.90900358 Ry
     estimated scf accuracy    <       0.00000181 Ry

     iteration # 19     ecut=    50.00 Ry     beta= 0.40
     Davidson diagonalization with overlap

---- Real-time Memory Report at c_bands before calling an iterative solver
           806 MiB given to the printing process from OS
             0 MiB allocation reported by mallinfo(arena+hblkhd)
         38245 MiB available memory on the node where the printing process lives
------------------
     ethr =  3.89E-10,  avg # of iterations =  4.5

     total cpu time spent up to now is     1722.6 secs

     total energy              =  -18167.90900369 Ry
     estimated scf accuracy    <       0.00000079 Ry

     iteration # 20     ecut=    50.00 Ry     beta= 0.40
     Davidson diagonalization with overlap

---- Real-time Memory Report at c_bands before calling an iterative solver
           806 MiB given to the printing process from OS
             0 MiB allocation reported by mallinfo(arena+hblkhd)
         38232 MiB available memory on the node where the printing process lives
------------------
     ethr =  1.70E-10,  avg # of iterations =  6.7

     total cpu time spent up to now is     1751.9 secs

     total energy              =  -18167.90900381 Ry
     estimated scf accuracy    <       0.00000045 Ry

     iteration # 21     ecut=    50.00 Ry     beta= 0.40
     Davidson diagonalization with overlap

---- Real-time Memory Report at c_bands before calling an iterative solver
           806 MiB given to the printing process from OS
             0 MiB allocation reported by mallinfo(arena+hblkhd)
         38189 MiB available memory on the node where the printing process lives
------------------
     ethr =  9.75E-11,  avg # of iterations =  2.0

     total cpu time spent up to now is     1777.4 secs

     total energy              =  -18167.90900366 Ry
     estimated scf accuracy    <       0.00000046 Ry

     iteration # 22     ecut=    50.00 Ry     beta= 0.40
     Davidson diagonalization with overlap

---- Real-time Memory Report at c_bands before calling an iterative solver
           806 MiB given to the printing process from OS
             0 MiB allocation reported by mallinfo(arena+hblkhd)
         38193 MiB available memory on the node where the printing process lives
------------------
     ethr =  9.75E-11,  avg # of iterations =  6.2

     total cpu time spent up to now is     1812.0 secs

     total energy              =  -18167.90900379 Ry
     estimated scf accuracy    <       0.00000013 Ry

     iteration # 23     ecut=    50.00 Ry     beta= 0.40
     Davidson diagonalization with overlap

---- Real-time Memory Report at c_bands before calling an iterative solver
           806 MiB given to the printing process from OS
             0 MiB allocation reported by mallinfo(arena+hblkhd)
         38179 MiB available memory on the node where the printing process lives
------------------
     ethr =  2.75E-11,  avg # of iterations =  1.9

     total cpu time spent up to now is     1836.7 secs

     total energy              =  -18167.90900379 Ry
     estimated scf accuracy    <       0.00000011 Ry

     iteration # 24     ecut=    50.00 Ry     beta= 0.40
     Davidson diagonalization with overlap

---- Real-time Memory Report at c_bands before calling an iterative solver
           806 MiB given to the printing process from OS
             0 MiB allocation reported by mallinfo(arena+hblkhd)
         38162 MiB available memory on the node where the printing process lives
------------------
     ethr =  2.31E-11,  avg # of iterations =  1.6

     total cpu time spent up to now is     1854.0 secs

     total energy              =  -18167.90900379 Ry
     estimated scf accuracy    <       0.00000008 Ry

     iteration # 25     ecut=    50.00 Ry     beta= 0.40
     Davidson diagonalization with overlap

---- Real-time Memory Report at c_bands before calling an iterative solver
           806 MiB given to the printing process from OS
             0 MiB allocation reported by mallinfo(arena+hblkhd)
         38155 MiB available memory on the node where the printing process lives
------------------
     ethr =  1.80E-11,  avg # of iterations =  1.1

     total cpu time spent up to now is     1877.4 secs

     total energy              =  -18167.90900379 Ry
     estimated scf accuracy    <       0.00000007 Ry

     iteration # 26     ecut=    50.00 Ry     beta= 0.40
     Davidson diagonalization with overlap

---- Real-time Memory Report at c_bands before calling an iterative solver
           806 MiB given to the printing process from OS
             0 MiB allocation reported by mallinfo(arena+hblkhd)
         38168 MiB available memory on the node where the printing process lives
------------------
     ethr =  1.58E-11,  avg # of iterations =  1.2

     total cpu time spent up to now is     1894.6 secs

     total energy              =  -18167.90900379 Ry
     estimated scf accuracy    <       0.00000007 Ry

     iteration # 27     ecut=    50.00 Ry     beta= 0.40
     Davidson diagonalization with overlap

---- Real-time Memory Report at c_bands before calling an iterative solver
           806 MiB given to the printing process from OS
             0 MiB allocation reported by mallinfo(arena+hblkhd)
         38176 MiB available memory on the node where the printing process lives
------------------
     ethr =  1.58E-11,  avg # of iterations =  6.0

     total cpu time spent up to now is     1931.0 secs

     total energy              =  -18167.90900380 Ry
     estimated scf accuracy    <       0.00000017 Ry

     iteration # 28     ecut=    50.00 Ry     beta= 0.40
     Davidson diagonalization with overlap

---- Real-time Memory Report at c_bands before calling an iterative solver
           806 MiB given to the printing process from OS
             0 MiB allocation reported by mallinfo(arena+hblkhd)
         38119 MiB available memory on the node where the printing process lives
------------------
     ethr =  1.58E-11,  avg # of iterations =  1.5

     total cpu time spent up to now is     1955.3 secs

     total energy              =  -18167.90900379 Ry
     estimated scf accuracy    <       0.00000016 Ry

     iteration # 29     ecut=    50.00 Ry     beta= 0.40
     Davidson diagonalization with overlap

---- Real-time Memory Report at c_bands before calling an iterative solver
           806 MiB given to the printing process from OS
             0 MiB allocation reported by mallinfo(arena+hblkhd)
         38289 MiB available memory on the node where the printing process lives
------------------
     ethr =  1.58E-11,  avg # of iterations =  1.9

     total cpu time spent up to now is     1980.7 secs

     total energy              =  -18167.90900379 Ry
     estimated scf accuracy    <       0.00000010 Ry

     iteration # 30     ecut=    50.00 Ry     beta= 0.40
     Davidson diagonalization with overlap

---- Real-time Memory Report at c_bands before calling an iterative solver
           806 MiB given to the printing process from OS
             0 MiB allocation reported by mallinfo(arena+hblkhd)
         38288 MiB available memory on the node where the printing process lives
------------------
     ethr =  1.58E-11,  avg # of iterations =  1.1

     total cpu time spent up to now is     1997.8 secs

     total energy              =  -18167.90900378 Ry
     estimated scf accuracy    <       0.00000010 Ry

     iteration # 31     ecut=    50.00 Ry     beta= 0.40
     Davidson diagonalization with overlap

---- Real-time Memory Report at c_bands before calling an iterative solver
           806 MiB given to the printing process from OS
             0 MiB allocation reported by mallinfo(arena+hblkhd)
         38293 MiB available memory on the node where the printing process lives
------------------
     ethr =  1.58E-11,  avg # of iterations =  2.0

     total cpu time spent up to now is     2023.1 secs

     total energy              =  -18167.90900377 Ry
     estimated scf accuracy    <       0.00000007 Ry

     iteration # 32     ecut=    50.00 Ry     beta= 0.40
     Davidson diagonalization with overlap

---- Real-time Memory Report at c_bands before calling an iterative solver
           806 MiB given to the printing process from OS
             0 MiB allocation reported by mallinfo(arena+hblkhd)
         38309 MiB available memory on the node where the printing process lives
------------------
     ethr =  1.47E-11,  avg # of iterations =  3.3

     total cpu time spent up to now is     2053.6 secs

     total energy              =  -18167.90900377 Ry
     estimated scf accuracy    <       0.00000002 Ry

     iteration # 33     ecut=    50.00 Ry     beta= 0.40
     Davidson diagonalization with overlap

---- Real-time Memory Report at c_bands before calling an iterative solver
           806 MiB given to the printing process from OS
             0 MiB allocation reported by mallinfo(arena+hblkhd)
         38310 MiB available memory on the node where the printing process lives
------------------
     ethr =  4.81E-12,  avg # of iterations =  7.0

     total cpu time spent up to now is     2086.4 secs

     total energy              =  -18167.90900378 Ry
     estimated scf accuracy    <       0.00000001 Ry

     iteration # 34     ecut=    50.00 Ry     beta= 0.40
     Davidson diagonalization with overlap

---- Real-time Memory Report at c_bands before calling an iterative solver
           806 MiB given to the printing process from OS
             0 MiB allocation reported by mallinfo(arena+hblkhd)
         38313 MiB available memory on the node where the printing process lives
------------------
     ethr =  2.75E-12,  avg # of iterations =  2.0

     total cpu time spent up to now is     2111.1 secs

     End of self-consistent calculation

          k = 0.0000 0.0000 0.0000 ( 29231 PWs)   bands (ev):

   -35.2093 -35.2093 -35.2092 -35.2092 -35.2086 -35.2086 -35.2086 -35.2086
   -35.2072 -35.2072 -35.2070 -35.2070 -35.2070 -35.2070 -35.2069 -35.2067
   -35.2020 -35.2020 -35.2019 -35.2019 -35.2019 -35.2019 -35.2019 -35.2019
   -35.2019 -35.2019 -35.2019 -35.2019 -35.2015 -35.2015 -35.2015 -35.2015
   -35.1981 -35.1980 -35.1979 -35.1978 -35.1978 -35.1978 -35.1978 -35.1977
   -11.9044 -11.9044 -11.9016 -11.8993 -11.8842 -11.8842 -11.8376 -11.8376
   -11.8376 -11.8376 -11.8221 -11.8221 -11.8221 -11.8221 -11.7218 -11.7049
   -11.7049 -11.7049 -11.7049 -11.7008 -11.7008 -11.6911 -11.6891 -11.6885
   -11.6860 -11.6860 -11.6804 -11.6804 -11.6799 -11.6799 -11.6799 -11.6799
   -11.6655 -11.6655 -11.6655 -11.6655 -11.6636 -11.6636 -11.6636 -11.6636
   -11.6562 -11.6551 -11.6551 -11.6401 -11.6401 -11.6357 -11.6357 -11.6357
   -11.6357 -11.6301 -11.6301 -11.6285 -11.6285 -11.6248 -11.6231 -11.6225
   -11.6106 -11.6106 -11.6106 -11.6106 -11.6073 -11.6073 -11.6068 -11.6068
   -11.6038 -11.6038 -11.6023 -11.6022 -11.6021 -11.6021 -11.6021 -11.6021
   -11.5988 -11.5988 -11.5988 -11.5988 -11.5984 -11.5966 -11.5960 -11.5960
    -8.4983  -8.4754  -7.0437  -7.0437  -7.0437  -7.0437  -7.0294  -7.0294
    -7.0294  -7.0294  -6.6725  -6.6725  -6.6633  -6.6633  -5.8292  -5.8292
    -2.0154  -1.3867  -0.4814  -0.4814  -0.4814  -0.4814  -0.1542  -0.1542
     0.0569   0.0569   0.1087   0.2525   0.2525   0.4644   0.4644   0.4644
     0.4644   1.1511   1.1511   1.1511   1.1511   1.5066   2.6540   3.4156
     5.4591   5.4591   5.4684   5.4684   5.5590   5.5590   6.0338   6.0338
     6.0338   6.0338   6.0438   6.0438   6.2371   6.2371   6.2371   6.2371
     6.2401   6.2401   6.9031   6.9031   6.9031   6.9031   6.9458   6.9458
     6.9458   6.9458   7.0568   7.0568   7.0568   7.0568   7.4323   7.4323
     7.5832   7.5832   8.2284   8.2435   8.4892   8.4892   8.5569   8.5569
     8.5569   8.5569   8.5863   8.5863   8.6241   9.0755   9.0755   9.2668
     9.3178   9.3178   9.3180   9.3180   9.8852   9.9061   9.9061   9.9061
     9.9061   9.9935   9.9935  10.1504  10.1504  10.4109  10.4109  10.5239
    10.7944  10.7944  10.7945  10.7945  10.9966  10.9966  10.9966  10.9966

     occupation numbers 
     1.0000   1.0000   1.0000   1.0000   1.0000   1.0000   1.0000   1.0000
     1.0000   1.0000   1.0000   1.0000   1.0000   1.0000   1.0000   1.0000
     1.0000   1.0000   1.0000   1.0000   1.0000   1.0000   1.0000   1.0000
     1.0000   1.0000   1.0000   1.0000   1.0000   1.0000   1.0000   1.0000
     1.0000   1.0000   1.0000   1.0000   1.0000   1.0000   1.0000   1.0000
     1.0000   1.0000   1.0000   1.0000   1.0000   1.0000   1.0000   1.0000
     1.0000   1.0000   1.0000   1.0000   1.0000   1.0000   1.0000   1.0000
     1.0000   1.0000   1.0000   1.0000   1.0000   1.0000   1.0000   1.0000
     1.0000   1.0000   1.0000   1.0000   1.0000   1.0000   1.0000   1.0000
     1.0000   1.0000   1.0000   1.0000   1.0000   1.0000   1.0000   1.0000
     1.0000   1.0000   1.0000   1.0000   1.0000   1.0000   1.0000   1.0000
     1.0000   1.0000   1.0000   1.0000   1.0000   1.0000   1.0000   1.0000
     1.0000   1.0000   1.0000   1.0000   1.0000   1.0000   1.0000   1.0000
     1.0000   1.0000   1.0000   1.0000   1.0000   1.0000   1.0000   1.0000
     1.0000   1.0000   1.0000   1.0000   1.0000   1.0000   1.0000   1.0000
     1.0000   1.0000   1.0000   1.0000   1.0000   1.0000   1.0000   1.0000
     1.0000   1.0000   1.0000   1.0000   1.0000   1.0000   1.0000   1.0000
     1.0000   1.0000   1.0000   1.0000   1.0000   1.0000   1.0000   1.0000
     1.0000   1.0000   1.0000   1.0000   1.0000   1.0000   1.0000   1.0000
     1.0000   1.0000   1.0000   1.0000   1.0000   1.0000   1.0000   1.0000
     1.0000   1.0000   1.0000   1.0000   1.0000   1.0000   1.0000   1.0000
     1.0000   1.0000   1.0000   1.0000   1.0000   1.0000   1.0000   1.0000
     1.0000   1.0000   1.0000   1.0000   1.0000   1.0000   1.0000   1.0000
     1.0000   1.0000   1.0000   1.0000   1.0000   1.0000   1.0000   1.0000
     1.0000   1.0000   1.0000   1.0000   1.0000   1.0000   1.0000   1.0000
     1.0000   1.0000   1.0000   1.0000   1.0000   1.0000   1.0000   1.0000
     1.0000   1.0000   1.0000   1.0000   1.0000   1.0000   1.0000   1.0000
     1.0000   1.0000   1.0000   1.0000   1.0000   1.0000   1.0000   1.0000
     1.0000   1.0000   1.0000   1.0000   1.0000   1.0000   1.0000   1.0000

          k = 0.0000 0.0000 0.1065 ( 29155 PWs)   bands (ev):

   -35.2091 -35.2091 -35.2090 -35.2089 -35.2086 -35.2086 -35.2086 -35.2086
   -35.2070 -35.2070 -35.2070 -35.2070 -35.2070 -35.2070 -35.2067 -35.2067
   -35.2018 -35.2018 -35.2018 -35.2018 -35.2018 -35.2018 -35.2017 -35.2017
   -35.2017 -35.2017 -35.2017 -35.2017 -35.2016 -35.2016 -35.2016 -35.2016
   -35.1981 -35.1979 -35.1979 -35.1978 -35.1978 -35.1978 -35.1978 -35.1973
   -11.9031 -11.9031 -11.9014 -11.8994 -11.8856 -11.8856 -11.8373 -11.8373
   -11.8373 -11.8373 -11.8223 -11.8223 -11.8223 -11.8223 -11.7204 -11.7042
   -11.7042 -11.7042 -11.7042 -11.6997 -11.6997 -11.6930 -11.6909 -11.6887
   -11.6856 -11.6856 -11.6822 -11.6822 -11.6797 -11.6797 -11.6797 -11.6797
   -11.6658 -11.6658 -11.6658 -11.6658 -11.6654 -11.6654 -11.6654 -11.6654
   -11.6564 -11.6564 -11.6520 -11.6388 -11.6388 -11.6341 -11.6341 -11.6341
   -11.6341 -11.6285 -11.6285 -11.6266 -11.6266 -11.6247 -11.6240 -11.6230
   -11.6101 -11.6101 -11.6101 -11.6101 -11.6084 -11.6084 -11.6082 -11.6082
   -11.6037 -11.6037 -11.6025 -11.6025 -11.6025 -11.6025 -11.6022 -11.6022
   -11.5992 -11.5992 -11.5992 -11.5992 -11.5982 -11.5967 -11.5962 -11.5962
    -8.4968  -8.4769  -7.0428  -7.0428  -7.0428  -7.0428  -7.0303  -7.0303
    -7.0303  -7.0303  -6.6719  -6.6719  -6.6639  -6.6639  -5.8292  -5.8292
    -1.9850  -1.4508  -0.4803  -0.4803  -0.4802  -0.4802  -0.1442  -0.1442
     0.0336   0.0336   0.2066   0.2663   0.2663   0.4613   0.4613   0.4613
     0.4613   1.1530   1.1530   1.1530   1.1530   1.3852   2.7447   3.3824
     5.4655   5.4655   5.4957   5.4957   5.5520   5.5520   5.9846   5.9846
     5.9883   5.9883   5.9883   5.9883   6.2222   6.2222   6.3206   6.3206
     6.3206   6.3206   6.9039   6.9039   6.9039   6.9039   6.9450   6.9450
     6.9450   6.9450   7.0043   7.0043   7.0043   7.0043   7.4661   7.4661
     7.6861   7.6861   8.2294   8.2425   8.4967   8.4967   8.5770   8.5770
     8.5770   8.5770   8.5808   8.5808   8.6598   8.9549   8.9549   9.2163
     9.3178   9.3178   9.3180   9.3180   9.8983   9.8983   9.8983   9.8983
     9.9070  10.0168  10.0168  10.1205  10.1205  10.3771  10.3771  10.4599
    10.7954  10.7954  10.7954  10.7954  10.9969  10.9969  10.9969  10.9969

     occupation numbers 
     1.0000   1.0000   1.0000   1.0000   1.0000   1.0000   1.0000   1.0000
     1.0000   1.0000   1.0000   1.0000   1.0000   1.0000   1.0000   1.0000
     1.0000   1.0000   1.0000   1.0000   1.0000   1.0000   1.0000   1.0000
     1.0000   1.0000   1.0000   1.0000   1.0000   1.0000   1.0000   1.0000
     1.0000   1.0000   1.0000   1.0000   1.0000   1.0000   1.0000   1.0000
     1.0000   1.0000   1.0000   1.0000   1.0000   1.0000   1.0000   1.0000
     1.0000   1.0000   1.0000   1.0000   1.0000   1.0000   1.0000   1.0000
     1.0000   1.0000   1.0000   1.0000   1.0000   1.0000   1.0000   1.0000
     1.0000   1.0000   1.0000   1.0000   1.0000   1.0000   1.0000   1.0000
     1.0000   1.0000   1.0000   1.0000   1.0000   1.0000   1.0000   1.0000
     1.0000   1.0000   1.0000   1.0000   1.0000   1.0000   1.0000   1.0000
     1.0000   1.0000   1.0000   1.0000   1.0000   1.0000   1.0000   1.0000
     1.0000   1.0000   1.0000   1.0000   1.0000   1.0000   1.0000   1.0000
     1.0000   1.0000   1.0000   1.0000   1.0000   1.0000   1.0000   1.0000
     1.0000   1.0000   1.0000   1.0000   1.0000   1.0000   1.0000   1.0000
     1.0000   1.0000   1.0000   1.0000   1.0000   1.0000   1.0000   1.0000
     1.0000   1.0000   1.0000   1.0000   1.0000   1.0000   1.0000   1.0000
     1.0000   1.0000   1.0000   1.0000   1.0000   1.0000   1.0000   1.0000
     1.0000   1.0000   1.0000   1.0000   1.0000   1.0000   1.0000   1.0000
     1.0000   1.0000   1.0000   1.0000   1.0000   1.0000   1.0000   1.0000
     1.0000   1.0000   1.0000   1.0000   1.0000   1.0000   1.0000   1.0000
     1.0000   1.0000   1.0000   1.0000   1.0000   1.0000   1.0000   1.0000
     1.0000   1.0000   1.0000   1.0000   1.0000   1.0000   1.0000   1.0000
     1.0000   1.0000   1.0000   1.0000   1.0000   1.0000   1.0000   1.0000
     1.0000   1.0000   1.0000   1.0000   1.0000   1.0000   1.0000   1.0000
     1.0000   1.0000   1.0000   1.0000   1.0000   1.0000   1.0000   1.0000
     1.0000   1.0000   1.0000   1.0000   1.0000   1.0000   1.0000   1.0000
     1.0000   1.0000   1.0000   1.0000   1.0000   1.0000   1.0000   1.0000
     1.0000   1.0000   1.0000   1.0000   1.0000   1.0000   1.0000   1.0000

          k = 0.0000 0.0000 0.2129 ( 29220 PWs)   bands (ev):

   -35.2092 -35.2092 -35.2091 -35.2090 -35.2088 -35.2088 -35.2088 -35.2088
   -35.2072 -35.2072 -35.2072 -35.2072 -35.2071 -35.2071 -35.2067 -35.2067
   -35.2019 -35.2019 -35.2018 -35.2018 -35.2018 -35.2018 -35.2018 -35.2018
   -35.2018 -35.2018 -35.2018 -35.2018 -35.2016 -35.2016 -35.2016 -35.2016
   -35.1980 -35.1978 -35.1977 -35.1977 -35.1977 -35.1977 -35.1977 -35.1977
   -11.9010 -11.8998 -11.8996 -11.8996 -11.8896 -11.8896 -11.8370 -11.8370
   -11.8370 -11.8370 -11.8229 -11.8229 -11.8229 -11.8229 -11.7161 -11.7028
   -11.7028 -11.7028 -11.7028 -11.7012 -11.6966 -11.6966 -11.6905 -11.6892
   -11.6867 -11.6867 -11.6848 -11.6848 -11.6794 -11.6794 -11.6794 -11.6794
   -11.6688 -11.6688 -11.6688 -11.6688 -11.6664 -11.6664 -11.6664 -11.6664
   -11.6587 -11.6587 -11.6438 -11.6369 -11.6369 -11.6310 -11.6310 -11.6310
   -11.6310 -11.6284 -11.6244 -11.6239 -11.6239 -11.6234 -11.6219 -11.6219
   -11.6124 -11.6124 -11.6116 -11.6116 -11.6091 -11.6091 -11.6091 -11.6091
   -11.6037 -11.6037 -11.6034 -11.6034 -11.6034 -11.6034 -11.6022 -11.6022
   -11.6003 -11.6003 -11.6002 -11.6002 -11.5978 -11.5970 -11.5965 -11.5965
    -8.4926  -8.4811  -7.0402  -7.0402  -7.0402  -7.0402  -7.0329  -7.0329
    -7.0329  -7.0329  -6.6702  -6.6702  -6.6656  -6.6656  -5.8292  -5.8292
    -1.8970  -1.5986  -0.4779  -0.4779  -0.4779  -0.4779  -0.1152  -0.1152
    -0.0169  -0.0169   0.2888   0.2888   0.4537   0.4551   0.4551   0.4551
     0.4551   1.1050   1.1567   1.1567   1.1567   1.1567   2.9356   3.2847
     5.4831   5.4831   5.5330   5.5330   5.5753   5.5753   5.8481   5.8481
     5.9337   5.9337   5.9337   5.9337   6.1887   6.1887   6.4837   6.4837
     6.4837   6.4837   6.8683   6.8683   6.8683   6.8683   6.9056   6.9056
     6.9057   6.9057   6.9432   6.9432   6.9432   6.9432   7.5329   7.5329
     7.9497   7.9497   8.2322   8.2397   8.5166   8.5166   8.5650   8.5650
     8.6160   8.6160   8.6160   8.6160   8.6587   8.6587   8.7617   9.0818
     9.3179   9.3179   9.3180   9.3180   9.8822   9.8822   9.8822   9.8822
     9.9880  10.0601  10.0601  10.0832  10.0832  10.2900  10.2900  10.3058
    10.7973  10.7973  10.7973  10.7973  10.9975  10.9975  10.9975  10.9975

     occupation numbers 
     1.0000   1.0000   1.0000   1.0000   1.0000   1.0000   1.0000   1.0000
     1.0000   1.0000   1.0000   1.0000   1.0000   1.0000   1.0000   1.0000
     1.0000   1.0000   1.0000   1.0000   1.0000   1.0000   1.0000   1.0000
     1.0000   1.0000   1.0000   1.0000   1.0000   1.0000   1.0000   1.0000
     1.0000   1.0000   1.0000   1.0000   1.0000   1.0000   1.0000   1.0000
     1.0000   1.0000   1.0000   1.0000   1.0000   1.0000   1.0000   1.0000
     1.0000   1.0000   1.0000   1.0000   1.0000   1.0000   1.0000   1.0000
     1.0000   1.0000   1.0000   1.0000   1.0000   1.0000   1.0000   1.0000
     1.0000   1.0000   1.0000   1.0000   1.0000   1.0000   1.0000   1.0000
     1.0000   1.0000   1.0000   1.0000   1.0000   1.0000   1.0000   1.0000
     1.0000   1.0000   1.0000   1.0000   1.0000   1.0000   1.0000   1.0000
     1.0000   1.0000   1.0000   1.0000   1.0000   1.0000   1.0000   1.0000
     1.0000   1.0000   1.0000   1.0000   1.0000   1.0000   1.0000   1.0000
     1.0000   1.0000   1.0000   1.0000   1.0000   1.0000   1.0000   1.0000
     1.0000   1.0000   1.0000   1.0000   1.0000   1.0000   1.0000   1.0000
     1.0000   1.0000   1.0000   1.0000   1.0000   1.0000   1.0000   1.0000
     1.0000   1.0000   1.0000   1.0000   1.0000   1.0000   1.0000   1.0000
     1.0000   1.0000   1.0000   1.0000   1.0000   1.0000   1.0000   1.0000
     1.0000   1.0000   1.0000   1.0000   1.0000   1.0000   1.0000   1.0000
     1.0000   1.0000   1.0000   1.0000   1.0000   1.0000   1.0000   1.0000
     1.0000   1.0000   1.0000   1.0000   1.0000   1.0000   1.0000   1.0000
     1.0000   1.0000   1.0000   1.0000   1.0000   1.0000   1.0000   1.0000
     1.0000   1.0000   1.0000   1.0000   1.0000   1.0000   1.0000   1.0000
     1.0000   1.0000   1.0000   1.0000   1.0000   1.0000   1.0000   1.0000
     1.0000   1.0000   1.0000   1.0000   1.0000   1.0000   1.0000   1.0000
     1.0000   1.0000   1.0000   1.0000   1.0000   1.0000   1.0000   1.0000
     1.0000   1.0000   1.0000   1.0000   1.0000   1.0000   1.0000   1.0000
     1.0000   1.0000   1.0000   1.0000   1.0000   1.0000   1.0000   1.0000
     1.0000   1.0000   1.0000   1.0000   1.0000   1.0000   1.0000   1.0000

          k = 0.0000 0.0000-0.3194 ( 29204 PWs)   bands (ev):

   -35.2091 -35.2091 -35.2089 -35.2089 -35.2089 -35.2089 -35.2089 -35.2089
   -35.2072 -35.2072 -35.2072 -35.2072 -35.2068 -35.2068 -35.2067 -35.2067
   -35.2018 -35.2018 -35.2018 -35.2018 -35.2018 -35.2018 -35.2018 -35.2018
   -35.2017 -35.2017 -35.2017 -35.2017 -35.2014 -35.2014 -35.2014 -35.2014
   -35.1980 -35.1980 -35.1980 -35.1980 -35.1978 -35.1978 -35.1976 -35.1975
   -11.9004 -11.9004 -11.8947 -11.8947 -11.8947 -11.8947 -11.8368 -11.8368
   -11.8368 -11.8368 -11.8232 -11.8232 -11.8232 -11.8232 -11.7094 -11.7094
   -11.7022 -11.7022 -11.7022 -11.7022 -11.6919 -11.6919 -11.6919 -11.6919
   -11.6898 -11.6898 -11.6844 -11.6844 -11.6792 -11.6792 -11.6792 -11.6792
   -11.6704 -11.6704 -11.6704 -11.6704 -11.6668 -11.6668 -11.6668 -11.6668
   -11.6598 -11.6598 -11.6360 -11.6360 -11.6353 -11.6353 -11.6297 -11.6297
   -11.6297 -11.6297 -11.6239 -11.6239 -11.6180 -11.6180 -11.6180 -11.6180
   -11.6163 -11.6163 -11.6163 -11.6163 -11.6085 -11.6085 -11.6085 -11.6085
   -11.6040 -11.6040 -11.6040 -11.6040 -11.6036 -11.6036 -11.6022 -11.6022
   -11.6008 -11.6008 -11.6008 -11.6008 -11.5973 -11.5973 -11.5967 -11.5966
    -8.4869  -8.4869  -7.0374  -7.0374  -7.0374  -7.0374  -7.0358  -7.0358
    -7.0358  -7.0358  -6.6679  -6.6679  -6.6679  -6.6679  -5.8292  -5.8292
    -1.7612  -1.7612  -0.4767  -0.4767  -0.4767  -0.4767  -0.0718  -0.0718
    -0.0694  -0.0694   0.2985   0.2985   0.4520   0.4520   0.4520   0.4520
     0.7731   0.7731   1.1586   1.1586   1.1586   1.1586   3.1299   3.1299
     5.5077   5.5077   5.5077   5.5077   5.6989   5.6989   5.6989   5.6989
     5.9137   5.9137   5.9137   5.9137   6.1728   6.1728   6.6320   6.6320
     6.6320   6.6320   6.7270   6.7270   6.7270   6.7270   6.9066   6.9066
     6.9066   6.9066   6.9422   6.9422   6.9422   6.9422   7.5660   7.5660
     8.2359   8.2359   8.2967   8.2967   8.2967   8.2967   8.5418   8.5418
     8.5418   8.5418   8.6351   8.6351   8.6351   8.6351   8.9133   8.9133
     9.3179   9.3179   9.3179   9.3179   9.8740   9.8740   9.8740   9.8740
    10.0295  10.0295  10.1308  10.1308  10.1815  10.1815  10.1815  10.1815
    10.7983  10.7983  10.7983  10.7983  10.9978  10.9978  10.9978  10.9978

     occupation numbers 
     1.0000   1.0000   1.0000   1.0000   1.0000   1.0000   1.0000   1.0000
     1.0000   1.0000   1.0000   1.0000   1.0000   1.0000   1.0000   1.0000
     1.0000   1.0000   1.0000   1.0000   1.0000   1.0000   1.0000   1.0000
     1.0000   1.0000   1.0000   1.0000   1.0000   1.0000   1.0000   1.0000
     1.0000   1.0000   1.0000   1.0000   1.0000   1.0000   1.0000   1.0000
     1.0000   1.0000   1.0000   1.0000   1.0000   1.0000   1.0000   1.0000
     1.0000   1.0000   1.0000   1.0000   1.0000   1.0000   1.0000   1.0000
     1.0000   1.0000   1.0000   1.0000   1.0000   1.0000   1.0000   1.0000
     1.0000   1.0000   1.0000   1.0000   1.0000   1.0000   1.0000   1.0000
     1.0000   1.0000   1.0000   1.0000   1.0000   1.0000   1.0000   1.0000
     1.0000   1.0000   1.0000   1.0000   1.0000   1.0000   1.0000   1.0000
     1.0000   1.0000   1.0000   1.0000   1.0000   1.0000   1.0000   1.0000
     1.0000   1.0000   1.0000   1.0000   1.0000   1.0000   1.0000   1.0000
     1.0000   1.0000   1.0000   1.0000   1.0000   1.0000   1.0000   1.0000
     1.0000   1.0000   1.0000   1.0000   1.0000   1.0000   1.0000   1.0000
     1.0000   1.0000   1.0000   1.0000   1.0000   1.0000   1.0000   1.0000
     1.0000   1.0000   1.0000   1.0000   1.0000   1.0000   1.0000   1.0000
     1.0000   1.0000   1.0000   1.0000   1.0000   1.0000   1.0000   1.0000
     1.0000   1.0000   1.0000   1.0000   1.0000   1.0000   1.0000   1.0000
     1.0000   1.0000   1.0000   1.0000   1.0000   1.0000   1.0000   1.0000
     1.0000   1.0000   1.0000   1.0000   1.0000   1.0000   1.0000   1.0000
     1.0000   1.0000   1.0000   1.0000   1.0000   1.0000   1.0000   1.0000
     1.0000   1.0000   1.0000   1.0000   1.0000   1.0000   1.0000   1.0000
     1.0000   1.0000   1.0000   1.0000   1.0000   1.0000   1.0000   1.0000
     1.0000   1.0000   1.0000   1.0000   1.0000   1.0000   1.0000   1.0000
     1.0000   1.0000   1.0000   1.0000   1.0000   1.0000   1.0000   1.0000
     1.0000   1.0000   1.0000   1.0000   1.0000   1.0000   1.0000   1.0000
     1.0000   1.0000   1.0000   1.0000   1.0000   1.0000   1.0000   1.0000
     1.0000   1.0000   1.0000   1.0000   1.0000   1.0000   1.0000   1.0000

          k = 0.0000 0.1667 0.0000 ( 29199 PWs)   bands (ev):

   -35.2091 -35.2091 -35.2091 -35.2090 -35.2088 -35.2087 -35.2087 -35.2086
   -35.2071 -35.2070 -35.2070 -35.2070 -35.2070 -35.2069 -35.2069 -35.2069
   -35.2019 -35.2019 -35.2019 -35.2019 -35.2018 -35.2018 -35.2018 -35.2018
   -35.2018 -35.2018 -35.2018 -35.2018 -35.2017 -35.2017 -35.2015 -35.2015
   -35.1980 -35.1979 -35.1979 -35.1978 -35.1978 -35.1978 -35.1976 -35.1976
   -11.8998 -11.8998 -11.8993 -11.8965 -11.8799 -11.8799 -11.8602 -11.8475
   -11.8417 -11.8417 -11.8258 -11.8258 -11.8054 -11.7881 -11.7212 -11.7101
   -11.7026 -11.7026 -11.7000 -11.6995 -11.6985 -11.6909 -11.6863 -11.6862
   -11.6862 -11.6860 -11.6855 -11.6803 -11.6799 -11.6772 -11.6772 -11.6730
   -11.6701 -11.6683 -11.6641 -11.6641 -11.6601 -11.6601 -11.6598 -11.6595
   -11.6545 -11.6545 -11.6534 -11.6451 -11.6408 -11.6408 -11.6391 -11.6355
   -11.6351 -11.6346 -11.6346 -11.6298 -11.6298 -11.6267 -11.6232 -11.6196
   -11.6165 -11.6124 -11.6124 -11.6106 -11.6099 -11.6079 -11.6079 -11.6078
   -11.6078 -11.6063 -11.6060 -11.6060 -11.6053 -11.6033 -11.6033 -11.6028
   -11.6010 -11.5993 -11.5987 -11.5984 -11.5984 -11.5972 -11.5967 -11.5967
    -8.4469  -8.4239  -7.4098  -7.3916  -7.0209  -7.0209  -7.0068  -7.0068
    -6.6997  -6.6997  -6.6904  -6.6900  -6.6900  -6.6803  -5.8613  -5.8609
    -1.9615  -1.3434  -0.7681  -0.5531  -0.4538  -0.4538  -0.1349  -0.1349
     0.0498   0.0498   0.1283   0.3171   0.3171   0.4401   0.4401   0.4712
     0.7925   0.8921   1.0967   1.0967   1.4298   1.5546   2.6183   3.2591
     5.3879   5.3879   5.5062   5.5084   5.5131   5.6035   5.6969   5.9084
     5.9084   5.9090   5.9090   5.9508   5.9508   6.1169   6.3289   6.3289
     6.4419   6.4912   6.5158   6.5683   6.9625   7.0321   7.0321   7.1584
     7.1584   7.2373   7.2969   7.2969   7.3014   7.3397   7.5732   7.5732
     7.8001   7.8001   8.0244   8.0697   8.2982   8.4353   8.4629   8.5243
     8.5420   8.5506   8.5564   8.5564   8.8837   9.1088   9.1088   9.1870
     9.1870   9.2578   9.2578   9.2753   9.7819   9.8778   9.8778   9.8929
     9.9847   9.9980  10.0155  10.0155  10.0374  10.3315  10.4442  10.5084
    10.5303  10.5303  10.6626  10.7502  10.7502  10.7758  10.8673  10.9768

     occupation numbers 
     1.0000   1.0000   1.0000   1.0000   1.0000   1.0000   1.0000   1.0000
     1.0000   1.0000   1.0000   1.0000   1.0000   1.0000   1.0000   1.0000
     1.0000   1.0000   1.0000   1.0000   1.0000   1.0000   1.0000   1.0000
     1.0000   1.0000   1.0000   1.0000   1.0000   1.0000   1.0000   1.0000
     1.0000   1.0000   1.0000   1.0000   1.0000   1.0000   1.0000   1.0000
     1.0000   1.0000   1.0000   1.0000   1.0000   1.0000   1.0000   1.0000
     1.0000   1.0000   1.0000   1.0000   1.0000   1.0000   1.0000   1.0000
     1.0000   1.0000   1.0000   1.0000   1.0000   1.0000   1.0000   1.0000
     1.0000   1.0000   1.0000   1.0000   1.0000   1.0000   1.0000   1.0000
     1.0000   1.0000   1.0000   1.0000   1.0000   1.0000   1.0000   1.0000
     1.0000   1.0000   1.0000   1.0000   1.0000   1.0000   1.0000   1.0000
     1.0000   1.0000   1.0000   1.0000   1.0000   1.0000   1.0000   1.0000
     1.0000   1.0000   1.0000   1.0000   1.0000   1.0000   1.0000   1.0000
     1.0000   1.0000   1.0000   1.0000   1.0000   1.0000   1.0000   1.0000
     1.0000   1.0000   1.0000   1.0000   1.0000   1.0000   1.0000   1.0000
     1.0000   1.0000   1.0000   1.0000   1.0000   1.0000   1.0000   1.0000
     1.0000   1.0000   1.0000   1.0000   1.0000   1.0000   1.0000   1.0000
     1.0000   1.0000   1.0000   1.0000   1.0000   1.0000   1.0000   1.0000
     1.0000   1.0000   1.0000   1.0000   1.0000   1.0000   1.0000   1.0000
     1.0000   1.0000   1.0000   1.0000   1.0000   1.0000   1.0000   1.0000
     1.0000   1.0000   1.0000   1.0000   1.0000   1.0000   1.0000   1.0000
     1.0000   1.0000   1.0000   1.0000   1.0000   1.0000   1.0000   1.0000
     1.0000   1.0000   1.0000   1.0000   1.0000   1.0000   1.0000   1.0000
     1.0000   1.0000   1.0000   1.0000   1.0000   1.0000   1.0000   1.0000
     1.0000   1.0000   1.0000   1.0000   1.0000   1.0000   1.0000   1.0000
     1.0000   1.0000   1.0000   1.0000   1.0000   1.0000   1.0000   1.0000
     1.0000   1.0000   1.0000   1.0000   1.0000   1.0000   1.0000   1.0000
     1.0000   1.0000   1.0000   1.0000   1.0000   1.0000   1.0000   1.0000
     1.0000   1.0000   1.0000   1.0000   1.0000   1.0000   1.0000   1.0000

          k = 0.0000 0.1667 0.1065 ( 29197 PWs)   bands (ev):

   -35.2092 -35.2092 -35.2091 -35.2090 -35.2087 -35.2086 -35.2086 -35.2086
   -35.2072 -35.2070 -35.2070 -35.2070 -35.2069 -35.2069 -35.2069 -35.2068
   -35.2019 -35.2019 -35.2018 -35.2018 -35.2018 -35.2018 -35.2018 -35.2018
   -35.2018 -35.2017 -35.2017 -35.2017 -35.2017 -35.2017 -35.2017 -35.2017
   -35.1981 -35.1979 -35.1979 -35.1979 -35.1978 -35.1977 -35.1977 -35.1976
   -11.8991 -11.8986 -11.8986 -11.8968 -11.8813 -11.8813 -11.8595 -11.8486
   -11.8414 -11.8414 -11.8262 -11.8262 -11.8041 -11.7892 -11.7198 -11.7090
   -11.7020 -11.7020 -11.6996 -11.6990 -11.6976 -11.6936 -11.6876 -11.6862
   -11.6859 -11.6859 -11.6849 -11.6817 -11.6814 -11.6769 -11.6769 -11.6749
   -11.6695 -11.6684 -11.6645 -11.6645 -11.6626 -11.6617 -11.6617 -11.6601
   -11.6559 -11.6559 -11.6501 -11.6423 -11.6396 -11.6396 -11.6369 -11.6343
   -11.6342 -11.6330 -11.6330 -11.6282 -11.6282 -11.6270 -11.6246 -11.6187
   -11.6177 -11.6118 -11.6118 -11.6101 -11.6095 -11.6093 -11.6093 -11.6075
   -11.6075 -11.6064 -11.6064 -11.6063 -11.6062 -11.6037 -11.6037 -11.6030
   -11.6015 -11.5994 -11.5991 -11.5988 -11.5988 -11.5973 -11.5968 -11.5968
    -8.4454  -8.4255  -7.4086  -7.3929  -7.0200  -7.0200  -7.0077  -7.0077
    -6.6991  -6.6991  -6.6907  -6.6907  -6.6897  -6.6810  -5.8612  -5.8610
    -1.9316  -1.4061  -0.7543  -0.5680  -0.4528  -0.4528  -0.1271  -0.1271
     0.0345   0.0345   0.2223   0.3251   0.3251   0.4377   0.4377   0.4774
     0.7015   1.0063   1.0980   1.0980   1.3241   1.5259   2.6905   3.2299
     5.4013   5.4013   5.5106   5.5124   5.5147   5.5966   5.7126   5.7871
     5.7871   5.8844   5.8844   6.0475   6.0678   6.0678   6.3798   6.3798
     6.5138   6.5191   6.5345   6.5646   6.9188   6.9413   6.9413   7.1966
     7.2048   7.2048   7.2957   7.2957   7.3041   7.3372   7.5363   7.5363
     7.9111   7.9111   8.0264   8.0654   8.3527   8.4421   8.4910   8.5191
     8.5410   8.5585   8.5642   8.5642   8.8555   8.9535   8.9535   9.1733
     9.2268   9.2268   9.2575   9.2575   9.8611   9.8717   9.8717   9.8937
     9.9823  10.0134  10.0337  10.0337  10.0604  10.2782  10.4117  10.4960
    10.5465  10.5465  10.6742  10.7418  10.7418  10.7711  10.8747  10.9696

     occupation numbers 
     1.0000   1.0000   1.0000   1.0000   1.0000   1.0000   1.0000   1.0000
     1.0000   1.0000   1.0000   1.0000   1.0000   1.0000   1.0000   1.0000
     1.0000   1.0000   1.0000   1.0000   1.0000   1.0000   1.0000   1.0000
     1.0000   1.0000   1.0000   1.0000   1.0000   1.0000   1.0000   1.0000
     1.0000   1.0000   1.0000   1.0000   1.0000   1.0000   1.0000   1.0000
     1.0000   1.0000   1.0000   1.0000   1.0000   1.0000   1.0000   1.0000
     1.0000   1.0000   1.0000   1.0000   1.0000   1.0000   1.0000   1.0000
     1.0000   1.0000   1.0000   1.0000   1.0000   1.0000   1.0000   1.0000
     1.0000   1.0000   1.0000   1.0000   1.0000   1.0000   1.0000   1.0000
     1.0000   1.0000   1.0000   1.0000   1.0000   1.0000   1.0000   1.0000
     1.0000   1.0000   1.0000   1.0000   1.0000   1.0000   1.0000   1.0000
     1.0000   1.0000   1.0000   1.0000   1.0000   1.0000   1.0000   1.0000
     1.0000   1.0000   1.0000   1.0000   1.0000   1.0000   1.0000   1.0000
     1.0000   1.0000   1.0000   1.0000   1.0000   1.0000   1.0000   1.0000
     1.0000   1.0000   1.0000   1.0000   1.0000   1.0000   1.0000   1.0000
     1.0000   1.0000   1.0000   1.0000   1.0000   1.0000   1.0000   1.0000
     1.0000   1.0000   1.0000   1.0000   1.0000   1.0000   1.0000   1.0000
     1.0000   1.0000   1.0000   1.0000   1.0000   1.0000   1.0000   1.0000
     1.0000   1.0000   1.0000   1.0000   1.0000   1.0000   1.0000   1.0000
     1.0000   1.0000   1.0000   1.0000   1.0000   1.0000   1.0000   1.0000
     1.0000   1.0000   1.0000   1.0000   1.0000   1.0000   1.0000   1.0000
     1.0000   1.0000   1.0000   1.0000   1.0000   1.0000   1.0000   1.0000
     1.0000   1.0000   1.0000   1.0000   1.0000   1.0000   1.0000   1.0000
     1.0000   1.0000   1.0000   1.0000   1.0000   1.0000   1.0000   1.0000
     1.0000   1.0000   1.0000   1.0000   1.0000   1.0000   1.0000   1.0000
     1.0000   1.0000   1.0000   1.0000   1.0000   1.0000   1.0000   1.0000
     1.0000   1.0000   1.0000   1.0000   1.0000   1.0000   1.0000   1.0000
     1.0000   1.0000   1.0000   1.0000   1.0000   1.0000   1.0000   1.0000
     1.0000   1.0000   1.0000   1.0000   1.0000   1.0000   1.0000   1.0000

          k = 0.0000 0.1667 0.2129 ( 29192 PWs)   bands (ev):

   -35.2092 -35.2092 -35.2091 -35.2090 -35.2088 -35.2086 -35.2086 -35.2086
   -35.2071 -35.2071 -35.2071 -35.2071 -35.2069 -35.2069 -35.2069 -35.2068
   -35.2019 -35.2019 -35.2018 -35.2018 -35.2018 -35.2018 -35.2018 -35.2018
   -35.2018 -35.2018 -35.2017 -35.2017 -35.2017 -35.2016 -35.2016 -35.2016
   -35.1979 -35.1978 -35.1978 -35.1978 -35.1978 -35.1978 -35.1976 -35.1976
   -11.8986 -11.8972 -11.8952 -11.8952 -11.8852 -11.8852 -11.8575 -11.8512
   -11.8406 -11.8406 -11.8271 -11.8271 -11.8007 -11.7923 -11.7156 -11.7059
   -11.7012 -11.7009 -11.7009 -11.7002 -11.6959 -11.6947 -11.6877 -11.6866
   -11.6861 -11.6853 -11.6852 -11.6852 -11.6833 -11.6778 -11.6763 -11.6763
   -11.6713 -11.6674 -11.6660 -11.6658 -11.6658 -11.6641 -11.6641 -11.6616
   -11.6581 -11.6581 -11.6428 -11.6376 -11.6376 -11.6375 -11.6330 -11.6318
   -11.6317 -11.6300 -11.6299 -11.6287 -11.6278 -11.6240 -11.6240 -11.6211
   -11.6163 -11.6129 -11.6129 -11.6106 -11.6106 -11.6089 -11.6088 -11.6087
   -11.6073 -11.6073 -11.6068 -11.6068 -11.6056 -11.6051 -11.6051 -11.6036
   -11.6027 -11.6014 -11.5995 -11.5995 -11.5988 -11.5977 -11.5972 -11.5972
    -8.4412  -8.4297  -7.4053  -7.3962  -7.0174  -7.0174  -7.0103  -7.0103
    -6.6973  -6.6973  -6.6925  -6.6925  -6.6879  -6.6828  -5.8612  -5.8610
    -1.8447  -1.5510  -0.7163  -0.6086  -0.4508  -0.4508  -0.1066  -0.1066
     0.0005   0.0005   0.3396   0.3396   0.4329   0.4329   0.4588   0.4980
     0.6048   1.0710   1.1005   1.1005   1.1658   1.4434   2.8478   3.1448
     5.4342   5.4342   5.5153   5.5177   5.5296   5.5782   5.7117   5.7117
     5.7587   5.7762   5.7762   5.9335   6.2436   6.2436   6.4441   6.4441
     6.5284   6.5546   6.5794   6.7034   6.7831   6.7831   6.8235   7.0826
     7.2515   7.2515   7.2913   7.2913   7.3114   7.3305   7.5293   7.5293
     8.0327   8.0549   8.1178   8.1178   8.4601   8.4857   8.5045   8.5269
     8.5385   8.5795   8.5795   8.6266   8.6803   8.6803   8.7717   8.9765
     9.2450   9.2450   9.2564   9.2564   9.8597   9.8597   9.8991   9.9477
     9.9703  10.0470  10.0470  10.1258  10.1275  10.1702  10.3276  10.4260
    10.5858  10.5858  10.7020  10.7180  10.7180  10.7566  10.8949  10.9497

     occupation numbers 
     1.0000   1.0000   1.0000   1.0000   1.0000   1.0000   1.0000   1.0000
     1.0000   1.0000   1.0000   1.0000   1.0000   1.0000   1.0000   1.0000
     1.0000   1.0000   1.0000   1.0000   1.0000   1.0000   1.0000   1.0000
     1.0000   1.0000   1.0000   1.0000   1.0000   1.0000   1.0000   1.0000
     1.0000   1.0000   1.0000   1.0000   1.0000   1.0000   1.0000   1.0000
     1.0000   1.0000   1.0000   1.0000   1.0000   1.0000   1.0000   1.0000
     1.0000   1.0000   1.0000   1.0000   1.0000   1.0000   1.0000   1.0000
     1.0000   1.0000   1.0000   1.0000   1.0000   1.0000   1.0000   1.0000
     1.0000   1.0000   1.0000   1.0000   1.0000   1.0000   1.0000   1.0000
     1.0000   1.0000   1.0000   1.0000   1.0000   1.0000   1.0000   1.0000
     1.0000   1.0000   1.0000   1.0000   1.0000   1.0000   1.0000   1.0000
     1.0000   1.0000   1.0000   1.0000   1.0000   1.0000   1.0000   1.0000
     1.0000   1.0000   1.0000   1.0000   1.0000   1.0000   1.0000   1.0000
     1.0000   1.0000   1.0000   1.0000   1.0000   1.0000   1.0000   1.0000
     1.0000   1.0000   1.0000   1.0000   1.0000   1.0000   1.0000   1.0000
     1.0000   1.0000   1.0000   1.0000   1.0000   1.0000   1.0000   1.0000
     1.0000   1.0000   1.0000   1.0000   1.0000   1.0000   1.0000   1.0000
     1.0000   1.0000   1.0000   1.0000   1.0000   1.0000   1.0000   1.0000
     1.0000   1.0000   1.0000   1.0000   1.0000   1.0000   1.0000   1.0000
     1.0000   1.0000   1.0000   1.0000   1.0000   1.0000   1.0000   1.0000
     1.0000   1.0000   1.0000   1.0000   1.0000   1.0000   1.0000   1.0000
     1.0000   1.0000   1.0000   1.0000   1.0000   1.0000   1.0000   1.0000
     1.0000   1.0000   1.0000   1.0000   1.0000   1.0000   1.0000   1.0000
     1.0000   1.0000   1.0000   1.0000   1.0000   1.0000   1.0000   1.0000
     1.0000   1.0000   1.0000   1.0000   1.0000   1.0000   1.0000   1.0000
     1.0000   1.0000   1.0000   1.0000   1.0000   1.0000   1.0000   1.0000
     1.0000   1.0000   1.0000   1.0000   1.0000   1.0000   1.0000   1.0000
     1.0000   1.0000   1.0000   1.0000   1.0000   1.0000   1.0000   1.0000
     1.0000   1.0000   1.0000   1.0000   1.0000   1.0000   1.0000   1.0000

          k = 0.0000 0.1667-0.3194 ( 29188 PWs)   bands (ev):

   -35.2093 -35.2093 -35.2091 -35.2091 -35.2087 -35.2087 -35.2086 -35.2086
   -35.2071 -35.2071 -35.2070 -35.2070 -35.2070 -35.2069 -35.2069 -35.2069
   -35.2018 -35.2018 -35.2018 -35.2018 -35.2018 -35.2018 -35.2017 -35.2017
   -35.2017 -35.2017 -35.2017 -35.2017 -35.2017 -35.2017 -35.2016 -35.2016
   -35.1979 -35.1979 -35.1978 -35.1977 -35.1977 -35.1977 -35.1976 -35.1976
   -11.8980 -11.8980 -11.8907 -11.8907 -11.8899 -11.8899 -11.8545 -11.8545
   -11.8402 -11.8402 -11.8277 -11.8277 -11.7964 -11.7964 -11.7091 -11.7091
   -11.7025 -11.7025 -11.7003 -11.7003 -11.6913 -11.6913 -11.6903 -11.6903
   -11.6871 -11.6871 -11.6848 -11.6848 -11.6809 -11.6809 -11.6760 -11.6760
   -11.6708 -11.6708 -11.6670 -11.6670 -11.6647 -11.6647 -11.6637 -11.6637
   -11.6592 -11.6592 -11.6367 -11.6367 -11.6351 -11.6351 -11.6340 -11.6340
   -11.6294 -11.6294 -11.6286 -11.6286 -11.6260 -11.6260 -11.6187 -11.6187
   -11.6180 -11.6180 -11.6127 -11.6127 -11.6096 -11.6096 -11.6081 -11.6081
   -11.6072 -11.6072 -11.6069 -11.6069 -11.6061 -11.6061 -11.6039 -11.6039
   -11.6037 -11.6037 -11.5999 -11.5999 -11.5982 -11.5982 -11.5973 -11.5973
    -8.4355  -8.4355  -7.4008  -7.4008  -7.0146  -7.0146  -7.0131  -7.0131
    -6.6949  -6.6949  -6.6949  -6.6949  -6.6854  -6.6854  -5.8611  -5.8611
    -1.7110  -1.7110  -0.6631  -0.6631  -0.4498  -0.4498  -0.0902  -0.0902
    -0.0220  -0.0220   0.3463   0.3463   0.4305   0.4305   0.5382   0.5382
     0.7617   0.7617   1.1018   1.1018   1.3181   1.3181   3.0119   3.0119
     5.4564   5.4564   5.5184   5.5184   5.5535   5.5535   5.6862   5.6862
     5.7244   5.7244   5.8335   5.8335   6.3513   6.3513   6.4650   6.4650
     6.5414   6.5414   6.6783   6.6783   6.6795   6.6795   6.9189   6.9189
     7.2722   7.2722   7.2842   7.2842   7.3211   7.3211   7.5437   7.5437
     8.0428   8.0428   8.3004   8.3004   8.4622   8.4622   8.4831   8.4831
     8.5349   8.5349   8.5870   8.5870   8.6403   8.6403   8.7804   8.7804
     9.2498   9.2498   9.2553   9.2553   9.8537   9.8537   9.9163   9.9163
    10.0453  10.0454  10.0626  10.0626  10.2221  10.2221  10.2908  10.2908
    10.6139  10.6139  10.6975  10.6975  10.7325  10.7325  10.9224  10.9224

     occupation numbers 
     1.0000   1.0000   1.0000   1.0000   1.0000   1.0000   1.0000   1.0000
     1.0000   1.0000   1.0000   1.0000   1.0000   1.0000   1.0000   1.0000
     1.0000   1.0000   1.0000   1.0000   1.0000   1.0000   1.0000   1.0000
     1.0000   1.0000   1.0000   1.0000   1.0000   1.0000   1.0000   1.0000
     1.0000   1.0000   1.0000   1.0000   1.0000   1.0000   1.0000   1.0000
     1.0000   1.0000   1.0000   1.0000   1.0000   1.0000   1.0000   1.0000
     1.0000   1.0000   1.0000   1.0000   1.0000   1.0000   1.0000   1.0000
     1.0000   1.0000   1.0000   1.0000   1.0000   1.0000   1.0000   1.0000
     1.0000   1.0000   1.0000   1.0000   1.0000   1.0000   1.0000   1.0000
     1.0000   1.0000   1.0000   1.0000   1.0000   1.0000   1.0000   1.0000
     1.0000   1.0000   1.0000   1.0000   1.0000   1.0000   1.0000   1.0000
     1.0000   1.0000   1.0000   1.0000   1.0000   1.0000   1.0000   1.0000
     1.0000   1.0000   1.0000   1.0000   1.0000   1.0000   1.0000   1.0000
     1.0000   1.0000   1.0000   1.0000   1.0000   1.0000   1.0000   1.0000
     1.0000   1.0000   1.0000   1.0000   1.0000   1.0000   1.0000   1.0000
     1.0000   1.0000   1.0000   1.0000   1.0000   1.0000   1.0000   1.0000
     1.0000   1.0000   1.0000   1.0000   1.0000   1.0000   1.0000   1.0000
     1.0000   1.0000   1.0000   1.0000   1.0000   1.0000   1.0000   1.0000
     1.0000   1.0000   1.0000   1.0000   1.0000   1.0000   1.0000   1.0000
     1.0000   1.0000   1.0000   1.0000   1.0000   1.0000   1.0000   1.0000
     1.0000   1.0000   1.0000   1.0000   1.0000   1.0000   1.0000   1.0000
     1.0000   1.0000   1.0000   1.0000   1.0000   1.0000   1.0000   1.0000
     1.0000   1.0000   1.0000   1.0000   1.0000   1.0000   1.0000   1.0000
     1.0000   1.0000   1.0000   1.0000   1.0000   1.0000   1.0000   1.0000
     1.0000   1.0000   1.0000   1.0000   1.0000   1.0000   1.0000   1.0000
     1.0000   1.0000   1.0000   1.0000   1.0000   1.0000   1.0000   1.0000
     1.0000   1.0000   1.0000   1.0000   1.0000   1.0000   1.0000   1.0000
     1.0000   1.0000   1.0000   1.0000   1.0000   1.0000   1.0000   1.0000
     1.0000   1.0000   1.0000   1.0000   1.0000   1.0000   1.0000   1.0000

          k = 0.0000 0.3333 0.0000 ( 29167 PWs)   bands (ev):

   -35.2092 -35.2092 -35.2090 -35.2089 -35.2088 -35.2088 -35.2086 -35.2086
   -35.2071 -35.2071 -35.2070 -35.2069 -35.2069 -35.2069 -35.2068 -35.2067
   -35.2019 -35.2019 -35.2019 -35.2019 -35.2018 -35.2018 -35.2018 -35.2018
   -35.2018 -35.2018 -35.2017 -35.2017 -35.2017 -35.2017 -35.2017 -35.2012
   -35.1979 -35.1979 -35.1979 -35.1979 -35.1979 -35.1977 -35.1975 -35.1973
   -11.8933 -11.8892 -11.8874 -11.8874 -11.8751 -11.8681 -11.8681 -11.8655
   -11.8536 -11.8536 -11.8366 -11.8366 -11.7649 -11.7469 -11.7199 -11.7145
   -11.6979 -11.6968 -11.6968 -11.6957 -11.6944 -11.6908 -11.6903 -11.6876
   -11.6876 -11.6832 -11.6792 -11.6784 -11.6782 -11.6735 -11.6731 -11.6690
   -11.6690 -11.6646 -11.6629 -11.6606 -11.6581 -11.6573 -11.6573 -11.6536
   -11.6536 -11.6534 -11.6534 -11.6520 -11.6457 -11.6457 -11.6454 -11.6451
   -11.6446 -11.6430 -11.6345 -11.6315 -11.6315 -11.6276 -11.6276 -11.6205
   -11.6205 -11.6190 -11.6183 -11.6174 -11.6174 -11.6169 -11.6169 -11.6147
   -11.6107 -11.6080 -11.6075 -11.6075 -11.6055 -11.6055 -11.6047 -11.6024
   -11.6023 -11.6019 -11.6002 -11.5990 -11.5979 -11.5979 -11.5971 -11.5971
    -8.2973  -8.2743  -7.7582  -7.7373  -6.9572  -6.9572  -6.9438  -6.9438
    -6.7721  -6.7721  -6.7613  -6.7613  -6.3792  -6.3731  -5.9604  -5.9591
    -1.8006  -1.2174  -1.1782  -0.7837  -0.3767  -0.3767  -0.1642  -0.1642
     0.1089   0.1089   0.1922   0.3648   0.3648   0.4910   0.4910   0.5108
     0.6933   0.9428   0.9428   1.2283   1.5372   1.9500   2.4999   2.8285
     5.2759   5.2759   5.4260   5.4769   5.5145   5.5145   5.6410   5.6449
     5.7348   5.7437   5.7437   5.7877   5.7877   5.9968   6.1639   6.2293
     6.5409   6.5409   6.8609   6.9228   6.9452   6.9452   7.1023   7.4232
     7.5771   7.5771   7.6810   7.6827   7.7239   7.7727   7.8459   7.8459
     7.8748   7.8748   8.0259   8.1626   8.2170   8.2661   8.2661   8.2748
     8.3453   8.4531   8.5355   8.5355   8.8347   8.8347   9.1330   9.1418
     9.1418   9.2368   9.2368   9.2802   9.8191   9.8191   9.8218   9.8556
     9.8556   9.9594   9.9932   9.9932  10.1480  10.1480  10.1666  10.1689
    10.1905  10.3163  10.3603  10.4179  10.5401  10.6330  10.6349  10.8484

     occupation numbers 
     1.0000   1.0000   1.0000   1.0000   1.0000   1.0000   1.0000   1.0000
     1.0000   1.0000   1.0000   1.0000   1.0000   1.0000   1.0000   1.0000
     1.0000   1.0000   1.0000   1.0000   1.0000   1.0000   1.0000   1.0000
     1.0000   1.0000   1.0000   1.0000   1.0000   1.0000   1.0000   1.0000
     1.0000   1.0000   1.0000   1.0000   1.0000   1.0000   1.0000   1.0000
     1.0000   1.0000   1.0000   1.0000   1.0000   1.0000   1.0000   1.0000
     1.0000   1.0000   1.0000   1.0000   1.0000   1.0000   1.0000   1.0000
     1.0000   1.0000   1.0000   1.0000   1.0000   1.0000   1.0000   1.0000
     1.0000   1.0000   1.0000   1.0000   1.0000   1.0000   1.0000   1.0000
     1.0000   1.0000   1.0000   1.0000   1.0000   1.0000   1.0000   1.0000
     1.0000   1.0000   1.0000   1.0000   1.0000   1.0000   1.0000   1.0000
     1.0000   1.0000   1.0000   1.0000   1.0000   1.0000   1.0000   1.0000
     1.0000   1.0000   1.0000   1.0000   1.0000   1.0000   1.0000   1.0000
     1.0000   1.0000   1.0000   1.0000   1.0000   1.0000   1.0000   1.0000
     1.0000   1.0000   1.0000   1.0000   1.0000   1.0000   1.0000   1.0000
     1.0000   1.0000   1.0000   1.0000   1.0000   1.0000   1.0000   1.0000
     1.0000   1.0000   1.0000   1.0000   1.0000   1.0000   1.0000   1.0000
     1.0000   1.0000   1.0000   1.0000   1.0000   1.0000   1.0000   1.0000
     1.0000   1.0000   1.0000   1.0000   1.0000   1.0000   1.0000   1.0000
     1.0000   1.0000   1.0000   1.0000   1.0000   1.0000   1.0000   1.0000
     1.0000   1.0000   1.0000   1.0000   1.0000   1.0000   1.0000   1.0000
     1.0000   1.0000   1.0000   1.0000   1.0000   1.0000   1.0000   1.0000
     1.0000   1.0000   1.0000   1.0000   1.0000   1.0000   1.0000   1.0000
     1.0000   1.0000   1.0000   1.0000   1.0000   1.0000   1.0000   1.0000
     1.0000   1.0000   1.0000   1.0000   1.0000   1.0000   1.0000   1.0000
     1.0000   1.0000   1.0000   1.0000   1.0000   1.0000   1.0000   1.0000
     1.0000   1.0000   1.0000   1.0000   1.0000   1.0000   1.0000   1.0000
     1.0000   1.0000   1.0000   1.0000   1.0000   1.0000   1.0000   1.0000
     1.0000   1.0000   1.0000   1.0000   1.0000   1.0000   1.0000   1.0000

          k = 0.0000 0.3333 0.1065 ( 29197 PWs)   bands (ev):

   -35.2093 -35.2093 -35.2090 -35.2090 -35.2088 -35.2088 -35.2086 -35.2086
   -35.2071 -35.2071 -35.2070 -35.2070 -35.2069 -35.2069 -35.2069 -35.2068
   -35.2019 -35.2019 -35.2019 -35.2019 -35.2018 -35.2018 -35.2018 -35.2018
   -35.2017 -35.2017 -35.2017 -35.2017 -35.2017 -35.2017 -35.2017 -35.2016
   -35.1981 -35.1979 -35.1979 -35.1979 -35.1978 -35.1977 -35.1977 -35.1976
   -11.8930 -11.8895 -11.8863 -11.8863 -11.8745 -11.8695 -11.8695 -11.8662
   -11.8530 -11.8530 -11.8374 -11.8374 -11.7638 -11.7485 -11.7186 -11.7129
   -11.6977 -11.6968 -11.6964 -11.6964 -11.6953 -11.6902 -11.6896 -11.6874
   -11.6874 -11.6833 -11.6815 -11.6803 -11.6787 -11.6756 -11.6737 -11.6687
   -11.6687 -11.6648 -11.6628 -11.6609 -11.6579 -11.6579 -11.6550 -11.6550
   -11.6543 -11.6543 -11.6537 -11.6526 -11.6454 -11.6443 -11.6443 -11.6439
   -11.6428 -11.6426 -11.6349 -11.6300 -11.6300 -11.6264 -11.6264 -11.6204
   -11.6204 -11.6197 -11.6182 -11.6173 -11.6173 -11.6163 -11.6163 -11.6139
   -11.6100 -11.6086 -11.6086 -11.6078 -11.6063 -11.6063 -11.6057 -11.6033
   -11.6026 -11.6015 -11.6008 -11.5991 -11.5981 -11.5981 -11.5972 -11.5972
    -8.2958  -8.2759  -7.7569  -7.7387  -6.9563  -6.9563  -6.9447  -6.9447
    -6.7714  -6.7714  -6.7620  -6.7620  -6.3788  -6.3735  -5.9603  -5.9592
    -1.7720  -1.2755  -1.1566  -0.8172  -0.3761  -0.3761  -0.1632  -0.1632
     0.1065   0.1065   0.2739   0.3639   0.3639   0.4929   0.4929   0.5317
     0.6866   0.9429   0.9429   1.1583   1.5624   1.9206   2.5315   2.8117
     5.2603   5.2603   5.4422   5.4523   5.4523   5.5022   5.6291   5.6507
     5.7284   5.7866   5.7866   5.8379   5.8379   5.9431   6.1681   6.2247
     6.5941   6.5941   6.9007   6.9007   6.9146   6.9299   7.0873   7.3972
     7.5941   7.5941   7.6849   7.6856   7.7213   7.7662   7.7747   7.7747
     7.8675   7.8675   8.0442   8.1588   8.2787   8.2800   8.3189   8.3189
     8.3410   8.4778   8.5258   8.5258   8.7940   8.7940   9.0645   9.1400
     9.1400   9.1547   9.2051   9.2051   9.7779   9.7779   9.9074   9.9248
     9.9248   9.9684  10.0329  10.0329  10.1420  10.1744  10.1744  10.1906
    10.2203  10.2443  10.4187  10.4511  10.5114  10.6290  10.6468  10.8333

     occupation numbers 
     1.0000   1.0000   1.0000   1.0000   1.0000   1.0000   1.0000   1.0000
     1.0000   1.0000   1.0000   1.0000   1.0000   1.0000   1.0000   1.0000
     1.0000   1.0000   1.0000   1.0000   1.0000   1.0000   1.0000   1.0000
     1.0000   1.0000   1.0000   1.0000   1.0000   1.0000   1.0000   1.0000
     1.0000   1.0000   1.0000   1.0000   1.0000   1.0000   1.0000   1.0000
     1.0000   1.0000   1.0000   1.0000   1.0000   1.0000   1.0000   1.0000
     1.0000   1.0000   1.0000   1.0000   1.0000   1.0000   1.0000   1.0000
     1.0000   1.0000   1.0000   1.0000   1.0000   1.0000   1.0000   1.0000
     1.0000   1.0000   1.0000   1.0000   1.0000   1.0000   1.0000   1.0000
     1.0000   1.0000   1.0000   1.0000   1.0000   1.0000   1.0000   1.0000
     1.0000   1.0000   1.0000   1.0000   1.0000   1.0000   1.0000   1.0000
     1.0000   1.0000   1.0000   1.0000   1.0000   1.0000   1.0000   1.0000
     1.0000   1.0000   1.0000   1.0000   1.0000   1.0000   1.0000   1.0000
     1.0000   1.0000   1.0000   1.0000   1.0000   1.0000   1.0000   1.0000
     1.0000   1.0000   1.0000   1.0000   1.0000   1.0000   1.0000   1.0000
     1.0000   1.0000   1.0000   1.0000   1.0000   1.0000   1.0000   1.0000
     1.0000   1.0000   1.0000   1.0000   1.0000   1.0000   1.0000   1.0000
     1.0000   1.0000   1.0000   1.0000   1.0000   1.0000   1.0000   1.0000
     1.0000   1.0000   1.0000   1.0000   1.0000   1.0000   1.0000   1.0000
     1.0000   1.0000   1.0000   1.0000   1.0000   1.0000   1.0000   1.0000
     1.0000   1.0000   1.0000   1.0000   1.0000   1.0000   1.0000   1.0000
     1.0000   1.0000   1.0000   1.0000   1.0000   1.0000   1.0000   1.0000
     1.0000   1.0000   1.0000   1.0000   1.0000   1.0000   1.0000   1.0000
     1.0000   1.0000   1.0000   1.0000   1.0000   1.0000   1.0000   1.0000
     1.0000   1.0000   1.0000   1.0000   1.0000   1.0000   1.0000   1.0000
     1.0000   1.0000   1.0000   1.0000   1.0000   1.0000   1.0000   1.0000
     1.0000   1.0000   1.0000   1.0000   1.0000   1.0000   1.0000   1.0000
     1.0000   1.0000   1.0000   1.0000   1.0000   1.0000   1.0000   1.0000
     1.0000   1.0000   1.0000   1.0000   1.0000   1.0000   1.0000   1.0000

          k = 0.0000 0.3333 0.2129 ( 29173 PWs)   bands (ev):

   -35.2092 -35.2092 -35.2090 -35.2089 -35.2088 -35.2088 -35.2087 -35.2085
   -35.2071 -35.2071 -35.2070 -35.2069 -35.2069 -35.2068 -35.2068 -35.2068
   -35.2019 -35.2019 -35.2018 -35.2018 -35.2018 -35.2018 -35.2018 -35.2018
   -35.2017 -35.2017 -35.2017 -35.2017 -35.2017 -35.2017 -35.2016 -35.2016
   -35.1979 -35.1978 -35.1978 -35.1978 -35.1978 -35.1977 -35.1977 -35.1976
   -11.8923 -11.8903 -11.8831 -11.8831 -11.8731 -11.8731 -11.8728 -11.8681
   -11.8513 -11.8513 -11.8393 -11.8393 -11.7609 -11.7521 -11.7149 -11.7086
   -11.7030 -11.6983 -11.6957 -11.6957 -11.6939 -11.6884 -11.6873 -11.6867
   -11.6867 -11.6846 -11.6834 -11.6834 -11.6816 -11.6798 -11.6742 -11.6693
   -11.6679 -11.6679 -11.6598 -11.6598 -11.6596 -11.6571 -11.6571 -11.6563
   -11.6556 -11.6556 -11.6542 -11.6488 -11.6478 -11.6428 -11.6423 -11.6423
   -11.6412 -11.6365 -11.6363 -11.6271 -11.6271 -11.6235 -11.6233 -11.6233
   -11.6204 -11.6204 -11.6171 -11.6171 -11.6158 -11.6146 -11.6146 -11.6117
   -11.6116 -11.6116 -11.6085 -11.6084 -11.6084 -11.6083 -11.6071 -11.6055
   -11.6032 -11.6021 -11.6009 -11.5996 -11.5987 -11.5987 -11.5976 -11.5976
    -8.2916  -8.2801  -7.7530  -7.7426  -6.9539  -6.9539  -6.9472  -6.9472
    -6.7694  -6.7694  -6.7640  -6.7640  -6.3777  -6.3747  -5.9601  -5.9595
    -1.6891  -1.4109  -1.0951  -0.9016  -0.3749  -0.3749  -0.1613  -0.1613
     0.1015   0.1015   0.3623   0.3623   0.4771   0.4967   0.4967   0.5796
     0.6656   0.9431   0.9431   0.9748   1.6337   1.8413   2.6062   2.7636
     5.2306   5.2306   5.3783   5.3783   5.4857   5.5752   5.5942   5.6666
     5.7114   5.7857   5.7857   5.8211   5.9875   5.9875   6.1797   6.2124
     6.7076   6.7076   6.8022   6.8022   6.9508   7.0033   7.0868   7.3214
     7.6283   7.6283   7.6537   7.6538   7.6934   7.6991   7.7140   7.7480
     7.8506   7.8506   8.0847   8.1465   8.2940   8.3292   8.3737   8.3737
     8.4421   8.5074   8.5074   8.5601   8.7291   8.7291   8.8880   8.9249
     9.1296   9.1296   9.1819   9.1819   9.7219   9.7219   9.9952  10.0177
    10.0306  10.0306  10.0866  10.0866  10.0911  10.1618  10.2260  10.2260
    10.2520  10.3108  10.4365  10.4490  10.5156  10.6095  10.6850  10.7925

     occupation numbers 
     1.0000   1.0000   1.0000   1.0000   1.0000   1.0000   1.0000   1.0000
     1.0000   1.0000   1.0000   1.0000   1.0000   1.0000   1.0000   1.0000
     1.0000   1.0000   1.0000   1.0000   1.0000   1.0000   1.0000   1.0000
     1.0000   1.0000   1.0000   1.0000   1.0000   1.0000   1.0000   1.0000
     1.0000   1.0000   1.0000   1.0000   1.0000   1.0000   1.0000   1.0000
     1.0000   1.0000   1.0000   1.0000   1.0000   1.0000   1.0000   1.0000
     1.0000   1.0000   1.0000   1.0000   1.0000   1.0000   1.0000   1.0000
     1.0000   1.0000   1.0000   1.0000   1.0000   1.0000   1.0000   1.0000
     1.0000   1.0000   1.0000   1.0000   1.0000   1.0000   1.0000   1.0000
     1.0000   1.0000   1.0000   1.0000   1.0000   1.0000   1.0000   1.0000
     1.0000   1.0000   1.0000   1.0000   1.0000   1.0000   1.0000   1.0000
     1.0000   1.0000   1.0000   1.0000   1.0000   1.0000   1.0000   1.0000
     1.0000   1.0000   1.0000   1.0000   1.0000   1.0000   1.0000   1.0000
     1.0000   1.0000   1.0000   1.0000   1.0000   1.0000   1.0000   1.0000
     1.0000   1.0000   1.0000   1.0000   1.0000   1.0000   1.0000   1.0000
     1.0000   1.0000   1.0000   1.0000   1.0000   1.0000   1.0000   1.0000
     1.0000   1.0000   1.0000   1.0000   1.0000   1.0000   1.0000   1.0000
     1.0000   1.0000   1.0000   1.0000   1.0000   1.0000   1.0000   1.0000
     1.0000   1.0000   1.0000   1.0000   1.0000   1.0000   1.0000   1.0000
     1.0000   1.0000   1.0000   1.0000   1.0000   1.0000   1.0000   1.0000
     1.0000   1.0000   1.0000   1.0000   1.0000   1.0000   1.0000   1.0000
     1.0000   1.0000   1.0000   1.0000   1.0000   1.0000   1.0000   1.0000
     1.0000   1.0000   1.0000   1.0000   1.0000   1.0000   1.0000   1.0000
     1.0000   1.0000   1.0000   1.0000   1.0000   1.0000   1.0000   1.0000
     1.0000   1.0000   1.0000   1.0000   1.0000   1.0000   1.0000   1.0000
     1.0000   1.0000   1.0000   1.0000   1.0000   1.0000   1.0000   1.0000
     1.0000   1.0000   1.0000   1.0000   1.0000   1.0000   1.0000   1.0000
     1.0000   1.0000   1.0000   1.0000   1.0000   1.0000   1.0000   1.0000
     1.0000   1.0000   1.0000   1.0000   1.0000   1.0000   1.0000   1.0000

          k = 0.0000 0.3333-0.3194 ( 29180 PWs)   bands (ev):

   -35.2091 -35.2091 -35.2091 -35.2091 -35.2088 -35.2088 -35.2087 -35.2086
   -35.2071 -35.2071 -35.2070 -35.2070 -35.2069 -35.2069 -35.2069 -35.2069
   -35.2020 -35.2019 -35.2018 -35.2018 -35.2018 -35.2018 -35.2018 -35.2018
   -35.2018 -35.2018 -35.2016 -35.2016 -35.2016 -35.2016 -35.2016 -35.2016
   -35.1979 -35.1979 -35.1978 -35.1978 -35.1977 -35.1977 -35.1976 -35.1976
   -11.8913 -11.8913 -11.8796 -11.8796 -11.8767 -11.8767 -11.8705 -11.8705
   -11.8503 -11.8503 -11.8404 -11.8404 -11.7567 -11.7567 -11.7094 -11.7094
   -11.7032 -11.7032 -11.6953 -11.6953 -11.6896 -11.6896 -11.6864 -11.6864
   -11.6856 -11.6856 -11.6839 -11.6839 -11.6834 -11.6834 -11.6727 -11.6727
   -11.6672 -11.6672 -11.6611 -11.6611 -11.6580 -11.6580 -11.6567 -11.6567
   -11.6561 -11.6561 -11.6516 -11.6516 -11.6448 -11.6448 -11.6414 -11.6414
   -11.6384 -11.6384 -11.6295 -11.6295 -11.6258 -11.6258 -11.6207 -11.6207
   -11.6204 -11.6204 -11.6173 -11.6173 -11.6138 -11.6138 -11.6127 -11.6127
   -11.6121 -11.6121 -11.6106 -11.6106 -11.6086 -11.6086 -11.6071 -11.6071
   -11.6032 -11.6032 -11.6002 -11.6002 -11.5990 -11.5990 -11.5979 -11.5979
    -8.2859  -8.2859  -7.7478  -7.7478  -6.9510  -6.9510  -6.9500  -6.9500
    -6.7668  -6.7668  -6.7666  -6.7666  -6.3762  -6.3762  -5.9598  -5.9598
    -1.5619  -1.5619  -1.0038  -1.0038  -0.3744  -0.3743  -0.1603  -0.1603
     0.0991   0.0991   0.3614   0.3614   0.4985   0.4985   0.6290   0.6290
     0.7302   0.7302   0.9432   0.9432   1.7356   1.7356   2.6910   2.6910
     5.2165   5.2165   5.3510   5.3510   5.5420   5.5420   5.6874   5.6874
     5.6887   5.6887   5.7859   5.7859   6.0623   6.0623   6.1959   6.1959
     6.7443   6.7443   6.7705   6.7705   6.9831   6.9831   7.2055   7.2055
     7.5946   7.5946   7.6463   7.6463   7.7039   7.7039   7.7228   7.7228
     7.8403   7.8403   8.1224   8.1224   8.3121   8.3121   8.3771   8.3771
     8.4986   8.4986   8.6620   8.6620   8.7122   8.7122   8.7125   8.7125
     9.1230   9.1230   9.1807   9.1807   9.6999   9.6999  10.0381  10.0381
    10.0729  10.0729  10.0912  10.0912  10.1082  10.1082  10.2509  10.2509
    10.3409  10.3409  10.4092  10.4092  10.5722  10.5722  10.7381  10.7381

     occupation numbers 
     1.0000   1.0000   1.0000   1.0000   1.0000   1.0000   1.0000   1.0000
     1.0000   1.0000   1.0000   1.0000   1.0000   1.0000   1.0000   1.0000
     1.0000   1.0000   1.0000   1.0000   1.0000   1.0000   1.0000   1.0000
     1.0000   1.0000   1.0000   1.0000   1.0000   1.0000   1.0000   1.0000
     1.0000   1.0000   1.0000   1.0000   1.0000   1.0000   1.0000   1.0000
     1.0000   1.0000   1.0000   1.0000   1.0000   1.0000   1.0000   1.0000
     1.0000   1.0000   1.0000   1.0000   1.0000   1.0000   1.0000   1.0000
     1.0000   1.0000   1.0000   1.0000   1.0000   1.0000   1.0000   1.0000
     1.0000   1.0000   1.0000   1.0000   1.0000   1.0000   1.0000   1.0000
     1.0000   1.0000   1.0000   1.0000   1.0000   1.0000   1.0000   1.0000
     1.0000   1.0000   1.0000   1.0000   1.0000   1.0000   1.0000   1.0000
     1.0000   1.0000   1.0000   1.0000   1.0000   1.0000   1.0000   1.0000
     1.0000   1.0000   1.0000   1.0000   1.0000   1.0000   1.0000   1.0000
     1.0000   1.0000   1.0000   1.0000   1.0000   1.0000   1.0000   1.0000
     1.0000   1.0000   1.0000   1.0000   1.0000   1.0000   1.0000   1.0000
     1.0000   1.0000   1.0000   1.0000   1.0000   1.0000   1.0000   1.0000
     1.0000   1.0000   1.0000   1.0000   1.0000   1.0000   1.0000   1.0000
     1.0000   1.0000   1.0000   1.0000   1.0000   1.0000   1.0000   1.0000
     1.0000   1.0000   1.0000   1.0000   1.0000   1.0000   1.0000   1.0000
     1.0000   1.0000   1.0000   1.0000   1.0000   1.0000   1.0000   1.0000
     1.0000   1.0000   1.0000   1.0000   1.0000   1.0000   1.0000   1.0000
     1.0000   1.0000   1.0000   1.0000   1.0000   1.0000   1.0000   1.0000
     1.0000   1.0000   1.0000   1.0000   1.0000   1.0000   1.0000   1.0000
     1.0000   1.0000   1.0000   1.0000   1.0000   1.0000   1.0000   1.0000
     1.0000   1.0000   1.0000   1.0000   1.0000   1.0000   1.0000   1.0000
     1.0000   1.0000   1.0000   1.0000   1.0000   1.0000   1.0000   1.0000
     1.0000   1.0000   1.0000   1.0000   1.0000   1.0000   1.0000   1.0000
     1.0000   1.0000   1.0000   1.0000   1.0000   1.0000   1.0000   1.0000
     1.0000   1.0000   1.0000   1.0000   1.0000   1.0000   1.0000   1.0000

          k = 0.0000-0.5000 0.0000 ( 29172 PWs)   bands (ev):

   -35.2091 -35.2091 -35.2091 -35.2091 -35.2089 -35.2089 -35.2089 -35.2089
   -35.2070 -35.2070 -35.2070 -35.2070 -35.2069 -35.2069 -35.2068 -35.2068
   -35.2019 -35.2019 -35.2019 -35.2019 -35.2019 -35.2019 -35.2018 -35.2018
   -35.2017 -35.2017 -35.2016 -35.2016 -35.2015 -35.2015 -35.2015 -35.2015
   -35.1979 -35.1979 -35.1979 -35.1979 -35.1978 -35.1978 -35.1973 -35.1973
   -11.8852 -11.8852 -11.8788 -11.8788 -11.8704 -11.8704 -11.8704 -11.8704
   -11.8521 -11.8521 -11.8521 -11.8521 -11.7219 -11.7219 -11.7179 -11.7179
   -11.7048 -11.7048 -11.6945 -11.6945 -11.6911 -11.6911 -11.6911 -11.6911
   -11.6885 -11.6885 -11.6774 -11.6774 -11.6770 -11.6770 -11.6762 -11.6762
   -11.6579 -11.6579 -11.6567 -11.6567 -11.6567 -11.6567 -11.6565 -11.6565
   -11.6551 -11.6551 -11.6538 -11.6538 -11.6538 -11.6538 -11.6434 -11.6434
   -11.6382 -11.6382 -11.6382 -11.6382 -11.6332 -11.6332 -11.6263 -11.6263
   -11.6263 -11.6263 -11.6224 -11.6224 -11.6224 -11.6224 -11.6128 -11.6128
   -11.6118 -11.6118 -11.6072 -11.6072 -11.6072 -11.6072 -11.6052 -11.6052
   -11.6010 -11.6010 -11.6006 -11.6006 -11.5974 -11.5974 -11.5974 -11.5974
    -8.0617  -8.0617  -8.0393  -8.0392  -6.8668  -6.8668  -6.8668  -6.8668
    -6.8546  -6.8546  -6.8546  -6.8546  -6.1326  -6.1326  -6.1295  -6.1295
    -1.5360  -1.5359  -1.0224  -1.0224  -0.2681  -0.2681  -0.2681  -0.2680
     0.2425   0.2425   0.2425   0.2425   0.3140   0.3140   0.7218   0.7218
     0.7218   0.7218   0.9640   0.9640   2.2186   2.2186   2.2775   2.2775
     5.2960   5.2960   5.2960   5.2960   5.3924   5.3925   5.6982   5.6982
     5.6982   5.6982   5.8206   5.8206   5.8681   5.8682   5.9467   5.9467
     6.7748   6.7748   6.7748   6.7748   7.2643   7.2644   7.4773   7.4773
     7.5029   7.5029   7.6272   7.6272   7.9249   7.9249   7.9249   7.9249
     8.0167   8.0167   8.0692   8.0692   8.3101   8.3101   8.3263   8.3263
     8.3263   8.3263   8.5365   8.5365   8.5366   8.5366   9.2488   9.2488
     9.4441   9.4441   9.4441   9.4441   9.5242   9.5242   9.5242   9.5242
     9.7952   9.7952   9.7952   9.7952  10.1139  10.1139  10.1262  10.1262
    10.2834  10.2834  10.3786  10.3786  10.4496  10.4496  10.6847  10.6847

     occupation numbers 
     1.0000   1.0000   1.0000   1.0000   1.0000   1.0000   1.0000   1.0000
     1.0000   1.0000   1.0000   1.0000   1.0000   1.0000   1.0000   1.0000
     1.0000   1.0000   1.0000   1.0000   1.0000   1.0000   1.0000   1.0000
     1.0000   1.0000   1.0000   1.0000   1.0000   1.0000   1.0000   1.0000
     1.0000   1.0000   1.0000   1.0000   1.0000   1.0000   1.0000   1.0000
     1.0000   1.0000   1.0000   1.0000   1.0000   1.0000   1.0000   1.0000
     1.0000   1.0000   1.0000   1.0000   1.0000   1.0000   1.0000   1.0000
     1.0000   1.0000   1.0000   1.0000   1.0000   1.0000   1.0000   1.0000
     1.0000   1.0000   1.0000   1.0000   1.0000   1.0000   1.0000   1.0000
     1.0000   1.0000   1.0000   1.0000   1.0000   1.0000   1.0000   1.0000
     1.0000   1.0000   1.0000   1.0000   1.0000   1.0000   1.0000   1.0000
     1.0000   1.0000   1.0000   1.0000   1.0000   1.0000   1.0000   1.0000
     1.0000   1.0000   1.0000   1.0000   1.0000   1.0000   1.0000   1.0000
     1.0000   1.0000   1.0000   1.0000   1.0000   1.0000   1.0000   1.0000
     1.0000   1.0000   1.0000   1.0000   1.0000   1.0000   1.0000   1.0000
     1.0000   1.0000   1.0000   1.0000   1.0000   1.0000   1.0000   1.0000
     1.0000   1.0000   1.0000   1.0000   1.0000   1.0000   1.0000   1.0000
     1.0000   1.0000   1.0000   1.0000   1.0000   1.0000   1.0000   1.0000
     1.0000   1.0000   1.0000   1.0000   1.0000   1.0000   1.0000   1.0000
     1.0000   1.0000   1.0000   1.0000   1.0000   1.0000   1.0000   1.0000
     1.0000   1.0000   1.0000   1.0000   1.0000   1.0000   1.0000   1.0000
     1.0000   1.0000   1.0000   1.0000   1.0000   1.0000   1.0000   1.0000
     1.0000   1.0000   1.0000   1.0000   1.0000   1.0000   1.0000   1.0000
     1.0000   1.0000   1.0000   1.0000   1.0000   1.0000   1.0000   1.0000
     1.0000   1.0000   1.0000   1.0000   1.0000   1.0000   1.0000   1.0000
     1.0000   1.0000   1.0000   1.0000   1.0000   1.0000   1.0000   1.0000
     1.0000   1.0000   1.0000   1.0000   1.0000   1.0000   1.0000   1.0000
     1.0000   1.0000   1.0000   1.0000   1.0000   1.0000   1.0000   1.0000
     1.0000   1.0000   1.0000   1.0000   1.0000   1.0000   1.0000   1.0000

          k = 0.0000-0.5000 0.1065 ( 29170 PWs)   bands (ev):

   -35.2091 -35.2091 -35.2091 -35.2091 -35.2089 -35.2089 -35.2088 -35.2088
   -35.2070 -35.2070 -35.2070 -35.2070 -35.2069 -35.2069 -35.2069 -35.2069
   -35.2018 -35.2018 -35.2018 -35.2018 -35.2017 -35.2017 -35.2017 -35.2017
   -35.2017 -35.2017 -35.2016 -35.2016 -35.2016 -35.2016 -35.2015 -35.2015
   -35.1980 -35.1979 -35.1979 -35.1979 -35.1979 -35.1979 -35.1976 -35.1976
   -11.8848 -11.8848 -11.8793 -11.8793 -11.8694 -11.8694 -11.8694 -11.8694
   -11.8533 -11.8533 -11.8533 -11.8533 -11.7213 -11.7213 -11.7176 -11.7176
   -11.7046 -11.7046 -11.6936 -11.6936 -11.6908 -11.6908 -11.6908 -11.6908
   -11.6904 -11.6904 -11.6781 -11.6781 -11.6773 -11.6773 -11.6773 -11.6773
   -11.6576 -11.6576 -11.6571 -11.6571 -11.6571 -11.6571 -11.6561 -11.6561
   -11.6538 -11.6538 -11.6538 -11.6538 -11.6537 -11.6537 -11.6440 -11.6440
   -11.6385 -11.6385 -11.6385 -11.6385 -11.6317 -11.6317 -11.6252 -11.6252
   -11.6251 -11.6251 -11.6218 -11.6218 -11.6218 -11.6218 -11.6139 -11.6139
   -11.6111 -11.6111 -11.6082 -11.6082 -11.6082 -11.6082 -11.6050 -11.6050
   -11.6012 -11.6012 -11.6011 -11.6011 -11.5976 -11.5976 -11.5976 -11.5976
    -8.0602  -8.0602  -8.0408  -8.0408  -6.8660  -6.8660  -6.8660  -6.8660
    -6.8555  -6.8555  -6.8555  -6.8554  -6.1324  -6.1323  -6.1297  -6.1297
    -1.5099  -1.5099  -1.0710  -1.0710  -0.2680  -0.2680  -0.2680  -0.2680
     0.2428   0.2428   0.2428   0.2428   0.3729   0.3729   0.7216   0.7216
     0.7216   0.7216   0.9303   0.9303   2.2201   2.2201   2.2705   2.2705
     5.2573   5.2573   5.2573   5.2573   5.4170   5.4170   5.7522   5.7522
     5.7522   5.7522   5.7860   5.7860   5.8732   5.8732   5.9412   5.9412
     6.7854   6.7854   6.7854   6.7854   7.2899   7.2900   7.4728   7.4728
     7.5089   7.5089   7.6157   7.6157   7.8742   7.8742   7.8742   7.8742
     8.0205   8.0205   8.0660   8.0660   8.3177   8.3177   8.3177   8.3177
     8.3564   8.3564   8.5514   8.5514   8.5514   8.5514   9.1516   9.1516
     9.4019   9.4019   9.4019   9.4019   9.5003   9.5003   9.5003   9.5003
     9.9015   9.9015   9.9015   9.9015  10.1311  10.1311  10.1418  10.1418
    10.3057  10.3057  10.3973  10.3973  10.4511  10.4511  10.6621  10.6621

     occupation numbers 
     1.0000   1.0000   1.0000   1.0000   1.0000   1.0000   1.0000   1.0000
     1.0000   1.0000   1.0000   1.0000   1.0000   1.0000   1.0000   1.0000
     1.0000   1.0000   1.0000   1.0000   1.0000   1.0000   1.0000   1.0000
     1.0000   1.0000   1.0000   1.0000   1.0000   1.0000   1.0000   1.0000
     1.0000   1.0000   1.0000   1.0000   1.0000   1.0000   1.0000   1.0000
     1.0000   1.0000   1.0000   1.0000   1.0000   1.0000   1.0000   1.0000
     1.0000   1.0000   1.0000   1.0000   1.0000   1.0000   1.0000   1.0000
     1.0000   1.0000   1.0000   1.0000   1.0000   1.0000   1.0000   1.0000
     1.0000   1.0000   1.0000   1.0000   1.0000   1.0000   1.0000   1.0000
     1.0000   1.0000   1.0000   1.0000   1.0000   1.0000   1.0000   1.0000
     1.0000   1.0000   1.0000   1.0000   1.0000   1.0000   1.0000   1.0000
     1.0000   1.0000   1.0000   1.0000   1.0000   1.0000   1.0000   1.0000
     1.0000   1.0000   1.0000   1.0000   1.0000   1.0000   1.0000   1.0000
     1.0000   1.0000   1.0000   1.0000   1.0000   1.0000   1.0000   1.0000
     1.0000   1.0000   1.0000   1.0000   1.0000   1.0000   1.0000   1.0000
     1.0000   1.0000   1.0000   1.0000   1.0000   1.0000   1.0000   1.0000
     1.0000   1.0000   1.0000   1.0000   1.0000   1.0000   1.0000   1.0000
     1.0000   1.0000   1.0000   1.0000   1.0000   1.0000   1.0000   1.0000
     1.0000   1.0000   1.0000   1.0000   1.0000   1.0000   1.0000   1.0000
     1.0000   1.0000   1.0000   1.0000   1.0000   1.0000   1.0000   1.0000
     1.0000   1.0000   1.0000   1.0000   1.0000   1.0000   1.0000   1.0000
     1.0000   1.0000   1.0000   1.0000   1.0000   1.0000   1.0000   1.0000
     1.0000   1.0000   1.0000   1.0000   1.0000   1.0000   1.0000   1.0000
     1.0000   1.0000   1.0000   1.0000   1.0000   1.0000   1.0000   1.0000
     1.0000   1.0000   1.0000   1.0000   1.0000   1.0000   1.0000   1.0000
     1.0000   1.0000   1.0000   1.0000   1.0000   1.0000   1.0000   1.0000
     1.0000   1.0000   1.0000   1.0000   1.0000   1.0000   1.0000   1.0000
     1.0000   1.0000   1.0000   1.0000   1.0000   1.0000   1.0000   1.0000
     1.0000   1.0000   1.0000   1.0000   1.0000   1.0000   1.0000   1.0000

          k = 0.0000-0.5000 0.2129 ( 29198 PWs)   bands (ev):

   -35.2091 -35.2091 -35.2091 -35.2091 -35.2089 -35.2089 -35.2089 -35.2089
   -35.2070 -35.2070 -35.2070 -35.2070 -35.2069 -35.2069 -35.2069 -35.2069
   -35.2019 -35.2019 -35.2018 -35.2018 -35.2018 -35.2018 -35.2018 -35.2018
   -35.2018 -35.2018 -35.2018 -35.2018 -35.2017 -35.2017 -35.2017 -35.2017
   -35.1979 -35.1979 -35.1979 -35.1979 -35.1977 -35.1977 -35.1977 -35.1977
   -11.8837 -11.8837 -11.8805 -11.8805 -11.8669 -11.8669 -11.8669 -11.8669
   -11.8563 -11.8563 -11.8563 -11.8562 -11.7201 -11.7201 -11.7175 -11.7175
   -11.7034 -11.7034 -11.6950 -11.6950 -11.6910 -11.6910 -11.6901 -11.6901
   -11.6901 -11.6901 -11.6824 -11.6824 -11.6776 -11.6776 -11.6773 -11.6773
   -11.6579 -11.6579 -11.6579 -11.6579 -11.6569 -11.6569 -11.6557 -11.6557
   -11.6537 -11.6537 -11.6537 -11.6537 -11.6509 -11.6509 -11.6455 -11.6455
   -11.6389 -11.6389 -11.6389 -11.6389 -11.6275 -11.6275 -11.6232 -11.6232
   -11.6232 -11.6232 -11.6193 -11.6193 -11.6193 -11.6193 -11.6172 -11.6172
   -11.6111 -11.6111 -11.6111 -11.6111 -11.6092 -11.6092 -11.6051 -11.6051
   -11.6023 -11.6023 -11.6017 -11.6017 -11.5981 -11.5981 -11.5981 -11.5981
    -8.0561  -8.0561  -8.0449  -8.0449  -6.8638  -6.8638  -6.8638  -6.8638
    -6.8577  -6.8577  -6.8577  -6.8577  -6.1318  -6.1318  -6.1303  -6.1303
    -1.4347  -1.4347  -1.1874  -1.1874  -0.2679  -0.2679  -0.2679  -0.2679
     0.2432   0.2432   0.2432   0.2432   0.5165   0.5165   0.7213   0.7213
     0.7213   0.7213   0.8329   0.8329   2.2256   2.2256   2.2539   2.2539
     5.1978   5.1978   5.1978   5.1978   5.4863   5.4863   5.6973   5.6973
     5.8431   5.8431   5.8431   5.8431   5.8871   5.8871   5.9264   5.9264
     6.8101   6.8101   6.8101   6.8101   7.3514   7.3514   7.4555   7.4555
     7.5251   7.5251   7.5855   7.5855   7.7746   7.7746   7.7746   7.7746
     8.0307   8.0307   8.0569   8.0569   8.3002   8.3002   8.3002   8.3002
     8.4902   8.4902   8.5756   8.5756   8.5756   8.5756   8.9337   8.9337
     9.3131   9.3131   9.3131   9.3131   9.5251   9.5251   9.5251   9.5251
    10.0467  10.0467  10.0467  10.0467  10.1436  10.1436  10.1633  10.1633
    10.3697  10.3697  10.4490  10.4490  10.4496  10.4496  10.6022  10.6022

     occupation numbers 
     1.0000   1.0000   1.0000   1.0000   1.0000   1.0000   1.0000   1.0000
     1.0000   1.0000   1.0000   1.0000   1.0000   1.0000   1.0000   1.0000
     1.0000   1.0000   1.0000   1.0000   1.0000   1.0000   1.0000   1.0000
     1.0000   1.0000   1.0000   1.0000   1.0000   1.0000   1.0000   1.0000
     1.0000   1.0000   1.0000   1.0000   1.0000   1.0000   1.0000   1.0000
     1.0000   1.0000   1.0000   1.0000   1.0000   1.0000   1.0000   1.0000
     1.0000   1.0000   1.0000   1.0000   1.0000   1.0000   1.0000   1.0000
     1.0000   1.0000   1.0000   1.0000   1.0000   1.0000   1.0000   1.0000
     1.0000   1.0000   1.0000   1.0000   1.0000   1.0000   1.0000   1.0000
     1.0000   1.0000   1.0000   1.0000   1.0000   1.0000   1.0000   1.0000
     1.0000   1.0000   1.0000   1.0000   1.0000   1.0000   1.0000   1.0000
     1.0000   1.0000   1.0000   1.0000   1.0000   1.0000   1.0000   1.0000
     1.0000   1.0000   1.0000   1.0000   1.0000   1.0000   1.0000   1.0000
     1.0000   1.0000   1.0000   1.0000   1.0000   1.0000   1.0000   1.0000
     1.0000   1.0000   1.0000   1.0000   1.0000   1.0000   1.0000   1.0000
     1.0000   1.0000   1.0000   1.0000   1.0000   1.0000   1.0000   1.0000
     1.0000   1.0000   1.0000   1.0000   1.0000   1.0000   1.0000   1.0000
     1.0000   1.0000   1.0000   1.0000   1.0000   1.0000   1.0000   1.0000
     1.0000   1.0000   1.0000   1.0000   1.0000   1.0000   1.0000   1.0000
     1.0000   1.0000   1.0000   1.0000   1.0000   1.0000   1.0000   1.0000
     1.0000   1.0000   1.0000   1.0000   1.0000   1.0000   1.0000   1.0000
     1.0000   1.0000   1.0000   1.0000   1.0000   1.0000   1.0000   1.0000
     1.0000   1.0000   1.0000   1.0000   1.0000   1.0000   1.0000   1.0000
     1.0000   1.0000   1.0000   1.0000   1.0000   1.0000   1.0000   1.0000
     1.0000   1.0000   1.0000   1.0000   1.0000   1.0000   1.0000   1.0000
     1.0000   1.0000   1.0000   1.0000   1.0000   1.0000   1.0000   1.0000
     1.0000   1.0000   1.0000   1.0000   1.0000   1.0000   1.0000   1.0000
     1.0000   1.0000   1.0000   1.0000   1.0000   1.0000   1.0000   1.0000
     1.0000   1.0000   1.0000   1.0000   1.0000   1.0000   1.0000   1.0000

          k = 0.0000-0.5000-0.3194 ( 29176 PWs)   bands (ev):

   -35.2092 -35.2091 -35.2091 -35.2091 -35.2088 -35.2088 -35.2088 -35.2088
   -35.2070 -35.2070 -35.2070 -35.2070 -35.2068 -35.2068 -35.2068 -35.2068
   -35.2019 -35.2019 -35.2019 -35.2019 -35.2019 -35.2019 -35.2019 -35.2019
   -35.2018 -35.2018 -35.2017 -35.2017 -35.2015 -35.2015 -35.2015 -35.2015
   -35.1978 -35.1978 -35.1978 -35.1978 -35.1977 -35.1977 -35.1977 -35.1977
   -11.8821 -11.8821 -11.8821 -11.8821 -11.8648 -11.8648 -11.8648 -11.8648
   -11.8585 -11.8585 -11.8585 -11.8585 -11.7184 -11.7184 -11.7184 -11.7184
   -11.6999 -11.6999 -11.6999 -11.6999 -11.6898 -11.6898 -11.6898 -11.6898
   -11.6870 -11.6870 -11.6870 -11.6870 -11.6774 -11.6774 -11.6774 -11.6774
   -11.6584 -11.6584 -11.6584 -11.6584 -11.6560 -11.6560 -11.6560 -11.6560
   -11.6537 -11.6537 -11.6537 -11.6537 -11.6478 -11.6478 -11.6478 -11.6478
   -11.6391 -11.6391 -11.6391 -11.6391 -11.6226 -11.6226 -11.6226 -11.6225
   -11.6221 -11.6221 -11.6221 -11.6221 -11.6156 -11.6156 -11.6156 -11.6156
   -11.6150 -11.6150 -11.6150 -11.6150 -11.6067 -11.6067 -11.6067 -11.6067
   -11.6023 -11.6023 -11.6023 -11.6023 -11.5983 -11.5983 -11.5983 -11.5983
    -8.0505  -8.0505  -8.0505  -8.0505  -6.8611  -6.8610  -6.8610  -6.8610
    -6.8605  -6.8605  -6.8605  -6.8604  -6.1310  -6.1310  -6.1310  -6.1310
    -1.3206  -1.3206  -1.3206  -1.3206  -0.2678  -0.2678  -0.2678  -0.2678
     0.2434   0.2434   0.2434   0.2434   0.6855   0.6855   0.6855   0.6855
     0.7211   0.7211   0.7211   0.7211   2.2370   2.2370   2.2370   2.2370
     5.1733   5.1733   5.1733   5.1733   5.5871   5.5871   5.5872   5.5872
     5.8838   5.8838   5.8838   5.8838   5.9065   5.9065   5.9065   5.9065
     6.8247   6.8247   6.8247   6.8247   7.4152   7.4152   7.4152   7.4152
     7.5508   7.5508   7.5508   7.5508   7.7243   7.7243   7.7243   7.7243
     8.0441   8.0441   8.0441   8.0441   8.2914   8.2914   8.2914   8.2914
     8.5856   8.5856   8.5856   8.5856   8.6938   8.6938   8.6938   8.6938
     9.2788   9.2788   9.2788   9.2788   9.5407   9.5407   9.5407   9.5407
    10.1065  10.1065  10.1065  10.1065  10.1578  10.1578  10.1578  10.1578
    10.4260  10.4260  10.4260  10.4260  10.5240  10.5240  10.5240  10.5240

     occupation numbers 
     1.0000   1.0000   1.0000   1.0000   1.0000   1.0000   1.0000   1.0000
     1.0000   1.0000   1.0000   1.0000   1.0000   1.0000   1.0000   1.0000
     1.0000   1.0000   1.0000   1.0000   1.0000   1.0000   1.0000   1.0000
     1.0000   1.0000   1.0000   1.0000   1.0000   1.0000   1.0000   1.0000
     1.0000   1.0000   1.0000   1.0000   1.0000   1.0000   1.0000   1.0000
     1.0000   1.0000   1.0000   1.0000   1.0000   1.0000   1.0000   1.0000
     1.0000   1.0000   1.0000   1.0000   1.0000   1.0000   1.0000   1.0000
     1.0000   1.0000   1.0000   1.0000   1.0000   1.0000   1.0000   1.0000
     1.0000   1.0000   1.0000   1.0000   1.0000   1.0000   1.0000   1.0000
     1.0000   1.0000   1.0000   1.0000   1.0000   1.0000   1.0000   1.0000
     1.0000   1.0000   1.0000   1.0000   1.0000   1.0000   1.0000   1.0000
     1.0000   1.0000   1.0000   1.0000   1.0000   1.0000   1.0000   1.0000
     1.0000   1.0000   1.0000   1.0000   1.0000   1.0000   1.0000   1.0000
     1.0000   1.0000   1.0000   1.0000   1.0000   1.0000   1.0000   1.0000
     1.0000   1.0000   1.0000   1.0000   1.0000   1.0000   1.0000   1.0000
     1.0000   1.0000   1.0000   1.0000   1.0000   1.0000   1.0000   1.0000
     1.0000   1.0000   1.0000   1.0000   1.0000   1.0000   1.0000   1.0000
     1.0000   1.0000   1.0000   1.0000   1.0000   1.0000   1.0000   1.0000
     1.0000   1.0000   1.0000   1.0000   1.0000   1.0000   1.0000   1.0000
     1.0000   1.0000   1.0000   1.0000   1.0000   1.0000   1.0000   1.0000
     1.0000   1.0000   1.0000   1.0000   1.0000   1.0000   1.0000   1.0000
     1.0000   1.0000   1.0000   1.0000   1.0000   1.0000   1.0000   1.0000
     1.0000   1.0000   1.0000   1.0000   1.0000   1.0000   1.0000   1.0000
     1.0000   1.0000   1.0000   1.0000   1.0000   1.0000   1.0000   1.0000
     1.0000   1.0000   1.0000   1.0000   1.0000   1.0000   1.0000   1.0000
     1.0000   1.0000   1.0000   1.0000   1.0000   1.0000   1.0000   1.0000
     1.0000   1.0000   1.0000   1.0000   1.0000   1.0000   1.0000   1.0000
     1.0000   1.0000   1.0000   1.0000   1.0000   1.0000   1.0000   1.0000
     1.0000   1.0000   1.0000   1.0000   1.0000   1.0000   1.0000   1.0000

          k = 0.1667 0.1667 0.0000 ( 29209 PWs)   bands (ev):

   -35.2093 -35.2092 -35.2092 -35.2091 -35.2088 -35.2088 -35.2086 -35.2086
   -35.2071 -35.2071 -35.2070 -35.2070 -35.2069 -35.2068 -35.2068 -35.2068
   -35.2020 -35.2020 -35.2019 -35.2019 -35.2019 -35.2018 -35.2018 -35.2018
   -35.2017 -35.2017 -35.2017 -35.2017 -35.2017 -35.2017 -35.2017 -35.2015
   -35.1982 -35.1979 -35.1979 -35.1979 -35.1979 -35.1977 -35.1977 -35.1976
   -11.9007 -11.8972 -11.8941 -11.8899 -11.8816 -11.8695 -11.8629 -11.8629
   -11.8496 -11.8496 -11.8111 -11.8111 -11.7934 -11.7934 -11.7204 -11.7078
   -11.7078 -11.6999 -11.6974 -11.6974 -11.6958 -11.6885 -11.6883 -11.6856
   -11.6846 -11.6830 -11.6829 -11.6829 -11.6803 -11.6788 -11.6702 -11.6702
   -11.6683 -11.6683 -11.6654 -11.6654 -11.6603 -11.6603 -11.6556 -11.6551
   -11.6543 -11.6543 -11.6524 -11.6509 -11.6441 -11.6441 -11.6431 -11.6397
   -11.6389 -11.6338 -11.6338 -11.6302 -11.6288 -11.6286 -11.6226 -11.6208
   -11.6165 -11.6148 -11.6125 -11.6125 -11.6120 -11.6116 -11.6116 -11.6095
   -11.6094 -11.6080 -11.6072 -11.6062 -11.6062 -11.6055 -11.6034 -11.6034
   -11.6023 -11.6023 -11.6004 -11.5991 -11.5984 -11.5984 -11.5980 -11.5978
    -8.3964  -8.3734  -7.3783  -7.3783  -7.3604  -7.3604  -6.8299  -6.8182
    -6.6781  -6.6781  -6.6682  -6.6682  -6.6200  -6.6115  -5.8908  -5.8902
    -1.9084  -1.3008  -0.7336  -0.7336  -0.5282  -0.5282  -0.1861  -0.1288
    -0.0676   0.1449   0.2377   0.2720   0.4370   0.4370   0.4852   0.7523
     0.7523   0.8682   0.8682   1.3559   1.4915   1.4915   2.5793   3.1187
     5.2244   5.3793   5.4689   5.5456   5.5456   5.5902   5.6361   5.6587
     5.7493   5.7769   5.7769   5.9922   6.1507   6.1716   6.1716   6.3541
     6.3541   6.7688   6.8236   6.8236   6.8361   6.8361   7.0538   7.0538
     7.1601   7.1601   7.4401   7.4401   7.4750   7.5816   7.6889   7.6889
     7.8236   7.8605   7.9733   8.2388   8.2490   8.2962   8.3427   8.3704
     8.3704   8.6857   8.7169   8.8531   8.8531   8.9011   9.1283   9.1338
     9.1730   9.2781   9.2813   9.2863   9.6525   9.8259   9.8259   9.8390
     9.9416  10.0028  10.0028  10.0689  10.1753  10.2053  10.2703  10.2703
    10.4477  10.4741  10.4741  10.5227  10.7725  10.7725  10.9310  10.9310

     occupation numbers 
     1.0000   1.0000   1.0000   1.0000   1.0000   1.0000   1.0000   1.0000
     1.0000   1.0000   1.0000   1.0000   1.0000   1.0000   1.0000   1.0000
     1.0000   1.0000   1.0000   1.0000   1.0000   1.0000   1.0000   1.0000
     1.0000   1.0000   1.0000   1.0000   1.0000   1.0000   1.0000   1.0000
     1.0000   1.0000   1.0000   1.0000   1.0000   1.0000   1.0000   1.0000
     1.0000   1.0000   1.0000   1.0000   1.0000   1.0000   1.0000   1.0000
     1.0000   1.0000   1.0000   1.0000   1.0000   1.0000   1.0000   1.0000
     1.0000   1.0000   1.0000   1.0000   1.0000   1.0000   1.0000   1.0000
     1.0000   1.0000   1.0000   1.0000   1.0000   1.0000   1.0000   1.0000
     1.0000   1.0000   1.0000   1.0000   1.0000   1.0000   1.0000   1.0000
     1.0000   1.0000   1.0000   1.0000   1.0000   1.0000   1.0000   1.0000
     1.0000   1.0000   1.0000   1.0000   1.0000   1.0000   1.0000   1.0000
     1.0000   1.0000   1.0000   1.0000   1.0000   1.0000   1.0000   1.0000
     1.0000   1.0000   1.0000   1.0000   1.0000   1.0000   1.0000   1.0000
     1.0000   1.0000   1.0000   1.0000   1.0000   1.0000   1.0000   1.0000
     1.0000   1.0000   1.0000   1.0000   1.0000   1.0000   1.0000   1.0000
     1.0000   1.0000   1.0000   1.0000   1.0000   1.0000   1.0000   1.0000
     1.0000   1.0000   1.0000   1.0000   1.0000   1.0000   1.0000   1.0000
     1.0000   1.0000   1.0000   1.0000   1.0000   1.0000   1.0000   1.0000
     1.0000   1.0000   1.0000   1.0000   1.0000   1.0000   1.0000   1.0000
     1.0000   1.0000   1.0000   1.0000   1.0000   1.0000   1.0000   1.0000
     1.0000   1.0000   1.0000   1.0000   1.0000   1.0000   1.0000   1.0000
     1.0000   1.0000   1.0000   1.0000   1.0000   1.0000   1.0000   1.0000
     1.0000   1.0000   1.0000   1.0000   1.0000   1.0000   1.0000   1.0000
     1.0000   1.0000   1.0000   1.0000   1.0000   1.0000   1.0000   1.0000
     1.0000   1.0000   1.0000   1.0000   1.0000   1.0000   1.0000   1.0000
     1.0000   1.0000   1.0000   1.0000   1.0000   1.0000   1.0000   1.0000
     1.0000   1.0000   1.0000   1.0000   1.0000   1.0000   1.0000   1.0000
     1.0000   1.0000   1.0000   1.0000   1.0000   1.0000   1.0000   1.0000

          k = 0.1667 0.1667 0.1065 ( 29209 PWs)   bands (ev):

   -35.2092 -35.2092 -35.2090 -35.2090 -35.2088 -35.2088 -35.2086 -35.2086
   -35.2071 -35.2070 -35.2070 -35.2070 -35.2069 -35.2069 -35.2069 -35.2069
   -35.2019 -35.2019 -35.2019 -35.2019 -35.2019 -35.2018 -35.2018 -35.2018
   -35.2018 -35.2018 -35.2017 -35.2017 -35.2017 -35.2016 -35.2016 -35.2015
   -35.1981 -35.1980 -35.1979 -35.1979 -35.1979 -35.1977 -35.1977 -35.1977
   -11.8995 -11.8970 -11.8943 -11.8886 -11.8830 -11.8711 -11.8622 -11.8622
   -11.8508 -11.8508 -11.8098 -11.8098 -11.7945 -11.7945 -11.7190 -11.7068
   -11.7068 -11.6988 -11.6976 -11.6976 -11.6949 -11.6925 -11.6881 -11.6855
   -11.6845 -11.6831 -11.6824 -11.6824 -11.6819 -11.6797 -11.6722 -11.6722
   -11.6671 -11.6671 -11.6658 -11.6658 -11.6615 -11.6615 -11.6566 -11.6564
   -11.6564 -11.6542 -11.6540 -11.6469 -11.6414 -11.6412 -11.6412 -11.6397
   -11.6388 -11.6329 -11.6329 -11.6288 -11.6274 -11.6265 -11.6222 -11.6220
   -11.6171 -11.6150 -11.6121 -11.6120 -11.6120 -11.6111 -11.6111 -11.6098
   -11.6094 -11.6094 -11.6083 -11.6064 -11.6063 -11.6063 -11.6036 -11.6036
   -11.6029 -11.6029 -11.6002 -11.5992 -11.5991 -11.5991 -11.5981 -11.5980
    -8.3949  -8.3750  -7.3771  -7.3771  -7.3616  -7.3616  -6.8291  -6.8190
    -6.6774  -6.6774  -6.6689  -6.6689  -6.6194  -6.6121  -5.8908  -5.8903
    -1.8789  -1.3622  -0.7204  -0.7204  -0.5424  -0.5424  -0.1825  -0.1329
    -0.0564   0.1735   0.2351   0.3308   0.4437   0.4437   0.4808   0.6692
     0.6692   0.9720   0.9720   1.2635   1.4644   1.4644   2.6366   3.0929
     5.2335   5.3878   5.4655   5.5516   5.5516   5.5640   5.6167   5.6431
     5.7411   5.7437   5.7437   6.0926   6.1147   6.2070   6.2070   6.4042
     6.4042   6.7318   6.8028   6.8028   6.8130   6.8130   7.0096   7.0096
     7.1367   7.1367   7.4950   7.4950   7.5144   7.6782   7.6848   7.6848
     7.8022   7.8346   7.9642   8.2345   8.2470   8.3683   8.3862   8.4022
     8.4022   8.6878   8.7148   8.8037   8.8188   8.8188   9.0172   9.1304
     9.1338   9.1486   9.2814   9.2849   9.7858   9.8296   9.8296   9.9325
     9.9550   9.9820   9.9820  10.1106  10.1571  10.1800  10.2938  10.2938
    10.3487  10.4681  10.4681  10.5749  10.7836  10.7836  10.9209  10.9209

     occupation numbers 
     1.0000   1.0000   1.0000   1.0000   1.0000   1.0000   1.0000   1.0000
     1.0000   1.0000   1.0000   1.0000   1.0000   1.0000   1.0000   1.0000
     1.0000   1.0000   1.0000   1.0000   1.0000   1.0000   1.0000   1.0000
     1.0000   1.0000   1.0000   1.0000   1.0000   1.0000   1.0000   1.0000
     1.0000   1.0000   1.0000   1.0000   1.0000   1.0000   1.0000   1.0000
     1.0000   1.0000   1.0000   1.0000   1.0000   1.0000   1.0000   1.0000
     1.0000   1.0000   1.0000   1.0000   1.0000   1.0000   1.0000   1.0000
     1.0000   1.0000   1.0000   1.0000   1.0000   1.0000   1.0000   1.0000
     1.0000   1.0000   1.0000   1.0000   1.0000   1.0000   1.0000   1.0000
     1.0000   1.0000   1.0000   1.0000   1.0000   1.0000   1.0000   1.0000
     1.0000   1.0000   1.0000   1.0000   1.0000   1.0000   1.0000   1.0000
     1.0000   1.0000   1.0000   1.0000   1.0000   1.0000   1.0000   1.0000
     1.0000   1.0000   1.0000   1.0000   1.0000   1.0000   1.0000   1.0000
     1.0000   1.0000   1.0000   1.0000   1.0000   1.0000   1.0000   1.0000
     1.0000   1.0000   1.0000   1.0000   1.0000   1.0000   1.0000   1.0000
     1.0000   1.0000   1.0000   1.0000   1.0000   1.0000   1.0000   1.0000
     1.0000   1.0000   1.0000   1.0000   1.0000   1.0000   1.0000   1.0000
     1.0000   1.0000   1.0000   1.0000   1.0000   1.0000   1.0000   1.0000
     1.0000   1.0000   1.0000   1.0000   1.0000   1.0000   1.0000   1.0000
     1.0000   1.0000   1.0000   1.0000   1.0000   1.0000   1.0000   1.0000
     1.0000   1.0000   1.0000   1.0000   1.0000   1.0000   1.0000   1.0000
     1.0000   1.0000   1.0000   1.0000   1.0000   1.0000   1.0000   1.0000
     1.0000   1.0000   1.0000   1.0000   1.0000   1.0000   1.0000   1.0000
     1.0000   1.0000   1.0000   1.0000   1.0000   1.0000   1.0000   1.0000
     1.0000   1.0000   1.0000   1.0000   1.0000   1.0000   1.0000   1.0000
     1.0000   1.0000   1.0000   1.0000   1.0000   1.0000   1.0000   1.0000
     1.0000   1.0000   1.0000   1.0000   1.0000   1.0000   1.0000   1.0000
     1.0000   1.0000   1.0000   1.0000   1.0000   1.0000   1.0000   1.0000
     1.0000   1.0000   1.0000   1.0000   1.0000   1.0000   1.0000   1.0000

          k = 0.1667 0.1667 0.2129 ( 29191 PWs)   bands (ev):

   -35.2091 -35.2091 -35.2091 -35.2091 -35.2088 -35.2087 -35.2087 -35.2087
   -35.2071 -35.2071 -35.2071 -35.2070 -35.2070 -35.2070 -35.2069 -35.2069
   -35.2019 -35.2019 -35.2018 -35.2018 -35.2018 -35.2018 -35.2018 -35.2017
   -35.2016 -35.2016 -35.2016 -35.2016 -35.2016 -35.2016 -35.2016 -35.2016
   -35.1981 -35.1979 -35.1978 -35.1977 -35.1977 -35.1977 -35.1977 -35.1977
   -11.8965 -11.8962 -11.8949 -11.8867 -11.8851 -11.8749 -11.8600 -11.8600
   -11.8535 -11.8535 -11.8064 -11.8064 -11.7977 -11.7977 -11.7149 -11.7041
   -11.7041 -11.7005 -11.6986 -11.6986 -11.6959 -11.6922 -11.6867 -11.6867
   -11.6846 -11.6845 -11.6836 -11.6834 -11.6806 -11.6806 -11.6750 -11.6750
   -11.6682 -11.6682 -11.6648 -11.6648 -11.6638 -11.6638 -11.6591 -11.6591
   -11.6582 -11.6568 -11.6503 -11.6419 -11.6396 -11.6385 -11.6372 -11.6363
   -11.6363 -11.6318 -11.6318 -11.6259 -11.6247 -11.6236 -11.6219 -11.6213
   -11.6184 -11.6161 -11.6131 -11.6123 -11.6116 -11.6112 -11.6105 -11.6105
   -11.6101 -11.6101 -11.6090 -11.6077 -11.6066 -11.6066 -11.6045 -11.6045
   -11.6036 -11.6036 -11.6007 -11.6007 -11.5997 -11.5993 -11.5985 -11.5985
    -8.3907  -8.3792  -7.3738  -7.3738  -7.3649  -7.3649  -6.8270  -6.8211
    -6.6756  -6.6756  -6.6707  -6.6707  -6.6178  -6.6136  -5.8907  -5.8904
    -1.7933  -1.5043  -0.6839  -0.6839  -0.5810  -0.5810  -0.1725  -0.1438
    -0.0233   0.0970   0.3918   0.4608   0.4657   0.4657   0.4659   0.5747
     0.5747   1.0350   1.1234   1.1234   1.3865   1.3865   2.7655   3.0185
     5.2645   5.4092   5.4281   5.4543   5.5728   5.5728   5.6628   5.6764
     5.6764   5.6939   5.7193   5.9593   6.3052   6.3052   6.3205   6.4932
     6.4932   6.6395   6.7040   6.7040   6.7767   6.7767   6.9856   6.9856
     7.0778   7.0778   7.5802   7.5802   7.5891   7.6704   7.6704   7.7116
     7.8639   7.9227   7.9386   8.2323   8.2418   8.4897   8.4897   8.4974
     8.5040   8.5553   8.6934   8.7090   8.7284   8.7284   8.7896   8.9120
     9.1325   9.1337   9.2816   9.2830   9.8456   9.8456   9.9328   9.9328
     9.9561   9.9932  10.0312  10.1094  10.1230  10.2194  10.2684  10.3485
    10.3485  10.4470  10.4470  10.5635  10.8135  10.8135  10.8928  10.8928

     occupation numbers 
     1.0000   1.0000   1.0000   1.0000   1.0000   1.0000   1.0000   1.0000
     1.0000   1.0000   1.0000   1.0000   1.0000   1.0000   1.0000   1.0000
     1.0000   1.0000   1.0000   1.0000   1.0000   1.0000   1.0000   1.0000
     1.0000   1.0000   1.0000   1.0000   1.0000   1.0000   1.0000   1.0000
     1.0000   1.0000   1.0000   1.0000   1.0000   1.0000   1.0000   1.0000
     1.0000   1.0000   1.0000   1.0000   1.0000   1.0000   1.0000   1.0000
     1.0000   1.0000   1.0000   1.0000   1.0000   1.0000   1.0000   1.0000
     1.0000   1.0000   1.0000   1.0000   1.0000   1.0000   1.0000   1.0000
     1.0000   1.0000   1.0000   1.0000   1.0000   1.0000   1.0000   1.0000
     1.0000   1.0000   1.0000   1.0000   1.0000   1.0000   1.0000   1.0000
     1.0000   1.0000   1.0000   1.0000   1.0000   1.0000   1.0000   1.0000
     1.0000   1.0000   1.0000   1.0000   1.0000   1.0000   1.0000   1.0000
     1.0000   1.0000   1.0000   1.0000   1.0000   1.0000   1.0000   1.0000
     1.0000   1.0000   1.0000   1.0000   1.0000   1.0000   1.0000   1.0000
     1.0000   1.0000   1.0000   1.0000   1.0000   1.0000   1.0000   1.0000
     1.0000   1.0000   1.0000   1.0000   1.0000   1.0000   1.0000   1.0000
     1.0000   1.0000   1.0000   1.0000   1.0000   1.0000   1.0000   1.0000
     1.0000   1.0000   1.0000   1.0000   1.0000   1.0000   1.0000   1.0000
     1.0000   1.0000   1.0000   1.0000   1.0000   1.0000   1.0000   1.0000
     1.0000   1.0000   1.0000   1.0000   1.0000   1.0000   1.0000   1.0000
     1.0000   1.0000   1.0000   1.0000   1.0000   1.0000   1.0000   1.0000
     1.0000   1.0000   1.0000   1.0000   1.0000   1.0000   1.0000   1.0000
     1.0000   1.0000   1.0000   1.0000   1.0000   1.0000   1.0000   1.0000
     1.0000   1.0000   1.0000   1.0000   1.0000   1.0000   1.0000   1.0000
     1.0000   1.0000   1.0000   1.0000   1.0000   1.0000   1.0000   1.0000
     1.0000   1.0000   1.0000   1.0000   1.0000   1.0000   1.0000   1.0000
     1.0000   1.0000   1.0000   1.0000   1.0000   1.0000   1.0000   1.0000
     1.0000   1.0000   1.0000   1.0000   1.0000   1.0000   1.0000   1.0000
     1.0000   1.0000   1.0000   1.0000   1.0000   1.0000   1.0000   1.0000

          k = 0.1667 0.1667-0.3194 ( 29224 PWs)   bands (ev):

   -35.2092 -35.2092 -35.2092 -35.2092 -35.2088 -35.2088 -35.2088 -35.2088
   -35.2071 -35.2071 -35.2070 -35.2070 -35.2070 -35.2070 -35.2070 -35.2070
   -35.2019 -35.2018 -35.2018 -35.2018 -35.2018 -35.2018 -35.2018 -35.2018
   -35.2017 -35.2017 -35.2017 -35.2017 -35.2017 -35.2017 -35.2017 -35.2017
   -35.1980 -35.1980 -35.1978 -35.1978 -35.1977 -35.1977 -35.1977 -35.1977
   -11.8957 -11.8957 -11.8916 -11.8916 -11.8801 -11.8801 -11.8569 -11.8569
   -11.8569 -11.8569 -11.8020 -11.8020 -11.8020 -11.8020 -11.7085 -11.7085
   -11.7009 -11.7009 -11.7009 -11.7009 -11.6915 -11.6915 -11.6882 -11.6882
   -11.6854 -11.6854 -11.6842 -11.6842 -11.6780 -11.6780 -11.6780 -11.6780
   -11.6677 -11.6677 -11.6676 -11.6676 -11.6615 -11.6615 -11.6615 -11.6615
   -11.6585 -11.6585 -11.6456 -11.6456 -11.6369 -11.6369 -11.6328 -11.6328
   -11.6328 -11.6328 -11.6321 -11.6321 -11.6200 -11.6200 -11.6197 -11.6197
   -11.6184 -11.6184 -11.6164 -11.6164 -11.6122 -11.6122 -11.6093 -11.6093
   -11.6093 -11.6093 -11.6085 -11.6085 -11.6065 -11.6065 -11.6065 -11.6065
   -11.6026 -11.6026 -11.6026 -11.6026 -11.5991 -11.5991 -11.5991 -11.5991
    -8.3850  -8.3850  -7.3694  -7.3694  -7.3694  -7.3694  -6.8241  -6.8241
    -6.6732  -6.6732  -6.6732  -6.6732  -6.6157  -6.6157  -5.8905  -5.8905
    -1.6616  -1.6616  -0.6330  -0.6330  -0.6330  -0.6330  -0.1584  -0.1584
     0.0293   0.0293   0.4371   0.4371   0.5075   0.5075   0.5075   0.5075
     0.7475   0.7475   1.2679   1.2679   1.2679   1.2679   2.9040   2.9040
     5.3266   5.3266   5.4343   5.4343   5.6146   5.6146   5.6146   5.6146
     5.6905   5.6905   5.8140   5.8140   6.4391   6.4391   6.4391   6.4391
     6.5039   6.5039   6.7107   6.7107   6.7107   6.7107   7.0162   7.0162
     7.0162   7.0162   7.6389   7.6389   7.6389   7.6389   7.6485   7.6485
     7.9022   7.9022   8.2359   8.2359   8.2376   8.2376   8.6088   8.6088
     8.6088   8.6088   8.6249   8.6249   8.6845   8.6845   8.7012   8.7012
     9.1334   9.1334   9.2820   9.2820   9.8810   9.8810   9.8810   9.8810
    10.0489  10.0489  10.0569  10.0569  10.1126  10.1126  10.4058  10.4058
    10.4058  10.4058  10.4502  10.4502  10.8536  10.8536  10.8536  10.8536

     occupation numbers 
     1.0000   1.0000   1.0000   1.0000   1.0000   1.0000   1.0000   1.0000
     1.0000   1.0000   1.0000   1.0000   1.0000   1.0000   1.0000   1.0000
     1.0000   1.0000   1.0000   1.0000   1.0000   1.0000   1.0000   1.0000
     1.0000   1.0000   1.0000   1.0000   1.0000   1.0000   1.0000   1.0000
     1.0000   1.0000   1.0000   1.0000   1.0000   1.0000   1.0000   1.0000
     1.0000   1.0000   1.0000   1.0000   1.0000   1.0000   1.0000   1.0000
     1.0000   1.0000   1.0000   1.0000   1.0000   1.0000   1.0000   1.0000
     1.0000   1.0000   1.0000   1.0000   1.0000   1.0000   1.0000   1.0000
     1.0000   1.0000   1.0000   1.0000   1.0000   1.0000   1.0000   1.0000
     1.0000   1.0000   1.0000   1.0000   1.0000   1.0000   1.0000   1.0000
     1.0000   1.0000   1.0000   1.0000   1.0000   1.0000   1.0000   1.0000
     1.0000   1.0000   1.0000   1.0000   1.0000   1.0000   1.0000   1.0000
     1.0000   1.0000   1.0000   1.0000   1.0000   1.0000   1.0000   1.0000
     1.0000   1.0000   1.0000   1.0000   1.0000   1.0000   1.0000   1.0000
     1.0000   1.0000   1.0000   1.0000   1.0000   1.0000   1.0000   1.0000
     1.0000   1.0000   1.0000   1.0000   1.0000   1.0000   1.0000   1.0000
     1.0000   1.0000   1.0000   1.0000   1.0000   1.0000   1.0000   1.0000
     1.0000   1.0000   1.0000   1.0000   1.0000   1.0000   1.0000   1.0000
     1.0000   1.0000   1.0000   1.0000   1.0000   1.0000   1.0000   1.0000
     1.0000   1.0000   1.0000   1.0000   1.0000   1.0000   1.0000   1.0000
     1.0000   1.0000   1.0000   1.0000   1.0000   1.0000   1.0000   1.0000
     1.0000   1.0000   1.0000   1.0000   1.0000   1.0000   1.0000   1.0000
     1.0000   1.0000   1.0000   1.0000   1.0000   1.0000   1.0000   1.0000
     1.0000   1.0000   1.0000   1.0000   1.0000   1.0000   1.0000   1.0000
     1.0000   1.0000   1.0000   1.0000   1.0000   1.0000   1.0000   1.0000
     1.0000   1.0000   1.0000   1.0000   1.0000   1.0000   1.0000   1.0000
     1.0000   1.0000   1.0000   1.0000   1.0000   1.0000   1.0000   1.0000
     1.0000   1.0000   1.0000   1.0000   1.0000   1.0000   1.0000   1.0000
     1.0000   1.0000   1.0000   1.0000   1.0000   1.0000   1.0000   1.0000

          k = 0.1667 0.3333 0.0000 ( 29163 PWs)   bands (ev):

   -35.2092 -35.2090 -35.2090 -35.2089 -35.2088 -35.2088 -35.2087 -35.2087
   -35.2071 -35.2070 -35.2069 -35.2069 -35.2069 -35.2068 -35.2068 -35.2068
   -35.2020 -35.2020 -35.2019 -35.2019 -35.2018 -35.2018 -35.2018 -35.2018
   -35.2017 -35.2017 -35.2016 -35.2016 -35.2015 -35.2015 -35.2014 -35.2014
   -35.1981 -35.1980 -35.1979 -35.1979 -35.1979 -35.1978 -35.1975 -35.1973
   -11.8938 -11.8920 -11.8874 -11.8763 -11.8759 -11.8719 -11.8708 -11.8662
   -11.8562 -11.8517 -11.8271 -11.8083 -11.7720 -11.7535 -11.7185 -11.7125
   -11.7021 -11.6971 -11.6947 -11.6928 -11.6918 -11.6917 -11.6888 -11.6880
   -11.6843 -11.6810 -11.6800 -11.6789 -11.6768 -11.6746 -11.6732 -11.6721
   -11.6703 -11.6625 -11.6623 -11.6620 -11.6613 -11.6596 -11.6590 -11.6584
   -11.6564 -11.6525 -11.6495 -11.6487 -11.6487 -11.6468 -11.6436 -11.6420
   -11.6412 -11.6409 -11.6368 -11.6303 -11.6290 -11.6271 -11.6262 -11.6258
   -11.6255 -11.6195 -11.6184 -11.6184 -11.6179 -11.6177 -11.6172 -11.6158
   -11.6131 -11.6095 -11.6086 -11.6068 -11.6066 -11.6047 -11.6046 -11.6046
   -11.6039 -11.6033 -11.6031 -11.6016 -11.6015 -11.5997 -11.5984 -11.5982
    -8.2493  -8.2264  -7.7198  -7.6990  -7.2879  -7.2708  -6.9899  -6.9760
    -6.6466  -6.6373  -6.5949  -6.5867  -6.3789  -6.3730  -5.9828  -5.9814
    -1.7501  -1.1774  -1.1376  -0.7536  -0.6349  -0.4589  -0.3087  -0.2622
     0.0444   0.1999   0.3384   0.3424   0.4463   0.4876   0.6400   0.6476
     0.7465   0.7887   1.1617   1.3109   1.4973   1.8854   2.4520   2.7243
     5.1557   5.2485   5.3061   5.3546   5.4151   5.4162   5.5082   5.5407
     5.6920   5.7629   5.8505   5.9541   6.1764   6.1781   6.2181   6.4755
     6.4949   6.5911   6.8175   6.9407   6.9423   6.9640   7.1799   7.2955
     7.3255   7.4963   7.5249   7.6001   7.6190   7.6215   7.6426   7.7656
     7.8267   7.9902   8.0099   8.0678   8.1673   8.2704   8.4186   8.4923
     8.5465   8.6444   8.7201   8.7476   8.8794   9.0078   9.0663   9.0974
     9.2167   9.2555   9.2714   9.3869   9.4934   9.6650   9.7699   9.8099
     9.8411   9.8574  10.0244  10.0260  10.0526  10.1635  10.1691  10.1861
    10.2269  10.2397  10.2469  10.3231  10.5488  10.6743  10.8773  10.8783

     occupation numbers 
     1.0000   1.0000   1.0000   1.0000   1.0000   1.0000   1.0000   1.0000
     1.0000   1.0000   1.0000   1.0000   1.0000   1.0000   1.0000   1.0000
     1.0000   1.0000   1.0000   1.0000   1.0000   1.0000   1.0000   1.0000
     1.0000   1.0000   1.0000   1.0000   1.0000   1.0000   1.0000   1.0000
     1.0000   1.0000   1.0000   1.0000   1.0000   1.0000   1.0000   1.0000
     1.0000   1.0000   1.0000   1.0000   1.0000   1.0000   1.0000   1.0000
     1.0000   1.0000   1.0000   1.0000   1.0000   1.0000   1.0000   1.0000
     1.0000   1.0000   1.0000   1.0000   1.0000   1.0000   1.0000   1.0000
     1.0000   1.0000   1.0000   1.0000   1.0000   1.0000   1.0000   1.0000
     1.0000   1.0000   1.0000   1.0000   1.0000   1.0000   1.0000   1.0000
     1.0000   1.0000   1.0000   1.0000   1.0000   1.0000   1.0000   1.0000
     1.0000   1.0000   1.0000   1.0000   1.0000   1.0000   1.0000   1.0000
     1.0000   1.0000   1.0000   1.0000   1.0000   1.0000   1.0000   1.0000
     1.0000   1.0000   1.0000   1.0000   1.0000   1.0000   1.0000   1.0000
     1.0000   1.0000   1.0000   1.0000   1.0000   1.0000   1.0000   1.0000
     1.0000   1.0000   1.0000   1.0000   1.0000   1.0000   1.0000   1.0000
     1.0000   1.0000   1.0000   1.0000   1.0000   1.0000   1.0000   1.0000
     1.0000   1.0000   1.0000   1.0000   1.0000   1.0000   1.0000   1.0000
     1.0000   1.0000   1.0000   1.0000   1.0000   1.0000   1.0000   1.0000
     1.0000   1.0000   1.0000   1.0000   1.0000   1.0000   1.0000   1.0000
     1.0000   1.0000   1.0000   1.0000   1.0000   1.0000   1.0000   1.0000
     1.0000   1.0000   1.0000   1.0000   1.0000   1.0000   1.0000   1.0000
     1.0000   1.0000   1.0000   1.0000   1.0000   1.0000   1.0000   1.0000
     1.0000   1.0000   1.0000   1.0000   1.0000   1.0000   1.0000   1.0000
     1.0000   1.0000   1.0000   1.0000   1.0000   1.0000   1.0000   1.0000
     1.0000   1.0000   1.0000   1.0000   1.0000   1.0000   1.0000   1.0000
     1.0000   1.0000   1.0000   1.0000   1.0000   1.0000   1.0000   1.0000
     1.0000   1.0000   1.0000   1.0000   1.0000   1.0000   1.0000   1.0000
     1.0000   1.0000   1.0000   1.0000   1.0000   1.0000   1.0000   1.0000

          k = 0.1667 0.3333 0.1065 ( 29165 PWs)   bands (ev):

   -35.2093 -35.2090 -35.2090 -35.2089 -35.2088 -35.2088 -35.2088 -35.2087
   -35.2071 -35.2070 -35.2069 -35.2069 -35.2069 -35.2069 -35.2068 -35.2068
   -35.2019 -35.2019 -35.2019 -35.2018 -35.2018 -35.2018 -35.2018 -35.2018
   -35.2017 -35.2017 -35.2017 -35.2016 -35.2016 -35.2016 -35.2016 -35.2014
   -35.1980 -35.1980 -35.1979 -35.1979 -35.1977 -35.1977 -35.1976 -35.1976
   -11.8927 -11.8917 -11.8878 -11.8773 -11.8757 -11.8706 -11.8699 -11.8669
   -11.8574 -11.8532 -11.8257 -11.8096 -11.7709 -11.7550 -11.7172 -11.7110
   -11.7012 -11.6966 -11.6962 -11.6939 -11.6922 -11.6910 -11.6885 -11.6873
   -11.6845 -11.6826 -11.6803 -11.6800 -11.6782 -11.6740 -11.6737 -11.6711
   -11.6710 -11.6643 -11.6635 -11.6617 -11.6613 -11.6607 -11.6580 -11.6570
   -11.6557 -11.6530 -11.6526 -11.6515 -11.6464 -11.6455 -11.6414 -11.6412
   -11.6405 -11.6381 -11.6355 -11.6295 -11.6284 -11.6268 -11.6266 -11.6249
   -11.6248 -11.6195 -11.6192 -11.6177 -11.6176 -11.6171 -11.6170 -11.6152
   -11.6123 -11.6099 -11.6092 -11.6077 -11.6075 -11.6057 -11.6057 -11.6055
   -11.6038 -11.6036 -11.6028 -11.6021 -11.6015 -11.5999 -11.5988 -11.5987
    -8.2478  -8.2280  -7.7184  -7.7004  -7.2868  -7.2719  -6.9889  -6.9770
    -6.6460  -6.6380  -6.5943  -6.5872  -6.3785  -6.3734  -5.9827  -5.9815
    -1.7219  -1.2341  -1.1165  -0.7862  -0.6234  -0.4709  -0.3050  -0.2648
     0.0548   0.2777   0.2871   0.3465   0.5016   0.5063   0.5735   0.6420
     0.7358   0.8700   1.0997   1.2882   1.5214   1.8583   2.4763   2.7094
     5.1531   5.2671   5.3273   5.3279   5.3359   5.3930   5.4926   5.6402
     5.6606   5.8266   5.8562   5.9460   6.1311   6.2392   6.2405   6.4651
     6.4837   6.6158   6.8437   6.8858   6.9255   6.9521   7.1227   7.2796
     7.3262   7.4360   7.5356   7.5517   7.6395   7.7101   7.7357   7.8273
     7.8789   7.9141   8.0611   8.1104   8.1275   8.2529   8.4412   8.4517
     8.5472   8.6401   8.7123   8.7210   8.8964   8.9949   9.0301   9.0429
     9.1475   9.1942   9.2436   9.2740   9.6473   9.6944   9.7558   9.8513
     9.8679   9.8801  10.0173  10.0209  10.0706  10.1494  10.1587  10.1729
    10.2255  10.2292  10.3287  10.3488  10.5502  10.6853  10.8813  10.8833

     occupation numbers 
     1.0000   1.0000   1.0000   1.0000   1.0000   1.0000   1.0000   1.0000
     1.0000   1.0000   1.0000   1.0000   1.0000   1.0000   1.0000   1.0000
     1.0000   1.0000   1.0000   1.0000   1.0000   1.0000   1.0000   1.0000
     1.0000   1.0000   1.0000   1.0000   1.0000   1.0000   1.0000   1.0000
     1.0000   1.0000   1.0000   1.0000   1.0000   1.0000   1.0000   1.0000
     1.0000   1.0000   1.0000   1.0000   1.0000   1.0000   1.0000   1.0000
     1.0000   1.0000   1.0000   1.0000   1.0000   1.0000   1.0000   1.0000
     1.0000   1.0000   1.0000   1.0000   1.0000   1.0000   1.0000   1.0000
     1.0000   1.0000   1.0000   1.0000   1.0000   1.0000   1.0000   1.0000
     1.0000   1.0000   1.0000   1.0000   1.0000   1.0000   1.0000   1.0000
     1.0000   1.0000   1.0000   1.0000   1.0000   1.0000   1.0000   1.0000
     1.0000   1.0000   1.0000   1.0000   1.0000   1.0000   1.0000   1.0000
     1.0000   1.0000   1.0000   1.0000   1.0000   1.0000   1.0000   1.0000
     1.0000   1.0000   1.0000   1.0000   1.0000   1.0000   1.0000   1.0000
     1.0000   1.0000   1.0000   1.0000   1.0000   1.0000   1.0000   1.0000
     1.0000   1.0000   1.0000   1.0000   1.0000   1.0000   1.0000   1.0000
     1.0000   1.0000   1.0000   1.0000   1.0000   1.0000   1.0000   1.0000
     1.0000   1.0000   1.0000   1.0000   1.0000   1.0000   1.0000   1.0000
     1.0000   1.0000   1.0000   1.0000   1.0000   1.0000   1.0000   1.0000
     1.0000   1.0000   1.0000   1.0000   1.0000   1.0000   1.0000   1.0000
     1.0000   1.0000   1.0000   1.0000   1.0000   1.0000   1.0000   1.0000
     1.0000   1.0000   1.0000   1.0000   1.0000   1.0000   1.0000   1.0000
     1.0000   1.0000   1.0000   1.0000   1.0000   1.0000   1.0000   1.0000
     1.0000   1.0000   1.0000   1.0000   1.0000   1.0000   1.0000   1.0000
     1.0000   1.0000   1.0000   1.0000   1.0000   1.0000   1.0000   1.0000
     1.0000   1.0000   1.0000   1.0000   1.0000   1.0000   1.0000   1.0000
     1.0000   1.0000   1.0000   1.0000   1.0000   1.0000   1.0000   1.0000
     1.0000   1.0000   1.0000   1.0000   1.0000   1.0000   1.0000   1.0000
     1.0000   1.0000   1.0000   1.0000   1.0000   1.0000   1.0000   1.0000

          k = 0.1667 0.3333 0.2129 ( 29179 PWs)   bands (ev):

   -35.2093 -35.2091 -35.2090 -35.2089 -35.2088 -35.2088 -35.2088 -35.2087
   -35.2071 -35.2070 -35.2070 -35.2070 -35.2069 -35.2069 -35.2069 -35.2067
   -35.2019 -35.2019 -35.2019 -35.2018 -35.2018 -35.2018 -35.2018 -35.2018
   -35.2017 -35.2017 -35.2017 -35.2017 -35.2017 -35.2017 -35.2016 -35.2016
   -35.1979 -35.1979 -35.1978 -35.1978 -35.1978 -35.1978 -35.1977 -35.1977
   -11.8909 -11.8896 -11.8886 -11.8807 -11.8738 -11.8688 -11.8675 -11.8671
   -11.8604 -11.8571 -11.8223 -11.8130 -11.7678 -11.7587 -11.7136 -11.7070
   -11.7018 -11.6989 -11.6972 -11.6936 -11.6934 -11.6892 -11.6876 -11.6854
   -11.6850 -11.6849 -11.6843 -11.6801 -11.6793 -11.6775 -11.6723 -11.6714
   -11.6679 -11.6672 -11.6670 -11.6631 -11.6609 -11.6580 -11.6579 -11.6569
   -11.6559 -11.6555 -11.6544 -11.6539 -11.6447 -11.6425 -11.6405 -11.6405
   -11.6355 -11.6334 -11.6326 -11.6286 -11.6279 -11.6274 -11.6265 -11.6230
   -11.6225 -11.6221 -11.6195 -11.6166 -11.6156 -11.6152 -11.6150 -11.6138
   -11.6132 -11.6107 -11.6103 -11.6092 -11.6088 -11.6082 -11.6081 -11.6079
   -11.6043 -11.6036 -11.6032 -11.6021 -11.6013 -11.6005 -11.6002 -11.5996
    -8.2437  -8.2322  -7.7146  -7.7043  -7.2837  -7.2751  -6.9864  -6.9795
    -6.6443  -6.6397  -6.5928  -6.5888  -6.3774  -6.3745  -5.9825  -5.9818
    -1.6403  -1.3669  -1.0565  -0.8681  -0.5918  -0.5035  -0.2954  -0.2723
     0.0859   0.2071   0.3718   0.4706   0.4850   0.5490   0.5815   0.6241
     0.7037   0.9341   0.9990   1.2228   1.5893   1.7846   2.5356   2.6673
     5.1529   5.2299   5.3119   5.3173   5.3481   5.3897   5.4480   5.5801
     5.7730   5.8727   5.9248   5.9762   6.0257   6.2475   6.4064   6.4523
     6.4652   6.6762   6.8035   6.8402   6.8413   6.8759   7.0912   7.2319
     7.3327   7.3836   7.5636   7.6147   7.6260   7.8301   7.8634   7.8640
     7.9128   7.9697   8.0364   8.0412   8.1918   8.3004   8.3404   8.5207
     8.5540   8.6143   8.6385   8.7274   8.8646   8.9133   8.9147   8.9346
     9.0545   9.1382   9.2289   9.2342   9.6379   9.7127   9.9030   9.9242
     9.9281   9.9305   9.9977  10.0103  10.0465  10.1473  10.1537  10.1597
    10.1930  10.2167  10.4136  10.4935  10.5361  10.6871  10.8883  10.8924

     occupation numbers 
     1.0000   1.0000   1.0000   1.0000   1.0000   1.0000   1.0000   1.0000
     1.0000   1.0000   1.0000   1.0000   1.0000   1.0000   1.0000   1.0000
     1.0000   1.0000   1.0000   1.0000   1.0000   1.0000   1.0000   1.0000
     1.0000   1.0000   1.0000   1.0000   1.0000   1.0000   1.0000   1.0000
     1.0000   1.0000   1.0000   1.0000   1.0000   1.0000   1.0000   1.0000
     1.0000   1.0000   1.0000   1.0000   1.0000   1.0000   1.0000   1.0000
     1.0000   1.0000   1.0000   1.0000   1.0000   1.0000   1.0000   1.0000
     1.0000   1.0000   1.0000   1.0000   1.0000   1.0000   1.0000   1.0000
     1.0000   1.0000   1.0000   1.0000   1.0000   1.0000   1.0000   1.0000
     1.0000   1.0000   1.0000   1.0000   1.0000   1.0000   1.0000   1.0000
     1.0000   1.0000   1.0000   1.0000   1.0000   1.0000   1.0000   1.0000
     1.0000   1.0000   1.0000   1.0000   1.0000   1.0000   1.0000   1.0000
     1.0000   1.0000   1.0000   1.0000   1.0000   1.0000   1.0000   1.0000
     1.0000   1.0000   1.0000   1.0000   1.0000   1.0000   1.0000   1.0000
     1.0000   1.0000   1.0000   1.0000   1.0000   1.0000   1.0000   1.0000
     1.0000   1.0000   1.0000   1.0000   1.0000   1.0000   1.0000   1.0000
     1.0000   1.0000   1.0000   1.0000   1.0000   1.0000   1.0000   1.0000
     1.0000   1.0000   1.0000   1.0000   1.0000   1.0000   1.0000   1.0000
     1.0000   1.0000   1.0000   1.0000   1.0000   1.0000   1.0000   1.0000
     1.0000   1.0000   1.0000   1.0000   1.0000   1.0000   1.0000   1.0000
     1.0000   1.0000   1.0000   1.0000   1.0000   1.0000   1.0000   1.0000
     1.0000   1.0000   1.0000   1.0000   1.0000   1.0000   1.0000   1.0000
     1.0000   1.0000   1.0000   1.0000   1.0000   1.0000   1.0000   1.0000
     1.0000   1.0000   1.0000   1.0000   1.0000   1.0000   1.0000   1.0000
     1.0000   1.0000   1.0000   1.0000   1.0000   1.0000   1.0000   1.0000
     1.0000   1.0000   1.0000   1.0000   1.0000   1.0000   1.0000   1.0000
     1.0000   1.0000   1.0000   1.0000   1.0000   1.0000   1.0000   1.0000
     1.0000   1.0000   1.0000   1.0000   1.0000   1.0000   1.0000   1.0000
     1.0000   1.0000   1.0000   1.0000   1.0000   1.0000   1.0000   1.0000

          k = 0.1667 0.3333-0.3194 ( 29206 PWs)   bands (ev):

   -35.2092 -35.2092 -35.2089 -35.2089 -35.2088 -35.2088 -35.2088 -35.2088
   -35.2071 -35.2071 -35.2070 -35.2070 -35.2070 -35.2070 -35.2069 -35.2069
   -35.2019 -35.2019 -35.2019 -35.2019 -35.2018 -35.2018 -35.2018 -35.2018
   -35.2018 -35.2018 -35.2018 -35.2018 -35.2017 -35.2017 -35.2017 -35.2016
   -35.1979 -35.1979 -35.1979 -35.1979 -35.1978 -35.1978 -35.1977 -35.1976
   -11.8897 -11.8897 -11.8852 -11.8852 -11.8714 -11.8714 -11.8641 -11.8641
   -11.8622 -11.8622 -11.8177 -11.8177 -11.7634 -11.7634 -11.7081 -11.7081
   -11.7020 -11.7020 -11.6960 -11.6960 -11.6893 -11.6893 -11.6871 -11.6871
   -11.6863 -11.6863 -11.6816 -11.6816 -11.6799 -11.6799 -11.6701 -11.6701
   -11.6698 -11.6698 -11.6652 -11.6652 -11.6592 -11.6592 -11.6575 -11.6575
   -11.6556 -11.6556 -11.6554 -11.6554 -11.6421 -11.6421 -11.6407 -11.6407
   -11.6301 -11.6301 -11.6298 -11.6298 -11.6286 -11.6286 -11.6267 -11.6267
   -11.6204 -11.6204 -11.6177 -11.6177 -11.6144 -11.6144 -11.6125 -11.6125
   -11.6121 -11.6121 -11.6118 -11.6118 -11.6106 -11.6106 -11.6085 -11.6085
   -11.6048 -11.6048 -11.6019 -11.6019 -11.6013 -11.6013 -11.6007 -11.6007
    -8.2380  -8.2380  -7.7094  -7.7094  -7.2794  -7.2794  -6.9830  -6.9830
    -6.6420  -6.6420  -6.5908  -6.5908  -6.3760  -6.3760  -5.9821  -5.9821
    -1.5152  -1.5152  -0.9675  -0.9675  -0.5479  -0.5479  -0.2833  -0.2833
     0.1376   0.1376   0.4170   0.4170   0.5924   0.5924   0.6513   0.6513
     0.7084   0.7084   1.1224   1.1224   1.6856   1.6856   2.6054   2.6054
     5.1730   5.1730   5.3149   5.3149   5.3840   5.3840   5.4804   5.4804
     5.8976   5.8976   5.9011   5.9011   6.1449   6.1449   6.4527   6.4527
     6.6301   6.6301   6.7597   6.7597   6.8125   6.8125   7.1578   7.1578
     7.3512   7.3512   7.5982   7.5982   7.7877   7.7877   7.8391   7.8391
     7.9780   7.9780   8.0749   8.0749   8.1939   8.1939   8.4975   8.4975
     8.5802   8.5802   8.6720   8.6720   8.7626   8.7626   8.9126   8.9126
     9.0908   9.0908   9.2254   9.2254   9.6632   9.6632   9.9666   9.9666
     9.9684   9.9684   9.9819   9.9819  10.0877  10.0877  10.1623  10.1623
    10.1922  10.1922  10.4868  10.4868  10.6281  10.6281  10.8939  10.8940

     occupation numbers 
     1.0000   1.0000   1.0000   1.0000   1.0000   1.0000   1.0000   1.0000
     1.0000   1.0000   1.0000   1.0000   1.0000   1.0000   1.0000   1.0000
     1.0000   1.0000   1.0000   1.0000   1.0000   1.0000   1.0000   1.0000
     1.0000   1.0000   1.0000   1.0000   1.0000   1.0000   1.0000   1.0000
     1.0000   1.0000   1.0000   1.0000   1.0000   1.0000   1.0000   1.0000
     1.0000   1.0000   1.0000   1.0000   1.0000   1.0000   1.0000   1.0000
     1.0000   1.0000   1.0000   1.0000   1.0000   1.0000   1.0000   1.0000
     1.0000   1.0000   1.0000   1.0000   1.0000   1.0000   1.0000   1.0000
     1.0000   1.0000   1.0000   1.0000   1.0000   1.0000   1.0000   1.0000
     1.0000   1.0000   1.0000   1.0000   1.0000   1.0000   1.0000   1.0000
     1.0000   1.0000   1.0000   1.0000   1.0000   1.0000   1.0000   1.0000
     1.0000   1.0000   1.0000   1.0000   1.0000   1.0000   1.0000   1.0000
     1.0000   1.0000   1.0000   1.0000   1.0000   1.0000   1.0000   1.0000
     1.0000   1.0000   1.0000   1.0000   1.0000   1.0000   1.0000   1.0000
     1.0000   1.0000   1.0000   1.0000   1.0000   1.0000   1.0000   1.0000
     1.0000   1.0000   1.0000   1.0000   1.0000   1.0000   1.0000   1.0000
     1.0000   1.0000   1.0000   1.0000   1.0000   1.0000   1.0000   1.0000
     1.0000   1.0000   1.0000   1.0000   1.0000   1.0000   1.0000   1.0000
     1.0000   1.0000   1.0000   1.0000   1.0000   1.0000   1.0000   1.0000
     1.0000   1.0000   1.0000   1.0000   1.0000   1.0000   1.0000   1.0000
     1.0000   1.0000   1.0000   1.0000   1.0000   1.0000   1.0000   1.0000
     1.0000   1.0000   1.0000   1.0000   1.0000   1.0000   1.0000   1.0000
     1.0000   1.0000   1.0000   1.0000   1.0000   1.0000   1.0000   1.0000
     1.0000   1.0000   1.0000   1.0000   1.0000   1.0000   1.0000   1.0000
     1.0000   1.0000   1.0000   1.0000   1.0000   1.0000   1.0000   1.0000
     1.0000   1.0000   1.0000   1.0000   1.0000   1.0000   1.0000   1.0000
     1.0000   1.0000   1.0000   1.0000   1.0000   1.0000   1.0000   1.0000
     1.0000   1.0000   1.0000   1.0000   1.0000   1.0000   1.0000   1.0000
     1.0000   1.0000   1.0000   1.0000   1.0000   1.0000   1.0000   1.0000

          k = 0.1667-0.5000 0.0000 ( 29174 PWs)   bands (ev):

   -35.2091 -35.2091 -35.2091 -35.2091 -35.2089 -35.2089 -35.2088 -35.2088
   -35.2071 -35.2071 -35.2069 -35.2069 -35.2068 -35.2068 -35.2068 -35.2068
   -35.2020 -35.2020 -35.2019 -35.2019 -35.2018 -35.2018 -35.2018 -35.2018
   -35.2017 -35.2017 -35.2016 -35.2016 -35.2016 -35.2016 -35.2014 -35.2014
   -35.1980 -35.1980 -35.1979 -35.1979 -35.1979 -35.1979 -35.1974 -35.1974
   -11.8850 -11.8850 -11.8823 -11.8823 -11.8781 -11.8781 -11.8661 -11.8661
   -11.8492 -11.8492 -11.8296 -11.8296 -11.7292 -11.7292 -11.7160 -11.7160
   -11.7107 -11.7107 -11.6962 -11.6961 -11.6928 -11.6928 -11.6886 -11.6886
   -11.6865 -11.6865 -11.6761 -11.6761 -11.6761 -11.6761 -11.6740 -11.6740
   -11.6620 -11.6620 -11.6610 -11.6610 -11.6609 -11.6609 -11.6581 -11.6581
   -11.6514 -11.6514 -11.6481 -11.6481 -11.6460 -11.6460 -11.6433 -11.6433
   -11.6372 -11.6372 -11.6361 -11.6361 -11.6360 -11.6360 -11.6321 -11.6321
   -11.6250 -11.6250 -11.6241 -11.6241 -11.6213 -11.6213 -11.6147 -11.6147
   -11.6125 -11.6125 -11.6082 -11.6082 -11.6065 -11.6065 -11.6063 -11.6063
   -11.6031 -11.6031 -11.6023 -11.6023 -11.6018 -11.6018 -11.5982 -11.5982
    -8.0178  -8.0178  -7.9955  -7.9955  -7.1516  -7.1515  -7.1358  -7.1358
    -6.6114  -6.6114  -6.6028  -6.6028  -6.1445  -6.1445  -6.1414  -6.1413
    -1.4896  -1.4896  -0.9866  -0.9865  -0.4858  -0.4858  -0.3617  -0.3617
     0.1945   0.1945   0.3077   0.3077   0.4854   0.4854   0.6436   0.6436
     0.9070   0.9070   1.0439   1.0439   2.1511   2.1511   2.2192   2.2192
     5.2078   5.2078   5.2101   5.2101   5.3034   5.3035   5.5389   5.5390
     5.5960   5.5960   6.1361   6.1361   6.1594   6.1594   6.2013   6.2013
     6.5845   6.5845   6.9716   6.9716   7.1134   7.1134   7.2430   7.2430
     7.4631   7.4631   7.5356   7.5356   7.7046   7.7046   7.7992   7.7993
     7.8442   7.8442   7.8741   7.8741   8.4007   8.4007   8.5498   8.5498
     8.5930   8.5930   8.7521   8.7521   8.7710   8.7710   9.2028   9.2028
     9.2254   9.2254   9.4155   9.4155   9.5248   9.5248   9.7963   9.7963
     9.8367   9.8367   9.9071   9.9071  10.0040  10.0040  10.0565  10.0565
    10.0834  10.0834  10.3081  10.3081  10.5662  10.5662  10.8253  10.8253

     occupation numbers 
     1.0000   1.0000   1.0000   1.0000   1.0000   1.0000   1.0000   1.0000
     1.0000   1.0000   1.0000   1.0000   1.0000   1.0000   1.0000   1.0000
     1.0000   1.0000   1.0000   1.0000   1.0000   1.0000   1.0000   1.0000
     1.0000   1.0000   1.0000   1.0000   1.0000   1.0000   1.0000   1.0000
     1.0000   1.0000   1.0000   1.0000   1.0000   1.0000   1.0000   1.0000
     1.0000   1.0000   1.0000   1.0000   1.0000   1.0000   1.0000   1.0000
     1.0000   1.0000   1.0000   1.0000   1.0000   1.0000   1.0000   1.0000
     1.0000   1.0000   1.0000   1.0000   1.0000   1.0000   1.0000   1.0000
     1.0000   1.0000   1.0000   1.0000   1.0000   1.0000   1.0000   1.0000
     1.0000   1.0000   1.0000   1.0000   1.0000   1.0000   1.0000   1.0000
     1.0000   1.0000   1.0000   1.0000   1.0000   1.0000   1.0000   1.0000
     1.0000   1.0000   1.0000   1.0000   1.0000   1.0000   1.0000   1.0000
     1.0000   1.0000   1.0000   1.0000   1.0000   1.0000   1.0000   1.0000
     1.0000   1.0000   1.0000   1.0000   1.0000   1.0000   1.0000   1.0000
     1.0000   1.0000   1.0000   1.0000   1.0000   1.0000   1.0000   1.0000
     1.0000   1.0000   1.0000   1.0000   1.0000   1.0000   1.0000   1.0000
     1.0000   1.0000   1.0000   1.0000   1.0000   1.0000   1.0000   1.0000
     1.0000   1.0000   1.0000   1.0000   1.0000   1.0000   1.0000   1.0000
     1.0000   1.0000   1.0000   1.0000   1.0000   1.0000   1.0000   1.0000
     1.0000   1.0000   1.0000   1.0000   1.0000   1.0000   1.0000   1.0000
     1.0000   1.0000   1.0000   1.0000   1.0000   1.0000   1.0000   1.0000
     1.0000   1.0000   1.0000   1.0000   1.0000   1.0000   1.0000   1.0000
     1.0000   1.0000   1.0000   1.0000   1.0000   1.0000   1.0000   1.0000
     1.0000   1.0000   1.0000   1.0000   1.0000   1.0000   1.0000   1.0000
     1.0000   1.0000   1.0000   1.0000   1.0000   1.0000   1.0000   1.0000
     1.0000   1.0000   1.0000   1.0000   1.0000   1.0000   1.0000   1.0000
     1.0000   1.0000   1.0000   1.0000   1.0000   1.0000   1.0000   1.0000
     1.0000   1.0000   1.0000   1.0000   1.0000   1.0000   1.0000   1.0000
     1.0000   1.0000   1.0000   1.0000   1.0000   1.0000   1.0000   1.0000

          k = 0.1667-0.5000 0.1065 ( 29142 PWs)   bands (ev):

   -35.2090 -35.2090 -35.2090 -35.2090 -35.2088 -35.2088 -35.2088 -35.2088
   -35.2070 -35.2070 -35.2069 -35.2069 -35.2068 -35.2068 -35.2068 -35.2068
   -35.2020 -35.2020 -35.2018 -35.2018 -35.2018 -35.2018 -35.2018 -35.2018
   -35.2016 -35.2016 -35.2016 -35.2016 -35.2016 -35.2016 -35.2016 -35.2016
   -35.1979 -35.1979 -35.1979 -35.1979 -35.1977 -35.1977 -35.1975 -35.1975
   -11.8846 -11.8846 -11.8814 -11.8814 -11.8786 -11.8786 -11.8673 -11.8673
   -11.8479 -11.8479 -11.8310 -11.8310 -11.7284 -11.7284 -11.7170 -11.7170
   -11.7097 -11.7097 -11.6953 -11.6953 -11.6918 -11.6918 -11.6907 -11.6906
   -11.6869 -11.6869 -11.6771 -11.6771 -11.6759 -11.6759 -11.6748 -11.6748
   -11.6617 -11.6617 -11.6607 -11.6607 -11.6602 -11.6602 -11.6586 -11.6586
   -11.6515 -11.6515 -11.6490 -11.6490 -11.6450 -11.6450 -11.6428 -11.6427
   -11.6380 -11.6380 -11.6376 -11.6376 -11.6330 -11.6330 -11.6307 -11.6307
   -11.6247 -11.6247 -11.6229 -11.6229 -11.6205 -11.6205 -11.6139 -11.6139
   -11.6137 -11.6137 -11.6092 -11.6092 -11.6074 -11.6074 -11.6062 -11.6062
   -11.6030 -11.6030 -11.6029 -11.6029 -11.6020 -11.6020 -11.5987 -11.5987
    -8.0163  -8.0163  -7.9970  -7.9970  -7.1505  -7.1505  -7.1369  -7.1368
    -6.6108  -6.6108  -6.6034  -6.6033  -6.1443  -6.1442  -6.1416  -6.1415
    -1.4640  -1.4640  -1.0341  -1.0340  -0.4774  -0.4774  -0.3698  -0.3698
     0.2039   0.2039   0.3631   0.3631   0.4312   0.4312   0.7050   0.7050
     0.8769   0.8769   1.0272   1.0272   2.1530   2.1530   2.2114   2.2114
     5.1937   5.1937   5.2338   5.2338   5.2465   5.2465   5.5680   5.5680
     5.6359   5.6359   6.1364   6.1364   6.1472   6.1472   6.1945   6.1945
     6.6070   6.6070   6.9556   6.9557   7.1255   7.1255   7.2537   7.2537
     7.4586   7.4586   7.4750   7.4750   7.6250   7.6250   7.8457   7.8457
     7.9038   7.9038   7.9463   7.9463   8.3925   8.3925   8.4887   8.4887
     8.6017   8.6017   8.7701   8.7701   8.7727   8.7727   9.1336   9.1336
     9.2091   9.2091   9.3858   9.3858   9.5115   9.5115   9.7766   9.7766
     9.8836   9.8836   9.9351   9.9351  10.0102  10.0102  10.0604  10.0604
    10.1482  10.1483  10.2636  10.2636  10.6233  10.6233  10.8243  10.8243

     occupation numbers 
     1.0000   1.0000   1.0000   1.0000   1.0000   1.0000   1.0000   1.0000
     1.0000   1.0000   1.0000   1.0000   1.0000   1.0000   1.0000   1.0000
     1.0000   1.0000   1.0000   1.0000   1.0000   1.0000   1.0000   1.0000
     1.0000   1.0000   1.0000   1.0000   1.0000   1.0000   1.0000   1.0000
     1.0000   1.0000   1.0000   1.0000   1.0000   1.0000   1.0000   1.0000
     1.0000   1.0000   1.0000   1.0000   1.0000   1.0000   1.0000   1.0000
     1.0000   1.0000   1.0000   1.0000   1.0000   1.0000   1.0000   1.0000
     1.0000   1.0000   1.0000   1.0000   1.0000   1.0000   1.0000   1.0000
     1.0000   1.0000   1.0000   1.0000   1.0000   1.0000   1.0000   1.0000
     1.0000   1.0000   1.0000   1.0000   1.0000   1.0000   1.0000   1.0000
     1.0000   1.0000   1.0000   1.0000   1.0000   1.0000   1.0000   1.0000
     1.0000   1.0000   1.0000   1.0000   1.0000   1.0000   1.0000   1.0000
     1.0000   1.0000   1.0000   1.0000   1.0000   1.0000   1.0000   1.0000
     1.0000   1.0000   1.0000   1.0000   1.0000   1.0000   1.0000   1.0000
     1.0000   1.0000   1.0000   1.0000   1.0000   1.0000   1.0000   1.0000
     1.0000   1.0000   1.0000   1.0000   1.0000   1.0000   1.0000   1.0000
     1.0000   1.0000   1.0000   1.0000   1.0000   1.0000   1.0000   1.0000
     1.0000   1.0000   1.0000   1.0000   1.0000   1.0000   1.0000   1.0000
     1.0000   1.0000   1.0000   1.0000   1.0000   1.0000   1.0000   1.0000
     1.0000   1.0000   1.0000   1.0000   1.0000   1.0000   1.0000   1.0000
     1.0000   1.0000   1.0000   1.0000   1.0000   1.0000   1.0000   1.0000
     1.0000   1.0000   1.0000   1.0000   1.0000   1.0000   1.0000   1.0000
     1.0000   1.0000   1.0000   1.0000   1.0000   1.0000   1.0000   1.0000
     1.0000   1.0000   1.0000   1.0000   1.0000   1.0000   1.0000   1.0000
     1.0000   1.0000   1.0000   1.0000   1.0000   1.0000   1.0000   1.0000
     1.0000   1.0000   1.0000   1.0000   1.0000   1.0000   1.0000   1.0000
     1.0000   1.0000   1.0000   1.0000   1.0000   1.0000   1.0000   1.0000
     1.0000   1.0000   1.0000   1.0000   1.0000   1.0000   1.0000   1.0000
     1.0000   1.0000   1.0000   1.0000   1.0000   1.0000   1.0000   1.0000

          k = 0.1667-0.5000 0.2129 ( 29174 PWs)   bands (ev):

   -35.2090 -35.2090 -35.2090 -35.2090 -35.2089 -35.2089 -35.2088 -35.2088
   -35.2070 -35.2070 -35.2069 -35.2069 -35.2069 -35.2069 -35.2068 -35.2068
   -35.2020 -35.2020 -35.2019 -35.2019 -35.2018 -35.2018 -35.2018 -35.2018
   -35.2018 -35.2018 -35.2017 -35.2017 -35.2017 -35.2017 -35.2017 -35.2017
   -35.1978 -35.1978 -35.1978 -35.1978 -35.1977 -35.1977 -35.1977 -35.1977
   -11.8834 -11.8834 -11.8799 -11.8799 -11.8786 -11.8786 -11.8706 -11.8706
   -11.8444 -11.8444 -11.8348 -11.8348 -11.7263 -11.7263 -11.7197 -11.7197
   -11.7065 -11.7065 -11.6957 -11.6957 -11.6932 -11.6932 -11.6893 -11.6893
   -11.6883 -11.6883 -11.6809 -11.6809 -11.6754 -11.6754 -11.6751 -11.6751
   -11.6608 -11.6608 -11.6601 -11.6601 -11.6595 -11.6595 -11.6592 -11.6592
   -11.6520 -11.6520 -11.6508 -11.6508 -11.6428 -11.6428 -11.6417 -11.6417
   -11.6393 -11.6393 -11.6388 -11.6388 -11.6295 -11.6295 -11.6267 -11.6267
   -11.6250 -11.6250 -11.6194 -11.6194 -11.6184 -11.6184 -11.6168 -11.6168
   -11.6119 -11.6119 -11.6117 -11.6117 -11.6104 -11.6104 -11.6064 -11.6064
   -11.6041 -11.6041 -11.6027 -11.6027 -11.6024 -11.6024 -11.5999 -11.5999
    -8.0123  -8.0122  -8.0011  -8.0011  -7.1476  -7.1476  -7.1397  -7.1397
    -6.6093  -6.6092  -6.6049  -6.6049  -6.1437  -6.1437  -6.1421  -6.1421
    -1.3902  -1.3902  -1.1478  -1.1478  -0.4544  -0.4544  -0.3921  -0.3921
     0.2325   0.2325   0.3495   0.3495   0.4977   0.4977   0.7891   0.7891
     0.8065   0.8065   0.9785   0.9785   2.1597   2.1597   2.1928   2.1928
     5.1662   5.1662   5.1799   5.1799   5.2998   5.2998   5.4927   5.4927
     5.8105   5.8105   6.0933   6.0933   6.1419   6.1419   6.1771   6.1771
     6.6736   6.6736   6.8887   6.8887   7.1603   7.1603   7.2553   7.2553
     7.4155   7.4155   7.4441   7.4441   7.5900   7.5900   7.7652   7.7652
     8.0861   8.0861   8.0960   8.0960   8.3592   8.3592   8.3619   8.3619
     8.6383   8.6383   8.7789   8.7789   8.7875   8.7875   8.9315   8.9315
     9.2221   9.2221   9.3158   9.3158   9.5383   9.5383   9.6926   9.6926
     9.9818   9.9818  10.0199  10.0199  10.0456  10.0457  10.0781  10.0781
    10.1884  10.1884  10.2097  10.2097  10.7178  10.7178  10.8157  10.8157

     occupation numbers 
     1.0000   1.0000   1.0000   1.0000   1.0000   1.0000   1.0000   1.0000
     1.0000   1.0000   1.0000   1.0000   1.0000   1.0000   1.0000   1.0000
     1.0000   1.0000   1.0000   1.0000   1.0000   1.0000   1.0000   1.0000
     1.0000   1.0000   1.0000   1.0000   1.0000   1.0000   1.0000   1.0000
     1.0000   1.0000   1.0000   1.0000   1.0000   1.0000   1.0000   1.0000
     1.0000   1.0000   1.0000   1.0000   1.0000   1.0000   1.0000   1.0000
     1.0000   1.0000   1.0000   1.0000   1.0000   1.0000   1.0000   1.0000
     1.0000   1.0000   1.0000   1.0000   1.0000   1.0000   1.0000   1.0000
     1.0000   1.0000   1.0000   1.0000   1.0000   1.0000   1.0000   1.0000
     1.0000   1.0000   1.0000   1.0000   1.0000   1.0000   1.0000   1.0000
     1.0000   1.0000   1.0000   1.0000   1.0000   1.0000   1.0000   1.0000
     1.0000   1.0000   1.0000   1.0000   1.0000   1.0000   1.0000   1.0000
     1.0000   1.0000   1.0000   1.0000   1.0000   1.0000   1.0000   1.0000
     1.0000   1.0000   1.0000   1.0000   1.0000   1.0000   1.0000   1.0000
     1.0000   1.0000   1.0000   1.0000   1.0000   1.0000   1.0000   1.0000
     1.0000   1.0000   1.0000   1.0000   1.0000   1.0000   1.0000   1.0000
     1.0000   1.0000   1.0000   1.0000   1.0000   1.0000   1.0000   1.0000
     1.0000   1.0000   1.0000   1.0000   1.0000   1.0000   1.0000   1.0000
     1.0000   1.0000   1.0000   1.0000   1.0000   1.0000   1.0000   1.0000
     1.0000   1.0000   1.0000   1.0000   1.0000   1.0000   1.0000   1.0000
     1.0000   1.0000   1.0000   1.0000   1.0000   1.0000   1.0000   1.0000
     1.0000   1.0000   1.0000   1.0000   1.0000   1.0000   1.0000   1.0000
     1.0000   1.0000   1.0000   1.0000   1.0000   1.0000   1.0000   1.0000
     1.0000   1.0000   1.0000   1.0000   1.0000   1.0000   1.0000   1.0000
     1.0000   1.0000   1.0000   1.0000   1.0000   1.0000   1.0000   1.0000
     1.0000   1.0000   1.0000   1.0000   1.0000   1.0000   1.0000   1.0000
     1.0000   1.0000   1.0000   1.0000   1.0000   1.0000   1.0000   1.0000
     1.0000   1.0000   1.0000   1.0000   1.0000   1.0000   1.0000   1.0000
     1.0000   1.0000   1.0000   1.0000   1.0000   1.0000   1.0000   1.0000

          k = 0.1667-0.5000-0.3194 ( 29164 PWs)   bands (ev):

   -35.2090 -35.2090 -35.2090 -35.2090 -35.2088 -35.2088 -35.2088 -35.2088
   -35.2070 -35.2070 -35.2070 -35.2070 -35.2068 -35.2068 -35.2068 -35.2068
   -35.2018 -35.2018 -35.2018 -35.2018 -35.2018 -35.2018 -35.2018 -35.2018
   -35.2018 -35.2018 -35.2017 -35.2017 -35.2017 -35.2017 -35.2017 -35.2017
   -35.1978 -35.1978 -35.1978 -35.1978 -35.1978 -35.1978 -35.1978 -35.1978
   -11.8816 -11.8816 -11.8816 -11.8816 -11.8747 -11.8747 -11.8747 -11.8747
   -11.8397 -11.8397 -11.8397 -11.8397 -11.7231 -11.7231 -11.7231 -11.7231
   -11.7016 -11.7016 -11.7016 -11.7016 -11.6906 -11.6906 -11.6906 -11.6906
   -11.6854 -11.6854 -11.6854 -11.6854 -11.6752 -11.6752 -11.6752 -11.6752
   -11.6598 -11.6598 -11.6598 -11.6598 -11.6596 -11.6596 -11.6596 -11.6596
   -11.6520 -11.6520 -11.6520 -11.6520 -11.6406 -11.6406 -11.6406 -11.6406
   -11.6405 -11.6405 -11.6405 -11.6405 -11.6265 -11.6265 -11.6265 -11.6265
   -11.6216 -11.6216 -11.6216 -11.6216 -11.6155 -11.6155 -11.6155 -11.6155
   -11.6146 -11.6146 -11.6146 -11.6146 -11.6087 -11.6087 -11.6087 -11.6087
   -11.6037 -11.6037 -11.6037 -11.6037 -11.6013 -11.6013 -11.6013 -11.6013
    -8.0067  -8.0067  -8.0067  -8.0067  -7.1437  -7.1437  -7.1437  -7.1437
    -6.6071  -6.6071  -6.6071  -6.6071  -6.1429  -6.1429  -6.1429  -6.1429
    -1.2783  -1.2783  -1.2783  -1.2783  -0.4231  -0.4231  -0.4231  -0.4231
     0.2811   0.2811   0.2811   0.2812   0.6543   0.6543   0.6543   0.6543
     0.9023   0.9023   0.9023   0.9023   2.1733   2.1733   2.1733   2.1733
     5.1543   5.1543   5.1543   5.1543   5.3939   5.3939   5.3939   5.3939
     5.9771   5.9771   5.9771   5.9771   6.1568   6.1568   6.1568   6.1568
     6.7773   6.7773   6.7773   6.7773   7.2113   7.2113   7.2113   7.2113
     7.4214   7.4214   7.4214   7.4214   7.6588   7.6589   7.6589   7.6589
     8.2232   8.2232   8.2232   8.2232   8.2680   8.2680   8.2680   8.2680
     8.7406   8.7406   8.7406   8.7406   8.7872   8.7872   8.7872   8.7872
     9.2533   9.2533   9.2533   9.2533   9.6113   9.6113   9.6113   9.6113
    10.0123  10.0123  10.0123  10.0123  10.1224  10.1224  10.1224  10.1224
    10.1745  10.1745  10.1745  10.1745  10.7849  10.7849  10.7849  10.7849

     occupation numbers 
     1.0000   1.0000   1.0000   1.0000   1.0000   1.0000   1.0000   1.0000
     1.0000   1.0000   1.0000   1.0000   1.0000   1.0000   1.0000   1.0000
     1.0000   1.0000   1.0000   1.0000   1.0000   1.0000   1.0000   1.0000
     1.0000   1.0000   1.0000   1.0000   1.0000   1.0000   1.0000   1.0000
     1.0000   1.0000   1.0000   1.0000   1.0000   1.0000   1.0000   1.0000
     1.0000   1.0000   1.0000   1.0000   1.0000   1.0000   1.0000   1.0000
     1.0000   1.0000   1.0000   1.0000   1.0000   1.0000   1.0000   1.0000
     1.0000   1.0000   1.0000   1.0000   1.0000   1.0000   1.0000   1.0000
     1.0000   1.0000   1.0000   1.0000   1.0000   1.0000   1.0000   1.0000
     1.0000   1.0000   1.0000   1.0000   1.0000   1.0000   1.0000   1.0000
     1.0000   1.0000   1.0000   1.0000   1.0000   1.0000   1.0000   1.0000
     1.0000   1.0000   1.0000   1.0000   1.0000   1.0000   1.0000   1.0000
     1.0000   1.0000   1.0000   1.0000   1.0000   1.0000   1.0000   1.0000
     1.0000   1.0000   1.0000   1.0000   1.0000   1.0000   1.0000   1.0000
     1.0000   1.0000   1.0000   1.0000   1.0000   1.0000   1.0000   1.0000
     1.0000   1.0000   1.0000   1.0000   1.0000   1.0000   1.0000   1.0000
     1.0000   1.0000   1.0000   1.0000   1.0000   1.0000   1.0000   1.0000
     1.0000   1.0000   1.0000   1.0000   1.0000   1.0000   1.0000   1.0000
     1.0000   1.0000   1.0000   1.0000   1.0000   1.0000   1.0000   1.0000
     1.0000   1.0000   1.0000   1.0000   1.0000   1.0000   1.0000   1.0000
     1.0000   1.0000   1.0000   1.0000   1.0000   1.0000   1.0000   1.0000
     1.0000   1.0000   1.0000   1.0000   1.0000   1.0000   1.0000   1.0000
     1.0000   1.0000   1.0000   1.0000   1.0000   1.0000   1.0000   1.0000
     1.0000   1.0000   1.0000   1.0000   1.0000   1.0000   1.0000   1.0000
     1.0000   1.0000   1.0000   1.0000   1.0000   1.0000   1.0000   1.0000
     1.0000   1.0000   1.0000   1.0000   1.0000   1.0000   1.0000   1.0000
     1.0000   1.0000   1.0000   1.0000   1.0000   1.0000   1.0000   1.0000
     1.0000   1.0000   1.0000   1.0000   1.0000   1.0000   1.0000   1.0000
     1.0000   1.0000   1.0000   1.0000   1.0000   1.0000   1.0000   1.0000

          k = 0.3333 0.3333 0.0000 ( 29195 PWs)   bands (ev):

   -35.2091 -35.2090 -35.2090 -35.2090 -35.2090 -35.2088 -35.2088 -35.2088
   -35.2071 -35.2071 -35.2070 -35.2070 -35.2068 -35.2068 -35.2067 -35.2067
   -35.2021 -35.2021 -35.2019 -35.2019 -35.2019 -35.2019 -35.2019 -35.2019
   -35.2019 -35.2018 -35.2017 -35.2017 -35.2017 -35.2016 -35.2016 -35.2015
   -35.1981 -35.1980 -35.1980 -35.1979 -35.1977 -35.1977 -35.1977 -35.1975
   -11.8924 -11.8889 -11.8829 -11.8803 -11.8803 -11.8764 -11.8686 -11.8686
   -11.8481 -11.8277 -11.7920 -11.7920 -11.7725 -11.7725 -11.7153 -11.7151
   -11.7071 -11.7071 -11.6961 -11.6950 -11.6930 -11.6877 -11.6877 -11.6840
   -11.6833 -11.6823 -11.6801 -11.6801 -11.6761 -11.6738 -11.6701 -11.6674
   -11.6662 -11.6662 -11.6644 -11.6644 -11.6588 -11.6568 -11.6568 -11.6559
   -11.6559 -11.6529 -11.6521 -11.6521 -11.6448 -11.6426 -11.6415 -11.6415
   -11.6381 -11.6379 -11.6363 -11.6363 -11.6361 -11.6324 -11.6285 -11.6269
   -11.6250 -11.6248 -11.6233 -11.6232 -11.6191 -11.6191 -11.6166 -11.6166
   -11.6157 -11.6135 -11.6135 -11.6098 -11.6074 -11.6070 -11.6064 -11.6061
   -11.6054 -11.6054 -11.6051 -11.6051 -11.6038 -11.6038 -11.6026 -11.6016
    -8.1097  -8.0871  -7.6083  -7.6083  -7.5883  -7.5883  -7.2209  -7.2043
    -6.4742  -6.4676  -6.3837  -6.3837  -6.3779  -6.3779  -6.0544  -6.0525
    -1.5995  -1.0616  -1.0188  -1.0188  -0.6683  -0.6683  -0.5868  -0.3987
     0.1774   0.2284   0.3049   0.4251   0.4251   0.5220   0.5220   0.8112
     0.9855   1.0723   1.3675   1.3675   1.6975   1.6975   2.3019   2.4178
     5.0593   5.0971   5.0971   5.1446   5.1482   5.4017   5.4017   5.4392
     5.9440   5.9676   6.1259   6.1738   6.1738   6.2884   6.4578   6.7090
     6.7090   6.7893   6.7893   6.9513   6.9513   6.9895   6.9895   7.1623
     7.3316   7.3531   7.3742   7.3742   7.3882   7.4673   7.5118   7.5506
     7.5506   7.7149   7.8461   8.0276   8.5161   8.6075   8.6075   8.7345
     8.7345   8.8718   8.8840   8.9226   8.9856   8.9856   9.1626   9.1811
     9.2230   9.2354   9.3148   9.5840   9.5840   9.6050   9.6050   9.6535
     9.6584   9.6716   9.6716   9.7230   9.7758   9.9725  10.2389  10.2389
    10.3118  10.3366  10.4015  10.6430  10.6430  10.8036  10.8782  10.8782

     occupation numbers 
     1.0000   1.0000   1.0000   1.0000   1.0000   1.0000   1.0000   1.0000
     1.0000   1.0000   1.0000   1.0000   1.0000   1.0000   1.0000   1.0000
     1.0000   1.0000   1.0000   1.0000   1.0000   1.0000   1.0000   1.0000
     1.0000   1.0000   1.0000   1.0000   1.0000   1.0000   1.0000   1.0000
     1.0000   1.0000   1.0000   1.0000   1.0000   1.0000   1.0000   1.0000
     1.0000   1.0000   1.0000   1.0000   1.0000   1.0000   1.0000   1.0000
     1.0000   1.0000   1.0000   1.0000   1.0000   1.0000   1.0000   1.0000
     1.0000   1.0000   1.0000   1.0000   1.0000   1.0000   1.0000   1.0000
     1.0000   1.0000   1.0000   1.0000   1.0000   1.0000   1.0000   1.0000
     1.0000   1.0000   1.0000   1.0000   1.0000   1.0000   1.0000   1.0000
     1.0000   1.0000   1.0000   1.0000   1.0000   1.0000   1.0000   1.0000
     1.0000   1.0000   1.0000   1.0000   1.0000   1.0000   1.0000   1.0000
     1.0000   1.0000   1.0000   1.0000   1.0000   1.0000   1.0000   1.0000
     1.0000   1.0000   1.0000   1.0000   1.0000   1.0000   1.0000   1.0000
     1.0000   1.0000   1.0000   1.0000   1.0000   1.0000   1.0000   1.0000
     1.0000   1.0000   1.0000   1.0000   1.0000   1.0000   1.0000   1.0000
     1.0000   1.0000   1.0000   1.0000   1.0000   1.0000   1.0000   1.0000
     1.0000   1.0000   1.0000   1.0000   1.0000   1.0000   1.0000   1.0000
     1.0000   1.0000   1.0000   1.0000   1.0000   1.0000   1.0000   1.0000
     1.0000   1.0000   1.0000   1.0000   1.0000   1.0000   1.0000   1.0000
     1.0000   1.0000   1.0000   1.0000   1.0000   1.0000   1.0000   1.0000
     1.0000   1.0000   1.0000   1.0000   1.0000   1.0000   1.0000   1.0000
     1.0000   1.0000   1.0000   1.0000   1.0000   1.0000   1.0000   1.0000
     1.0000   1.0000   1.0000   1.0000   1.0000   1.0000   1.0000   1.0000
     1.0000   1.0000   1.0000   1.0000   1.0000   1.0000   1.0000   1.0000
     1.0000   1.0000   1.0000   1.0000   1.0000   1.0000   1.0000   1.0000
     1.0000   1.0000   1.0000   1.0000   1.0000   1.0000   1.0000   1.0000
     1.0000   1.0000   1.0000   1.0000   1.0000   1.0000   1.0000   1.0000
     1.0000   1.0000   1.0000   1.0000   1.0000   1.0000   1.0000   1.0000

          k = 0.3333 0.3333 0.1065 ( 29175 PWs)   bands (ev):

   -35.2091 -35.2090 -35.2090 -35.2089 -35.2089 -35.2089 -35.2088 -35.2088
   -35.2071 -35.2070 -35.2070 -35.2069 -35.2069 -35.2069 -35.2069 -35.2067
   -35.2020 -35.2019 -35.2019 -35.2018 -35.2018 -35.2018 -35.2018 -35.2018
   -35.2018 -35.2018 -35.2018 -35.2017 -35.2016 -35.2016 -35.2015 -35.2015
   -35.1980 -35.1979 -35.1978 -35.1978 -35.1978 -35.1977 -35.1976 -35.1976
   -11.8914 -11.8885 -11.8833 -11.8795 -11.8795 -11.8776 -11.8694 -11.8694
   -11.8469 -11.8292 -11.7909 -11.7909 -11.7740 -11.7740 -11.7147 -11.7142
   -11.7058 -11.7058 -11.6969 -11.6952 -11.6922 -11.6891 -11.6891 -11.6875
   -11.6832 -11.6813 -11.6792 -11.6792 -11.6778 -11.6727 -11.6699 -11.6676
   -11.6674 -11.6674 -11.6645 -11.6645 -11.6588 -11.6581 -11.6581 -11.6549
   -11.6549 -11.6536 -11.6512 -11.6512 -11.6437 -11.6424 -11.6411 -11.6411
   -11.6376 -11.6376 -11.6364 -11.6359 -11.6359 -11.6303 -11.6266 -11.6265
   -11.6252 -11.6250 -11.6226 -11.6223 -11.6186 -11.6186 -11.6169 -11.6157
   -11.6157 -11.6130 -11.6130 -11.6106 -11.6082 -11.6076 -11.6074 -11.6060
   -11.6060 -11.6058 -11.6058 -11.6058 -11.6044 -11.6044 -11.6030 -11.6019
    -8.1082  -8.0886  -7.6069  -7.6069  -7.5896  -7.5896  -7.2198  -7.2054
    -6.4737  -6.4681  -6.3833  -6.3833  -6.3783  -6.3783  -6.0543  -6.0526
    -1.5727  -1.1140  -0.9993  -0.9993  -0.6976  -0.6976  -0.5752  -0.4123
     0.1832   0.2914   0.2945   0.4375   0.4375   0.5192   0.5192   0.8347
     0.9428   1.0586   1.3892   1.3892   1.6755   1.6755   2.3094   2.4096
     5.0834   5.1145   5.1145   5.1350   5.1366   5.3769   5.3769   5.4119
     5.9677   6.0397   6.1348   6.2025   6.2025   6.2747   6.4017   6.6689
     6.6689   6.8113   6.8113   6.9558   6.9558   6.9835   6.9835   7.1040
     7.1848   7.2222   7.2222   7.3624   7.4481   7.4569   7.6170   7.7180
     7.7555   7.7555   7.9974   8.0005   8.4718   8.5885   8.5885   8.7354
     8.7354   8.8725   8.8830   8.9322   8.9322   8.9376   9.1249   9.1591
     9.1815   9.2178   9.2808   9.5469   9.5469   9.6138   9.6629   9.6697
     9.6697   9.6880   9.6880   9.7687   9.8099   9.9916  10.1907  10.1907
    10.2533  10.3082  10.5341  10.6580  10.6580  10.8092  10.8619  10.8619

     occupation numbers 
     1.0000   1.0000   1.0000   1.0000   1.0000   1.0000   1.0000   1.0000
     1.0000   1.0000   1.0000   1.0000   1.0000   1.0000   1.0000   1.0000
     1.0000   1.0000   1.0000   1.0000   1.0000   1.0000   1.0000   1.0000
     1.0000   1.0000   1.0000   1.0000   1.0000   1.0000   1.0000   1.0000
     1.0000   1.0000   1.0000   1.0000   1.0000   1.0000   1.0000   1.0000
     1.0000   1.0000   1.0000   1.0000   1.0000   1.0000   1.0000   1.0000
     1.0000   1.0000   1.0000   1.0000   1.0000   1.0000   1.0000   1.0000
     1.0000   1.0000   1.0000   1.0000   1.0000   1.0000   1.0000   1.0000
     1.0000   1.0000   1.0000   1.0000   1.0000   1.0000   1.0000   1.0000
     1.0000   1.0000   1.0000   1.0000   1.0000   1.0000   1.0000   1.0000
     1.0000   1.0000   1.0000   1.0000   1.0000   1.0000   1.0000   1.0000
     1.0000   1.0000   1.0000   1.0000   1.0000   1.0000   1.0000   1.0000
     1.0000   1.0000   1.0000   1.0000   1.0000   1.0000   1.0000   1.0000
     1.0000   1.0000   1.0000   1.0000   1.0000   1.0000   1.0000   1.0000
     1.0000   1.0000   1.0000   1.0000   1.0000   1.0000   1.0000   1.0000
     1.0000   1.0000   1.0000   1.0000   1.0000   1.0000   1.0000   1.0000
     1.0000   1.0000   1.0000   1.0000   1.0000   1.0000   1.0000   1.0000
     1.0000   1.0000   1.0000   1.0000   1.0000   1.0000   1.0000   1.0000
     1.0000   1.0000   1.0000   1.0000   1.0000   1.0000   1.0000   1.0000
     1.0000   1.0000   1.0000   1.0000   1.0000   1.0000   1.0000   1.0000
     1.0000   1.0000   1.0000   1.0000   1.0000   1.0000   1.0000   1.0000
     1.0000   1.0000   1.0000   1.0000   1.0000   1.0000   1.0000   1.0000
     1.0000   1.0000   1.0000   1.0000   1.0000   1.0000   1.0000   1.0000
     1.0000   1.0000   1.0000   1.0000   1.0000   1.0000   1.0000   1.0000
     1.0000   1.0000   1.0000   1.0000   1.0000   1.0000   1.0000   1.0000
     1.0000   1.0000   1.0000   1.0000   1.0000   1.0000   1.0000   1.0000
     1.0000   1.0000   1.0000   1.0000   1.0000   1.0000   1.0000   1.0000
     1.0000   1.0000   1.0000   1.0000   1.0000   1.0000   1.0000   1.0000
     1.0000   1.0000   1.0000   1.0000   1.0000   1.0000   1.0000   1.0000

          k = 0.3333 0.3333 0.2129 ( 29182 PWs)   bands (ev):

   -35.2092 -35.2090 -35.2090 -35.2089 -35.2089 -35.2089 -35.2088 -35.2088
   -35.2071 -35.2070 -35.2069 -35.2069 -35.2069 -35.2069 -35.2069 -35.2068
   -35.2020 -35.2019 -35.2019 -35.2018 -35.2018 -35.2018 -35.2018 -35.2018
   -35.2018 -35.2018 -35.2017 -35.2017 -35.2016 -35.2016 -35.2016 -35.2016
   -35.1980 -35.1979 -35.1978 -35.1978 -35.1978 -35.1978 -35.1977 -35.1977
   -11.8886 -11.8874 -11.8844 -11.8806 -11.8775 -11.8775 -11.8717 -11.8717
   -11.8434 -11.8332 -11.7876 -11.7876 -11.7779 -11.7779 -11.7130 -11.7121
   -11.7024 -11.7024 -11.6997 -11.6939 -11.6929 -11.6929 -11.6927 -11.6898
   -11.6857 -11.6816 -11.6775 -11.6771 -11.6771 -11.6723 -11.6705 -11.6705
   -11.6693 -11.6681 -11.6638 -11.6638 -11.6603 -11.6603 -11.6584 -11.6554
   -11.6530 -11.6530 -11.6506 -11.6506 -11.6418 -11.6410 -11.6395 -11.6395
   -11.6395 -11.6375 -11.6359 -11.6359 -11.6323 -11.6276 -11.6261 -11.6258
   -11.6253 -11.6219 -11.6200 -11.6200 -11.6199 -11.6165 -11.6165 -11.6134
   -11.6134 -11.6132 -11.6120 -11.6120 -11.6115 -11.6109 -11.6089 -11.6089
   -11.6069 -11.6069 -11.6069 -11.6062 -11.6062 -11.6049 -11.6042 -11.6027
    -8.1041  -8.0928  -7.6033  -7.6033  -7.5933  -7.5933  -7.2168  -7.2085
    -6.4725  -6.4693  -6.3823  -6.3823  -6.3794  -6.3794  -6.0540  -6.0530
    -1.4952  -1.2376  -0.9440  -0.9440  -0.7717  -0.7717  -0.5426  -0.4487
     0.2003   0.2605   0.4561   0.4651   0.4651   0.5099   0.5099   0.8231
     0.8924   1.0192   1.4492   1.4492   1.6150   1.6150   2.3300   2.3877
     5.1138   5.1194   5.1500   5.1634   5.1634   5.3134   5.3134   5.3391
     6.0369   6.1602   6.2306   6.2401   6.2772   6.2860   6.2860   6.5576
     6.5576   6.7968   6.8603   6.8603   6.9504   6.9504   6.9841   6.9841
     7.0877   7.0877   7.2441   7.3910   7.3950   7.5143   7.6133   7.9181
     7.9644   8.0413   8.0413   8.2517   8.3517   8.5041   8.5041   8.7414
     8.7414   8.8273   8.8273   8.8630   8.8745   8.8805   8.9835   9.1343
     9.1829   9.2141   9.2518   9.4972   9.5536   9.5536   9.6480   9.6480
     9.6876   9.7485   9.8083   9.8083   9.9940  10.0418  10.0756  10.0756
    10.1774  10.2737  10.6897  10.6996  10.6996  10.8139  10.8175  10.8175

     occupation numbers 
     1.0000   1.0000   1.0000   1.0000   1.0000   1.0000   1.0000   1.0000
     1.0000   1.0000   1.0000   1.0000   1.0000   1.0000   1.0000   1.0000
     1.0000   1.0000   1.0000   1.0000   1.0000   1.0000   1.0000   1.0000
     1.0000   1.0000   1.0000   1.0000   1.0000   1.0000   1.0000   1.0000
     1.0000   1.0000   1.0000   1.0000   1.0000   1.0000   1.0000   1.0000
     1.0000   1.0000   1.0000   1.0000   1.0000   1.0000   1.0000   1.0000
     1.0000   1.0000   1.0000   1.0000   1.0000   1.0000   1.0000   1.0000
     1.0000   1.0000   1.0000   1.0000   1.0000   1.0000   1.0000   1.0000
     1.0000   1.0000   1.0000   1.0000   1.0000   1.0000   1.0000   1.0000
     1.0000   1.0000   1.0000   1.0000   1.0000   1.0000   1.0000   1.0000
     1.0000   1.0000   1.0000   1.0000   1.0000   1.0000   1.0000   1.0000
     1.0000   1.0000   1.0000   1.0000   1.0000   1.0000   1.0000   1.0000
     1.0000   1.0000   1.0000   1.0000   1.0000   1.0000   1.0000   1.0000
     1.0000   1.0000   1.0000   1.0000   1.0000   1.0000   1.0000   1.0000
     1.0000   1.0000   1.0000   1.0000   1.0000   1.0000   1.0000   1.0000
     1.0000   1.0000   1.0000   1.0000   1.0000   1.0000   1.0000   1.0000
     1.0000   1.0000   1.0000   1.0000   1.0000   1.0000   1.0000   1.0000
     1.0000   1.0000   1.0000   1.0000   1.0000   1.0000   1.0000   1.0000
     1.0000   1.0000   1.0000   1.0000   1.0000   1.0000   1.0000   1.0000
     1.0000   1.0000   1.0000   1.0000   1.0000   1.0000   1.0000   1.0000
     1.0000   1.0000   1.0000   1.0000   1.0000   1.0000   1.0000   1.0000
     1.0000   1.0000   1.0000   1.0000   1.0000   1.0000   1.0000   1.0000
     1.0000   1.0000   1.0000   1.0000   1.0000   1.0000   1.0000   1.0000
     1.0000   1.0000   1.0000   1.0000   1.0000   1.0000   1.0000   1.0000
     1.0000   1.0000   1.0000   1.0000   1.0000   1.0000   1.0000   1.0000
     1.0000   1.0000   1.0000   1.0000   1.0000   1.0000   1.0000   1.0000
     1.0000   1.0000   1.0000   1.0000   1.0000   1.0000   1.0000   1.0000
     1.0000   1.0000   1.0000   1.0000   1.0000   1.0000   1.0000   1.0000
     1.0000   1.0000   1.0000   1.0000   1.0000   1.0000   1.0000   1.0000

          k = 0.3333 0.3333-0.3194 ( 29178 PWs)   bands (ev):

   -35.2091 -35.2091 -35.2090 -35.2089 -35.2088 -35.2088 -35.2088 -35.2088
   -35.2070 -35.2070 -35.2069 -35.2069 -35.2069 -35.2069 -35.2069 -35.2069
   -35.2018 -35.2018 -35.2018 -35.2018 -35.2018 -35.2018 -35.2018 -35.2018
   -35.2018 -35.2018 -35.2018 -35.2017 -35.2017 -35.2017 -35.2017 -35.2017
   -35.1978 -35.1978 -35.1978 -35.1978 -35.1978 -35.1978 -35.1978 -35.1978
   -11.8859 -11.8859 -11.8847 -11.8847 -11.8746 -11.8746 -11.8746 -11.8746
   -11.8385 -11.8385 -11.7829 -11.7829 -11.7829 -11.7829 -11.7113 -11.7113
   -11.6990 -11.6990 -11.6977 -11.6977 -11.6977 -11.6977 -11.6892 -11.6892
   -11.6860 -11.6860 -11.6741 -11.6741 -11.6741 -11.6741 -11.6741 -11.6741
   -11.6686 -11.6686 -11.6623 -11.6623 -11.6623 -11.6623 -11.6572 -11.6572
   -11.6514 -11.6514 -11.6514 -11.6514 -11.6408 -11.6408 -11.6386 -11.6386
   -11.6373 -11.6373 -11.6373 -11.6373 -11.6280 -11.6280 -11.6261 -11.6261
   -11.6237 -11.6237 -11.6167 -11.6167 -11.6164 -11.6164 -11.6155 -11.6155
   -11.6128 -11.6128 -11.6128 -11.6128 -11.6115 -11.6115 -11.6115 -11.6115
   -11.6076 -11.6076 -11.6076 -11.6076 -11.6057 -11.6057 -11.6038 -11.6038
    -8.0984  -8.0984  -7.5983  -7.5983  -7.5983  -7.5983  -7.2126  -7.2126
    -6.4709  -6.4709  -6.3808  -6.3808  -6.3808  -6.3808  -6.0535  -6.0535
    -1.3769  -1.3769  -0.8623  -0.8623  -0.8623  -0.8623  -0.4966  -0.4966
     0.2272   0.2272   0.4918   0.4918   0.4918   0.4918   0.6490   0.6490
     0.9601   0.9601   1.5320   1.5320   1.5320   1.5320   2.3585   2.3585
     5.1077   5.1077   5.2349   5.2349   5.2349   5.2349   5.2430   5.2430
     6.1449   6.1449   6.1979   6.1979   6.4135   6.4135   6.4135   6.4135
     6.4954   6.4954   6.9123   6.9123   6.9123   6.9123   7.0181   7.0181
     7.0181   7.0181   7.3210   7.3210   7.4404   7.4404   7.7825   7.7825
     8.1783   8.1783   8.3094   8.3094   8.3094   8.3094   8.5517   8.5517
     8.7635   8.7635   8.7635   8.7635   8.8773   8.8773   9.0584   9.0584
     9.1881   9.1881   9.3565   9.3565   9.5993   9.5993   9.5993   9.5993
     9.7192   9.7192   9.9408   9.9408   9.9408   9.9408  10.1076  10.1077
    10.1685  10.1685  10.7578  10.7578  10.7578  10.7578  10.7849  10.7849

     occupation numbers 
     1.0000   1.0000   1.0000   1.0000   1.0000   1.0000   1.0000   1.0000
     1.0000   1.0000   1.0000   1.0000   1.0000   1.0000   1.0000   1.0000
     1.0000   1.0000   1.0000   1.0000   1.0000   1.0000   1.0000   1.0000
     1.0000   1.0000   1.0000   1.0000   1.0000   1.0000   1.0000   1.0000
     1.0000   1.0000   1.0000   1.0000   1.0000   1.0000   1.0000   1.0000
     1.0000   1.0000   1.0000   1.0000   1.0000   1.0000   1.0000   1.0000
     1.0000   1.0000   1.0000   1.0000   1.0000   1.0000   1.0000   1.0000
     1.0000   1.0000   1.0000   1.0000   1.0000   1.0000   1.0000   1.0000
     1.0000   1.0000   1.0000   1.0000   1.0000   1.0000   1.0000   1.0000
     1.0000   1.0000   1.0000   1.0000   1.0000   1.0000   1.0000   1.0000
     1.0000   1.0000   1.0000   1.0000   1.0000   1.0000   1.0000   1.0000
     1.0000   1.0000   1.0000   1.0000   1.0000   1.0000   1.0000   1.0000
     1.0000   1.0000   1.0000   1.0000   1.0000   1.0000   1.0000   1.0000
     1.0000   1.0000   1.0000   1.0000   1.0000   1.0000   1.0000   1.0000
     1.0000   1.0000   1.0000   1.0000   1.0000   1.0000   1.0000   1.0000
     1.0000   1.0000   1.0000   1.0000   1.0000   1.0000   1.0000   1.0000
     1.0000   1.0000   1.0000   1.0000   1.0000   1.0000   1.0000   1.0000
     1.0000   1.0000   1.0000   1.0000   1.0000   1.0000   1.0000   1.0000
     1.0000   1.0000   1.0000   1.0000   1.0000   1.0000   1.0000   1.0000
     1.0000   1.0000   1.0000   1.0000   1.0000   1.0000   1.0000   1.0000
     1.0000   1.0000   1.0000   1.0000   1.0000   1.0000   1.0000   1.0000
     1.0000   1.0000   1.0000   1.0000   1.0000   1.0000   1.0000   1.0000
     1.0000   1.0000   1.0000   1.0000   1.0000   1.0000   1.0000   1.0000
     1.0000   1.0000   1.0000   1.0000   1.0000   1.0000   1.0000   1.0000
     1.0000   1.0000   1.0000   1.0000   1.0000   1.0000   1.0000   1.0000
     1.0000   1.0000   1.0000   1.0000   1.0000   1.0000   1.0000   1.0000
     1.0000   1.0000   1.0000   1.0000   1.0000   1.0000   1.0000   1.0000
     1.0000   1.0000   1.0000   1.0000   1.0000   1.0000   1.0000   1.0000
     1.0000   1.0000   1.0000   1.0000   1.0000   1.0000   1.0000   1.0000

          k = 0.3333-0.5000 0.0000 ( 29156 PWs)   bands (ev):

   -35.2090 -35.2090 -35.2090 -35.2090 -35.2089 -35.2089 -35.2088 -35.2088
   -35.2070 -35.2070 -35.2069 -35.2069 -35.2068 -35.2068 -35.2067 -35.2067
   -35.2019 -35.2019 -35.2019 -35.2019 -35.2019 -35.2019 -35.2018 -35.2018
   -35.2017 -35.2017 -35.2017 -35.2017 -35.2016 -35.2016 -35.2016 -35.2016
   -35.1979 -35.1979 -35.1979 -35.1979 -35.1978 -35.1978 -35.1976 -35.1976
   -11.8865 -11.8865 -11.8852 -11.8852 -11.8767 -11.8767 -11.8728 -11.8728
   -11.8197 -11.8197 -11.7994 -11.7994 -11.7526 -11.7526 -11.7327 -11.7327
   -11.7114 -11.7114 -11.7012 -11.7012 -11.6861 -11.6861 -11.6848 -11.6848
   -11.6832 -11.6832 -11.6728 -11.6728 -11.6708 -11.6708 -11.6701 -11.6701
   -11.6654 -11.6654 -11.6620 -11.6620 -11.6586 -11.6586 -11.6576 -11.6576
   -11.6526 -11.6526 -11.6510 -11.6510 -11.6454 -11.6454 -11.6413 -11.6413
   -11.6378 -11.6378 -11.6369 -11.6369 -11.6324 -11.6324 -11.6321 -11.6321
   -11.6287 -11.6287 -11.6256 -11.6256 -11.6221 -11.6221 -11.6185 -11.6185
   -11.6136 -11.6136 -11.6115 -11.6115 -11.6100 -11.6100 -11.6075 -11.6075
   -11.6062 -11.6062 -11.6056 -11.6056 -11.6040 -11.6040 -11.6038 -11.6038
    -7.8900  -7.8900  -7.8682  -7.8682  -7.4356  -7.4356  -7.4169  -7.4169
    -6.4088  -6.4088  -6.4030  -6.4030  -6.1854  -6.1854  -6.1821  -6.1820
    -1.3524  -1.3524  -0.8838  -0.8837  -0.8307  -0.8307  -0.5425  -0.5425
     0.2950   0.2950   0.3490   0.3490   0.3500   0.3500   0.7544   0.7544
     1.1342   1.1342   1.4102   1.4102   1.9419   1.9419   2.0441   2.0441
     4.9980   4.9980   5.0348   5.0349   5.2225   5.2225   5.4126   5.4126
     5.9470   5.9470   6.4555   6.4555   6.4606   6.4606   6.5979   6.5980
     6.6372   6.6372   6.7017   6.7017   7.0322   7.0322   7.0659   7.0659
     7.1360   7.1360   7.5033   7.5033   7.5215   7.5215   7.5326   7.5326
     7.5728   7.5728   7.5850   7.5850   8.7899   8.7899   8.8325   8.8326
     8.8828   8.8828   8.9877   8.9877   8.9979   8.9979   9.0797   9.0797
     9.1489   9.1489   9.3497   9.3497   9.4367   9.4367   9.5058   9.5058
     9.6843   9.6843   9.7074   9.7074  10.1962  10.1962  10.3015  10.3015
    10.3619  10.3619  10.3893  10.3893  10.7933  10.7933  10.8201  10.8201

     occupation numbers 
     1.0000   1.0000   1.0000   1.0000   1.0000   1.0000   1.0000   1.0000
     1.0000   1.0000   1.0000   1.0000   1.0000   1.0000   1.0000   1.0000
     1.0000   1.0000   1.0000   1.0000   1.0000   1.0000   1.0000   1.0000
     1.0000   1.0000   1.0000   1.0000   1.0000   1.0000   1.0000   1.0000
     1.0000   1.0000   1.0000   1.0000   1.0000   1.0000   1.0000   1.0000
     1.0000   1.0000   1.0000   1.0000   1.0000   1.0000   1.0000   1.0000
     1.0000   1.0000   1.0000   1.0000   1.0000   1.0000   1.0000   1.0000
     1.0000   1.0000   1.0000   1.0000   1.0000   1.0000   1.0000   1.0000
     1.0000   1.0000   1.0000   1.0000   1.0000   1.0000   1.0000   1.0000
     1.0000   1.0000   1.0000   1.0000   1.0000   1.0000   1.0000   1.0000
     1.0000   1.0000   1.0000   1.0000   1.0000   1.0000   1.0000   1.0000
     1.0000   1.0000   1.0000   1.0000   1.0000   1.0000   1.0000   1.0000
     1.0000   1.0000   1.0000   1.0000   1.0000   1.0000   1.0000   1.0000
     1.0000   1.0000   1.0000   1.0000   1.0000   1.0000   1.0000   1.0000
     1.0000   1.0000   1.0000   1.0000   1.0000   1.0000   1.0000   1.0000
     1.0000   1.0000   1.0000   1.0000   1.0000   1.0000   1.0000   1.0000
     1.0000   1.0000   1.0000   1.0000   1.0000   1.0000   1.0000   1.0000
     1.0000   1.0000   1.0000   1.0000   1.0000   1.0000   1.0000   1.0000
     1.0000   1.0000   1.0000   1.0000   1.0000   1.0000   1.0000   1.0000
     1.0000   1.0000   1.0000   1.0000   1.0000   1.0000   1.0000   1.0000
     1.0000   1.0000   1.0000   1.0000   1.0000   1.0000   1.0000   1.0000
     1.0000   1.0000   1.0000   1.0000   1.0000   1.0000   1.0000   1.0000
     1.0000   1.0000   1.0000   1.0000   1.0000   1.0000   1.0000   1.0000
     1.0000   1.0000   1.0000   1.0000   1.0000   1.0000   1.0000   1.0000
     1.0000   1.0000   1.0000   1.0000   1.0000   1.0000   1.0000   1.0000
     1.0000   1.0000   1.0000   1.0000   1.0000   1.0000   1.0000   1.0000
     1.0000   1.0000   1.0000   1.0000   1.0000   1.0000   1.0000   1.0000
     1.0000   1.0000   1.0000   1.0000   1.0000   1.0000   1.0000   1.0000
     1.0000   1.0000   1.0000   1.0000   1.0000   1.0000   1.0000   1.0000

          k = 0.3333-0.5000 0.1065 ( 29140 PWs)   bands (ev):

   -35.2090 -35.2090 -35.2090 -35.2090 -35.2088 -35.2088 -35.2088 -35.2088
   -35.2069 -35.2069 -35.2069 -35.2069 -35.2069 -35.2069 -35.2067 -35.2067
   -35.2020 -35.2020 -35.2019 -35.2019 -35.2018 -35.2018 -35.2018 -35.2018
   -35.2017 -35.2017 -35.2017 -35.2017 -35.2016 -35.2016 -35.2015 -35.2015
   -35.1979 -35.1979 -35.1978 -35.1978 -35.1977 -35.1977 -35.1975 -35.1975
   -11.8856 -11.8856 -11.8847 -11.8847 -11.8773 -11.8773 -11.8738 -11.8738
   -11.8185 -11.8185 -11.8010 -11.8010 -11.7515 -11.7515 -11.7346 -11.7346
   -11.7097 -11.7097 -11.7001 -11.7001 -11.6875 -11.6875 -11.6853 -11.6853
   -11.6846 -11.6846 -11.6722 -11.6722 -11.6720 -11.6720 -11.6694 -11.6694
   -11.6649 -11.6649 -11.6617 -11.6617 -11.6582 -11.6582 -11.6576 -11.6576
   -11.6529 -11.6529 -11.6524 -11.6524 -11.6442 -11.6442 -11.6410 -11.6410
   -11.6376 -11.6376 -11.6362 -11.6362 -11.6327 -11.6327 -11.6321 -11.6321
   -11.6275 -11.6275 -11.6242 -11.6242 -11.6209 -11.6209 -11.6179 -11.6179
   -11.6133 -11.6133 -11.6125 -11.6125 -11.6096 -11.6096 -11.6081 -11.6081
   -11.6074 -11.6074 -11.6065 -11.6065 -11.6046 -11.6046 -11.6042 -11.6042
    -7.8886  -7.8886  -7.8697  -7.8697  -7.4344  -7.4343  -7.4182  -7.4182
    -6.4084  -6.4084  -6.4034  -6.4034  -6.1852  -6.1852  -6.1823  -6.1823
    -1.3283  -1.3283  -0.9274  -0.9274  -0.8142  -0.8142  -0.5656  -0.5656
     0.3402   0.3403   0.3512   0.3513   0.3513   0.3513   0.7333   0.7333
     1.1543   1.1543   1.3933   1.3933   1.9458   1.9458   2.0341   2.0341
     5.0231   5.0231   5.0429   5.0429   5.2052   5.2052   5.3814   5.3814
     5.9887   5.9887   6.4612   6.4612   6.4861   6.4861   6.5448   6.5449
     6.6004   6.6004   6.7485   6.7485   7.0465   7.0465   7.0585   7.0585
     7.1196   7.1196   7.2862   7.2862   7.3536   7.3537   7.5055   7.5055
     7.8096   7.8096   7.8564   7.8564   8.7309   8.7310   8.8218   8.8218
     8.8826   8.8826   8.9867   8.9867   9.0021   9.0021   9.0730   9.0730
     9.1049   9.1049   9.3946   9.3946   9.4099   9.4099   9.5142   9.5142
     9.6783   9.6783   9.7516   9.7516  10.1520  10.1520  10.2286  10.2286
    10.2983  10.2983  10.4659  10.4659  10.8205  10.8205  10.8267  10.8267

     occupation numbers 
     1.0000   1.0000   1.0000   1.0000   1.0000   1.0000   1.0000   1.0000
     1.0000   1.0000   1.0000   1.0000   1.0000   1.0000   1.0000   1.0000
     1.0000   1.0000   1.0000   1.0000   1.0000   1.0000   1.0000   1.0000
     1.0000   1.0000   1.0000   1.0000   1.0000   1.0000   1.0000   1.0000
     1.0000   1.0000   1.0000   1.0000   1.0000   1.0000   1.0000   1.0000
     1.0000   1.0000   1.0000   1.0000   1.0000   1.0000   1.0000   1.0000
     1.0000   1.0000   1.0000   1.0000   1.0000   1.0000   1.0000   1.0000
     1.0000   1.0000   1.0000   1.0000   1.0000   1.0000   1.0000   1.0000
     1.0000   1.0000   1.0000   1.0000   1.0000   1.0000   1.0000   1.0000
     1.0000   1.0000   1.0000   1.0000   1.0000   1.0000   1.0000   1.0000
     1.0000   1.0000   1.0000   1.0000   1.0000   1.0000   1.0000   1.0000
     1.0000   1.0000   1.0000   1.0000   1.0000   1.0000   1.0000   1.0000
     1.0000   1.0000   1.0000   1.0000   1.0000   1.0000   1.0000   1.0000
     1.0000   1.0000   1.0000   1.0000   1.0000   1.0000   1.0000   1.0000
     1.0000   1.0000   1.0000   1.0000   1.0000   1.0000   1.0000   1.0000
     1.0000   1.0000   1.0000   1.0000   1.0000   1.0000   1.0000   1.0000
     1.0000   1.0000   1.0000   1.0000   1.0000   1.0000   1.0000   1.0000
     1.0000   1.0000   1.0000   1.0000   1.0000   1.0000   1.0000   1.0000
     1.0000   1.0000   1.0000   1.0000   1.0000   1.0000   1.0000   1.0000
     1.0000   1.0000   1.0000   1.0000   1.0000   1.0000   1.0000   1.0000
     1.0000   1.0000   1.0000   1.0000   1.0000   1.0000   1.0000   1.0000
     1.0000   1.0000   1.0000   1.0000   1.0000   1.0000   1.0000   1.0000
     1.0000   1.0000   1.0000   1.0000   1.0000   1.0000   1.0000   1.0000
     1.0000   1.0000   1.0000   1.0000   1.0000   1.0000   1.0000   1.0000
     1.0000   1.0000   1.0000   1.0000   1.0000   1.0000   1.0000   1.0000
     1.0000   1.0000   1.0000   1.0000   1.0000   1.0000   1.0000   1.0000
     1.0000   1.0000   1.0000   1.0000   1.0000   1.0000   1.0000   1.0000
     1.0000   1.0000   1.0000   1.0000   1.0000   1.0000   1.0000   1.0000
     1.0000   1.0000   1.0000   1.0000   1.0000   1.0000   1.0000   1.0000

          k = 0.3333-0.5000 0.2129 ( 29158 PWs)   bands (ev):

   -35.2090 -35.2090 -35.2089 -35.2089 -35.2089 -35.2089 -35.2088 -35.2088
   -35.2069 -35.2069 -35.2069 -35.2069 -35.2068 -35.2068 -35.2068 -35.2068
   -35.2019 -35.2019 -35.2019 -35.2019 -35.2018 -35.2018 -35.2018 -35.2018
   -35.2017 -35.2017 -35.2017 -35.2017 -35.2017 -35.2017 -35.2016 -35.2016
   -35.1978 -35.1978 -35.1978 -35.1978 -35.1977 -35.1977 -35.1976 -35.1976
   -11.8832 -11.8832 -11.8831 -11.8831 -11.8789 -11.8789 -11.8764 -11.8764
   -11.8151 -11.8151 -11.8051 -11.8051 -11.7486 -11.7486 -11.7391 -11.7391
   -11.7055 -11.7055 -11.6971 -11.6971 -11.6933 -11.6933 -11.6882 -11.6882
   -11.6830 -11.6830 -11.6757 -11.6757 -11.6703 -11.6703 -11.6685 -11.6685
   -11.6635 -11.6635 -11.6613 -11.6613 -11.6576 -11.6576 -11.6576 -11.6576
   -11.6543 -11.6543 -11.6538 -11.6538 -11.6425 -11.6425 -11.6408 -11.6408
   -11.6365 -11.6365 -11.6350 -11.6350 -11.6333 -11.6333 -11.6328 -11.6328
   -11.6242 -11.6242 -11.6203 -11.6203 -11.6178 -11.6178 -11.6163 -11.6163
   -11.6154 -11.6154 -11.6129 -11.6129 -11.6107 -11.6107 -11.6098 -11.6098
   -11.6090 -11.6090 -11.6081 -11.6081 -11.6062 -11.6062 -11.6053 -11.6053
    -7.8846  -7.8846  -7.8737  -7.8737  -7.4310  -7.4309  -7.4216  -7.4216
    -6.4074  -6.4074  -6.4045  -6.4044  -6.1846  -6.1845  -6.1829  -6.1829
    -1.2589  -1.2589  -1.0325  -1.0325  -0.7676  -0.7675  -0.6251  -0.6251
     0.3541   0.3541   0.3550   0.3550   0.4483   0.4483   0.6705   0.6705
     1.2081   1.2081   1.3459   1.3459   1.9584   1.9584   2.0091   2.0091
     5.0682   5.0682   5.0933   5.0933   5.1618   5.1618   5.2994   5.2994
     6.1027   6.1027   6.4182   6.4182   6.4791   6.4791   6.5510   6.5511
     6.5642   6.5642   6.8318   6.8318   6.8916   6.8916   7.0516   7.0516
     7.0842   7.0842   7.2081   7.2081   7.2923   7.2923   7.4578   7.4578
     8.0952   8.0952   8.1666   8.1666   8.5758   8.5758   8.7366   8.7366
     8.8835   8.8835   8.9340   8.9340   8.9928   8.9928   9.0053   9.0053
     9.1634   9.1634   9.3380   9.3380   9.5241   9.5241   9.5469   9.5469
     9.6502   9.6502   9.8625   9.8625   9.9344   9.9344  10.1615  10.1615
    10.3131  10.3131  10.4798  10.4798  10.8428  10.8428  10.8534  10.8534

     occupation numbers 
     1.0000   1.0000   1.0000   1.0000   1.0000   1.0000   1.0000   1.0000
     1.0000   1.0000   1.0000   1.0000   1.0000   1.0000   1.0000   1.0000
     1.0000   1.0000   1.0000   1.0000   1.0000   1.0000   1.0000   1.0000
     1.0000   1.0000   1.0000   1.0000   1.0000   1.0000   1.0000   1.0000
     1.0000   1.0000   1.0000   1.0000   1.0000   1.0000   1.0000   1.0000
     1.0000   1.0000   1.0000   1.0000   1.0000   1.0000   1.0000   1.0000
     1.0000   1.0000   1.0000   1.0000   1.0000   1.0000   1.0000   1.0000
     1.0000   1.0000   1.0000   1.0000   1.0000   1.0000   1.0000   1.0000
     1.0000   1.0000   1.0000   1.0000   1.0000   1.0000   1.0000   1.0000
     1.0000   1.0000   1.0000   1.0000   1.0000   1.0000   1.0000   1.0000
     1.0000   1.0000   1.0000   1.0000   1.0000   1.0000   1.0000   1.0000
     1.0000   1.0000   1.0000   1.0000   1.0000   1.0000   1.0000   1.0000
     1.0000   1.0000   1.0000   1.0000   1.0000   1.0000   1.0000   1.0000
     1.0000   1.0000   1.0000   1.0000   1.0000   1.0000   1.0000   1.0000
     1.0000   1.0000   1.0000   1.0000   1.0000   1.0000   1.0000   1.0000
     1.0000   1.0000   1.0000   1.0000   1.0000   1.0000   1.0000   1.0000
     1.0000   1.0000   1.0000   1.0000   1.0000   1.0000   1.0000   1.0000
     1.0000   1.0000   1.0000   1.0000   1.0000   1.0000   1.0000   1.0000
     1.0000   1.0000   1.0000   1.0000   1.0000   1.0000   1.0000   1.0000
     1.0000   1.0000   1.0000   1.0000   1.0000   1.0000   1.0000   1.0000
     1.0000   1.0000   1.0000   1.0000   1.0000   1.0000   1.0000   1.0000
     1.0000   1.0000   1.0000   1.0000   1.0000   1.0000   1.0000   1.0000
     1.0000   1.0000   1.0000   1.0000   1.0000   1.0000   1.0000   1.0000
     1.0000   1.0000   1.0000   1.0000   1.0000   1.0000   1.0000   1.0000
     1.0000   1.0000   1.0000   1.0000   1.0000   1.0000   1.0000   1.0000
     1.0000   1.0000   1.0000   1.0000   1.0000   1.0000   1.0000   1.0000
     1.0000   1.0000   1.0000   1.0000   1.0000   1.0000   1.0000   1.0000
     1.0000   1.0000   1.0000   1.0000   1.0000   1.0000   1.0000   1.0000
     1.0000   1.0000   1.0000   1.0000   1.0000   1.0000   1.0000   1.0000

          k = 0.3333-0.5000-0.3194 ( 29148 PWs)   bands (ev):

   -35.2089 -35.2089 -35.2089 -35.2089 -35.2088 -35.2088 -35.2088 -35.2088
   -35.2069 -35.2069 -35.2069 -35.2069 -35.2068 -35.2068 -35.2068 -35.2068
   -35.2018 -35.2018 -35.2018 -35.2018 -35.2018 -35.2018 -35.2018 -35.2018
   -35.2017 -35.2017 -35.2017 -35.2017 -35.2017 -35.2017 -35.2016 -35.2016
   -35.1978 -35.1978 -35.1978 -35.1978 -35.1978 -35.1978 -35.1977 -35.1977
   -11.8810 -11.8810 -11.8810 -11.8810 -11.8799 -11.8799 -11.8799 -11.8799
   -11.8102 -11.8102 -11.8102 -11.8102 -11.7442 -11.7442 -11.7442 -11.7442
   -11.6998 -11.6998 -11.6998 -11.6998 -11.6928 -11.6928 -11.6928 -11.6928
   -11.6797 -11.6797 -11.6797 -11.6797 -11.6689 -11.6689 -11.6689 -11.6689
   -11.6619 -11.6619 -11.6619 -11.6619 -11.6575 -11.6575 -11.6575 -11.6575
   -11.6547 -11.6547 -11.6547 -11.6547 -11.6414 -11.6414 -11.6414 -11.6414
   -11.6345 -11.6345 -11.6345 -11.6345 -11.6341 -11.6341 -11.6341 -11.6341
   -11.6197 -11.6197 -11.6197 -11.6197 -11.6154 -11.6154 -11.6154 -11.6154
   -11.6140 -11.6140 -11.6140 -11.6140 -11.6137 -11.6137 -11.6137 -11.6137
   -11.6082 -11.6082 -11.6082 -11.6082 -11.6067 -11.6067 -11.6067 -11.6067
    -7.8792  -7.8792  -7.8792  -7.8792  -7.4263  -7.4263  -7.4263  -7.4263
    -6.4059  -6.4059  -6.4059  -6.4059  -6.1837  -6.1837  -6.1837  -6.1837
    -1.1540  -1.1540  -1.1540  -1.1540  -0.6995  -0.6995  -0.6995  -0.6995
     0.3561   0.3561   0.3561   0.3561   0.5700   0.5700   0.5700   0.5700
     1.2786   1.2786   1.2786   1.2786   1.9807   1.9807   1.9807   1.9807
     5.1105   5.1105   5.1106   5.1106   5.1934   5.1934   5.1934   5.1934
     6.2590   6.2590   6.2590   6.2591   6.5094   6.5094   6.5094   6.5094
     6.6999   6.6999   6.6999   6.6999   6.9374   6.9374   6.9374   6.9375
     7.1357   7.1357   7.1357   7.1357   7.3812   7.3812   7.3812   7.3812
     8.3561   8.3561   8.3561   8.3561   8.4814   8.4814   8.4814   8.4814
     8.8909   8.8909   8.8909   8.8909   9.0017   9.0017   9.0017   9.0017
     9.2458   9.2458   9.2458   9.2459   9.5996   9.5996   9.5997   9.5997
     9.7147   9.7147   9.7147   9.7147  10.0075  10.0075  10.0075  10.0075
    10.4136  10.4136  10.4136  10.4136  10.8575  10.8575  10.8575  10.8575

     occupation numbers 
     1.0000   1.0000   1.0000   1.0000   1.0000   1.0000   1.0000   1.0000
     1.0000   1.0000   1.0000   1.0000   1.0000   1.0000   1.0000   1.0000
     1.0000   1.0000   1.0000   1.0000   1.0000   1.0000   1.0000   1.0000
     1.0000   1.0000   1.0000   1.0000   1.0000   1.0000   1.0000   1.0000
     1.0000   1.0000   1.0000   1.0000   1.0000   1.0000   1.0000   1.0000
     1.0000   1.0000   1.0000   1.0000   1.0000   1.0000   1.0000   1.0000
     1.0000   1.0000   1.0000   1.0000   1.0000   1.0000   1.0000   1.0000
     1.0000   1.0000   1.0000   1.0000   1.0000   1.0000   1.0000   1.0000
     1.0000   1.0000   1.0000   1.0000   1.0000   1.0000   1.0000   1.0000
     1.0000   1.0000   1.0000   1.0000   1.0000   1.0000   1.0000   1.0000
     1.0000   1.0000   1.0000   1.0000   1.0000   1.0000   1.0000   1.0000
     1.0000   1.0000   1.0000   1.0000   1.0000   1.0000   1.0000   1.0000
     1.0000   1.0000   1.0000   1.0000   1.0000   1.0000   1.0000   1.0000
     1.0000   1.0000   1.0000   1.0000   1.0000   1.0000   1.0000   1.0000
     1.0000   1.0000   1.0000   1.0000   1.0000   1.0000   1.0000   1.0000
     1.0000   1.0000   1.0000   1.0000   1.0000   1.0000   1.0000   1.0000
     1.0000   1.0000   1.0000   1.0000   1.0000   1.0000   1.0000   1.0000
     1.0000   1.0000   1.0000   1.0000   1.0000   1.0000   1.0000   1.0000
     1.0000   1.0000   1.0000   1.0000   1.0000   1.0000   1.0000   1.0000
     1.0000   1.0000   1.0000   1.0000   1.0000   1.0000   1.0000   1.0000
     1.0000   1.0000   1.0000   1.0000   1.0000   1.0000   1.0000   1.0000
     1.0000   1.0000   1.0000   1.0000   1.0000   1.0000   1.0000   1.0000
     1.0000   1.0000   1.0000   1.0000   1.0000   1.0000   1.0000   1.0000
     1.0000   1.0000   1.0000   1.0000   1.0000   1.0000   1.0000   1.0000
     1.0000   1.0000   1.0000   1.0000   1.0000   1.0000   1.0000   1.0000
     1.0000   1.0000   1.0000   1.0000   1.0000   1.0000   1.0000   1.0000
     1.0000   1.0000   1.0000   1.0000   1.0000   1.0000   1.0000   1.0000
     1.0000   1.0000   1.0000   1.0000   1.0000   1.0000   1.0000   1.0000
     1.0000   1.0000   1.0000   1.0000   1.0000   1.0000   1.0000   1.0000

          k =-0.5000-0.5000 0.0000 ( 29128 PWs)   bands (ev):

   -35.2089 -35.2089 -35.2089 -35.2089 -35.2089 -35.2089 -35.2089 -35.2089
   -35.2067 -35.2067 -35.2067 -35.2067 -35.2067 -35.2067 -35.2067 -35.2067
   -35.2018 -35.2018 -35.2018 -35.2018 -35.2018 -35.2018 -35.2018 -35.2018
   -35.2017 -35.2017 -35.2017 -35.2017 -35.2017 -35.2017 -35.2017 -35.2017
   -35.1978 -35.1978 -35.1978 -35.1978 -35.1978 -35.1978 -35.1978 -35.1978
   -11.8862 -11.8862 -11.8862 -11.8862 -11.8753 -11.8753 -11.8753 -11.8753
   -11.7854 -11.7854 -11.7854 -11.7854 -11.7651 -11.7651 -11.7651 -11.7651
   -11.7062 -11.7062 -11.7062 -11.7062 -11.6822 -11.6822 -11.6822 -11.6822
   -11.6731 -11.6731 -11.6731 -11.6731 -11.6676 -11.6676 -11.6676 -11.6676
   -11.6660 -11.6660 -11.6660 -11.6660 -11.6612 -11.6612 -11.6612 -11.6612
   -11.6493 -11.6493 -11.6493 -11.6492 -11.6462 -11.6462 -11.6462 -11.6462
   -11.6348 -11.6348 -11.6348 -11.6347 -11.6333 -11.6333 -11.6333 -11.6333
   -11.6280 -11.6280 -11.6280 -11.6280 -11.6226 -11.6226 -11.6226 -11.6226
   -11.6145 -11.6145 -11.6145 -11.6145 -11.6091 -11.6091 -11.6091 -11.6091
   -11.6067 -11.6067 -11.6067 -11.6067 -11.6062 -11.6062 -11.6062 -11.6061
    -7.6899  -7.6899  -7.6899  -7.6899  -7.6692  -7.6692  -7.6692  -7.6692
    -6.2687  -6.2687  -6.2687  -6.2687  -6.2646  -6.2646  -6.2646  -6.2646
    -1.1295  -1.1295  -1.1295  -1.1295  -0.7279  -0.7279  -0.7279  -0.7279
     0.2971   0.2971   0.2971   0.2971   0.5519   0.5519   0.5519   0.5519
     1.5908   1.5908   1.5908   1.5908   1.7626   1.7626   1.7626   1.7626
     4.9292   4.9292   4.9292   4.9292   5.2929   5.2929   5.2929   5.2929
     6.4651   6.4651   6.4651   6.4651   6.4927   6.4927   6.4927   6.4927
     6.7997   6.7997   6.7997   6.7998   6.9227   6.9227   6.9227   6.9227
     7.0909   7.0909   7.0909   7.0909   7.4947   7.4947   7.4947   7.4947
     7.5463   7.5463   7.5463   7.5463   9.0054   9.0055   9.0055   9.0055
     9.0313   9.0313   9.0313   9.0313   9.0410   9.0410   9.0410   9.0410
     9.1465   9.1466   9.1466   9.1466   9.4114   9.4114   9.4114   9.4114
     9.5378   9.5378   9.5378   9.5378  10.3857  10.3857  10.3857  10.3857
    10.5913  10.5913  10.5913  10.5913  10.8347  10.8347  10.8347  10.8347

     occupation numbers 
     1.0000   1.0000   1.0000   1.0000   1.0000   1.0000   1.0000   1.0000
     1.0000   1.0000   1.0000   1.0000   1.0000   1.0000   1.0000   1.0000
     1.0000   1.0000   1.0000   1.0000   1.0000   1.0000   1.0000   1.0000
     1.0000   1.0000   1.0000   1.0000   1.0000   1.0000   1.0000   1.0000
     1.0000   1.0000   1.0000   1.0000   1.0000   1.0000   1.0000   1.0000
     1.0000   1.0000   1.0000   1.0000   1.0000   1.0000   1.0000   1.0000
     1.0000   1.0000   1.0000   1.0000   1.0000   1.0000   1.0000   1.0000
     1.0000   1.0000   1.0000   1.0000   1.0000   1.0000   1.0000   1.0000
     1.0000   1.0000   1.0000   1.0000   1.0000   1.0000   1.0000   1.0000
     1.0000   1.0000   1.0000   1.0000   1.0000   1.0000   1.0000   1.0000
     1.0000   1.0000   1.0000   1.0000   1.0000   1.0000   1.0000   1.0000
     1.0000   1.0000   1.0000   1.0000   1.0000   1.0000   1.0000   1.0000
     1.0000   1.0000   1.0000   1.0000   1.0000   1.0000   1.0000   1.0000
     1.0000   1.0000   1.0000   1.0000   1.0000   1.0000   1.0000   1.0000
     1.0000   1.0000   1.0000   1.0000   1.0000   1.0000   1.0000   1.0000
     1.0000   1.0000   1.0000   1.0000   1.0000   1.0000   1.0000   1.0000
     1.0000   1.0000   1.0000   1.0000   1.0000   1.0000   1.0000   1.0000
     1.0000   1.0000   1.0000   1.0000   1.0000   1.0000   1.0000   1.0000
     1.0000   1.0000   1.0000   1.0000   1.0000   1.0000   1.0000   1.0000
     1.0000   1.0000   1.0000   1.0000   1.0000   1.0000   1.0000   1.0000
     1.0000   1.0000   1.0000   1.0000   1.0000   1.0000   1.0000   1.0000
     1.0000   1.0000   1.0000   1.0000   1.0000   1.0000   1.0000   1.0000
     1.0000   1.0000   1.0000   1.0000   1.0000   1.0000   1.0000   1.0000
     1.0000   1.0000   1.0000   1.0000   1.0000   1.0000   1.0000   1.0000
     1.0000   1.0000   1.0000   1.0000   1.0000   1.0000   1.0000   1.0000
     1.0000   1.0000   1.0000   1.0000   1.0000   1.0000   1.0000   1.0000
     1.0000   1.0000   1.0000   1.0000   1.0000   1.0000   1.0000   1.0000
     1.0000   1.0000   1.0000   1.0000   1.0000   1.0000   1.0000   1.0000
     1.0000   1.0000   1.0000   1.0000   1.0000   1.0000   1.0000   1.0000

          k =-0.5000-0.5000 0.1065 ( 29144 PWs)   bands (ev):

   -35.2090 -35.2089 -35.2089 -35.2089 -35.2089 -35.2089 -35.2089 -35.2089
   -35.2068 -35.2068 -35.2068 -35.2068 -35.2067 -35.2067 -35.2067 -35.2067
   -35.2019 -35.2019 -35.2019 -35.2019 -35.2018 -35.2018 -35.2018 -35.2018
   -35.2018 -35.2018 -35.2018 -35.2018 -35.2017 -35.2017 -35.2017 -35.2017
   -35.1978 -35.1978 -35.1978 -35.1978 -35.1975 -35.1975 -35.1975 -35.1975
   -11.8855 -11.8855 -11.8855 -11.8855 -11.8761 -11.8761 -11.8761 -11.8761
   -11.7843 -11.7843 -11.7843 -11.7843 -11.7668 -11.7668 -11.7668 -11.7668
   -11.7048 -11.7048 -11.7048 -11.7048 -11.6846 -11.6846 -11.6846 -11.6845
   -11.6726 -11.6726 -11.6726 -11.6726 -11.6668 -11.6668 -11.6668 -11.6668
   -11.6649 -11.6649 -11.6649 -11.6649 -11.6626 -11.6626 -11.6626 -11.6626
   -11.6488 -11.6488 -11.6488 -11.6488 -11.6464 -11.6464 -11.6464 -11.6464
   -11.6348 -11.6348 -11.6348 -11.6348 -11.6334 -11.6334 -11.6334 -11.6334
   -11.6262 -11.6262 -11.6262 -11.6262 -11.6216 -11.6216 -11.6216 -11.6216
   -11.6140 -11.6140 -11.6140 -11.6140 -11.6098 -11.6098 -11.6098 -11.6098
   -11.6079 -11.6079 -11.6079 -11.6079 -11.6067 -11.6067 -11.6067 -11.6067
    -7.6885  -7.6885  -7.6885  -7.6885  -7.6706  -7.6706  -7.6706  -7.6706
    -6.2685  -6.2684  -6.2684  -6.2684  -6.2649  -6.2649  -6.2649  -6.2648
    -1.1082  -1.1082  -1.1082  -1.1082  -0.7638  -0.7638  -0.7638  -0.7638
     0.3252   0.3252   0.3252   0.3252   0.5421   0.5421   0.5421   0.5421
     1.6000   1.6000   1.6000   1.6000   1.7491   1.7491   1.7491   1.7491
     4.9518   4.9518   4.9518   4.9518   5.2664   5.2664   5.2664   5.2664
     6.4961   6.4961   6.4961   6.4961   6.5064   6.5064   6.5064   6.5064
     6.7575   6.7576   6.7576   6.7576   6.9548   6.9548   6.9548   6.9548
     7.0858   7.0858   7.0858   7.0858   7.2161   7.2161   7.2161   7.2161
     7.8501   7.8501   7.8501   7.8501   8.9418   8.9418   8.9418   8.9418
     9.0316   9.0316   9.0316   9.0316   9.0391   9.0391   9.0391   9.0391
     9.1735   9.1735   9.1735   9.1735   9.4670   9.4670   9.4670   9.4670
     9.5110   9.5111   9.5111   9.5111  10.2985  10.2985  10.2985  10.2985
    10.6070  10.6070  10.6070  10.6070  10.8183  10.8183  10.8183  10.8183

     occupation numbers 
     1.0000   1.0000   1.0000   1.0000   1.0000   1.0000   1.0000   1.0000
     1.0000   1.0000   1.0000   1.0000   1.0000   1.0000   1.0000   1.0000
     1.0000   1.0000   1.0000   1.0000   1.0000   1.0000   1.0000   1.0000
     1.0000   1.0000   1.0000   1.0000   1.0000   1.0000   1.0000   1.0000
     1.0000   1.0000   1.0000   1.0000   1.0000   1.0000   1.0000   1.0000
     1.0000   1.0000   1.0000   1.0000   1.0000   1.0000   1.0000   1.0000
     1.0000   1.0000   1.0000   1.0000   1.0000   1.0000   1.0000   1.0000
     1.0000   1.0000   1.0000   1.0000   1.0000   1.0000   1.0000   1.0000
     1.0000   1.0000   1.0000   1.0000   1.0000   1.0000   1.0000   1.0000
     1.0000   1.0000   1.0000   1.0000   1.0000   1.0000   1.0000   1.0000
     1.0000   1.0000   1.0000   1.0000   1.0000   1.0000   1.0000   1.0000
     1.0000   1.0000   1.0000   1.0000   1.0000   1.0000   1.0000   1.0000
     1.0000   1.0000   1.0000   1.0000   1.0000   1.0000   1.0000   1.0000
     1.0000   1.0000   1.0000   1.0000   1.0000   1.0000   1.0000   1.0000
     1.0000   1.0000   1.0000   1.0000   1.0000   1.0000   1.0000   1.0000
     1.0000   1.0000   1.0000   1.0000   1.0000   1.0000   1.0000   1.0000
     1.0000   1.0000   1.0000   1.0000   1.0000   1.0000   1.0000   1.0000
     1.0000   1.0000   1.0000   1.0000   1.0000   1.0000   1.0000   1.0000
     1.0000   1.0000   1.0000   1.0000   1.0000   1.0000   1.0000   1.0000
     1.0000   1.0000   1.0000   1.0000   1.0000   1.0000   1.0000   1.0000
     1.0000   1.0000   1.0000   1.0000   1.0000   1.0000   1.0000   1.0000
     1.0000   1.0000   1.0000   1.0000   1.0000   1.0000   1.0000   1.0000
     1.0000   1.0000   1.0000   1.0000   1.0000   1.0000   1.0000   1.0000
     1.0000   1.0000   1.0000   1.0000   1.0000   1.0000   1.0000   1.0000
     1.0000   1.0000   1.0000   1.0000   1.0000   1.0000   1.0000   1.0000
     1.0000   1.0000   1.0000   1.0000   1.0000   1.0000   1.0000   1.0000
     1.0000   1.0000   1.0000   1.0000   1.0000   1.0000   1.0000   1.0000
     1.0000   1.0000   1.0000   1.0000   1.0000   1.0000   1.0000   1.0000
     1.0000   1.0000   1.0000   1.0000   1.0000   1.0000   1.0000   1.0000

          k =-0.5000-0.5000 0.2129 ( 29112 PWs)   bands (ev):

   -35.2089 -35.2089 -35.2089 -35.2089 -35.2088 -35.2088 -35.2088 -35.2088
   -35.2068 -35.2068 -35.2068 -35.2068 -35.2066 -35.2066 -35.2066 -35.2066
   -35.2018 -35.2018 -35.2018 -35.2018 -35.2017 -35.2017 -35.2017 -35.2017
   -35.2017 -35.2017 -35.2017 -35.2017 -35.2017 -35.2017 -35.2017 -35.2017
   -35.1977 -35.1977 -35.1977 -35.1977 -35.1976 -35.1976 -35.1976 -35.1976
   -11.8836 -11.8836 -11.8836 -11.8836 -11.8782 -11.8782 -11.8782 -11.8782
   -11.7811 -11.7811 -11.7811 -11.7811 -11.7710 -11.7710 -11.7710 -11.7710
   -11.7011 -11.7011 -11.7011 -11.7011 -11.6899 -11.6899 -11.6899 -11.6899
   -11.6710 -11.6710 -11.6710 -11.6710 -11.6656 -11.6656 -11.6656 -11.6656
   -11.6650 -11.6650 -11.6650 -11.6650 -11.6636 -11.6636 -11.6636 -11.6636
   -11.6481 -11.6481 -11.6481 -11.6481 -11.6467 -11.6467 -11.6467 -11.6467
   -11.6348 -11.6348 -11.6348 -11.6348 -11.6339 -11.6339 -11.6339 -11.6339
   -11.6217 -11.6217 -11.6217 -11.6217 -11.6192 -11.6192 -11.6192 -11.6192
   -11.6135 -11.6135 -11.6135 -11.6135 -11.6113 -11.6113 -11.6113 -11.6113
   -11.6112 -11.6112 -11.6112 -11.6112 -11.6082 -11.6082 -11.6082 -11.6082
    -7.6848  -7.6847  -7.6847  -7.6847  -7.6744  -7.6744  -7.6744  -7.6744
    -6.2677  -6.2677  -6.2677  -6.2676  -6.2656  -6.2656  -6.2656  -6.2656
    -1.0472  -1.0472  -1.0472  -1.0472  -0.8519  -0.8519  -0.8519  -0.8519
     0.3903   0.3903   0.3903   0.3903   0.5117   0.5117   0.5117   0.5117
     1.6271   1.6271   1.6271   1.6271   1.7135   1.7135   1.7135   1.7135
     5.0147   5.0147   5.0147   5.0147   5.1959   5.1959   5.1959   5.1959
     6.5462   6.5462   6.5462   6.5462   6.5890   6.5890   6.5890   6.5890
     6.6821   6.6821   6.6821   6.6821   6.9539   6.9539   6.9539   6.9539
     7.0034   7.0034   7.0034   7.0035   7.0701   7.0701   7.0701   7.0701
     8.1838   8.1838   8.1838   8.1838   8.7628   8.7628   8.7628   8.7629
     9.0325   9.0325   9.0325   9.0325   9.0361   9.0361   9.0361   9.0361
     9.2449   9.2449   9.2449   9.2449   9.4388   9.4388   9.4388   9.4388
     9.6219   9.6219   9.6219   9.6219  10.0899  10.0899  10.0899  10.0899
    10.6503  10.6503  10.6503  10.6503  10.7726  10.7726  10.7726  10.7726

     occupation numbers 
     1.0000   1.0000   1.0000   1.0000   1.0000   1.0000   1.0000   1.0000
     1.0000   1.0000   1.0000   1.0000   1.0000   1.0000   1.0000   1.0000
     1.0000   1.0000   1.0000   1.0000   1.0000   1.0000   1.0000   1.0000
     1.0000   1.0000   1.0000   1.0000   1.0000   1.0000   1.0000   1.0000
     1.0000   1.0000   1.0000   1.0000   1.0000   1.0000   1.0000   1.0000
     1.0000   1.0000   1.0000   1.0000   1.0000   1.0000   1.0000   1.0000
     1.0000   1.0000   1.0000   1.0000   1.0000   1.0000   1.0000   1.0000
     1.0000   1.0000   1.0000   1.0000   1.0000   1.0000   1.0000   1.0000
     1.0000   1.0000   1.0000   1.0000   1.0000   1.0000   1.0000   1.0000
     1.0000   1.0000   1.0000   1.0000   1.0000   1.0000   1.0000   1.0000
     1.0000   1.0000   1.0000   1.0000   1.0000   1.0000   1.0000   1.0000
     1.0000   1.0000   1.0000   1.0000   1.0000   1.0000   1.0000   1.0000
     1.0000   1.0000   1.0000   1.0000   1.0000   1.0000   1.0000   1.0000
     1.0000   1.0000   1.0000   1.0000   1.0000   1.0000   1.0000   1.0000
     1.0000   1.0000   1.0000   1.0000   1.0000   1.0000   1.0000   1.0000
     1.0000   1.0000   1.0000   1.0000   1.0000   1.0000   1.0000   1.0000
     1.0000   1.0000   1.0000   1.0000   1.0000   1.0000   1.0000   1.0000
     1.0000   1.0000   1.0000   1.0000   1.0000   1.0000   1.0000   1.0000
     1.0000   1.0000   1.0000   1.0000   1.0000   1.0000   1.0000   1.0000
     1.0000   1.0000   1.0000   1.0000   1.0000   1.0000   1.0000   1.0000
     1.0000   1.0000   1.0000   1.0000   1.0000   1.0000   1.0000   1.0000
     1.0000   1.0000   1.0000   1.0000   1.0000   1.0000   1.0000   1.0000
     1.0000   1.0000   1.0000   1.0000   1.0000   1.0000   1.0000   1.0000
     1.0000   1.0000   1.0000   1.0000   1.0000   1.0000   1.0000   1.0000
     1.0000   1.0000   1.0000   1.0000   1.0000   1.0000   1.0000   1.0000
     1.0000   1.0000   1.0000   1.0000   1.0000   1.0000   1.0000   1.0000
     1.0000   1.0000   1.0000   1.0000   1.0000   1.0000   1.0000   1.0000
     1.0000   1.0000   1.0000   1.0000   1.0000   1.0000   1.0000   1.0000
     1.0000   1.0000   1.0000   1.0000   1.0000   1.0000   1.0000   1.0000

          k =-0.5000-0.5000-0.3194 ( 29216 PWs)   bands (ev):

   -35.2089 -35.2089 -35.2089 -35.2089 -35.2089 -35.2089 -35.2089 -35.2089
   -35.2069 -35.2069 -35.2069 -35.2069 -35.2069 -35.2069 -35.2069 -35.2069
   -35.2019 -35.2019 -35.2019 -35.2019 -35.2019 -35.2019 -35.2019 -35.2019
   -35.2019 -35.2019 -35.2019 -35.2019 -35.2019 -35.2019 -35.2019 -35.2019
   -35.1978 -35.1978 -35.1978 -35.1978 -35.1978 -35.1978 -35.1978 -35.1978
   -11.8809 -11.8809 -11.8809 -11.8809 -11.8809 -11.8809 -11.8809 -11.8809
   -11.7764 -11.7764 -11.7764 -11.7764 -11.7764 -11.7764 -11.7764 -11.7764
   -11.6959 -11.6959 -11.6959 -11.6959 -11.6959 -11.6959 -11.6959 -11.6959
   -11.6687 -11.6687 -11.6687 -11.6687 -11.6687 -11.6687 -11.6687 -11.6687
   -11.6636 -11.6636 -11.6636 -11.6636 -11.6636 -11.6636 -11.6636 -11.6636
   -11.6474 -11.6474 -11.6474 -11.6474 -11.6474 -11.6474 -11.6474 -11.6474
   -11.6345 -11.6345 -11.6345 -11.6345 -11.6345 -11.6345 -11.6345 -11.6345
   -11.6163 -11.6163 -11.6163 -11.6163 -11.6163 -11.6163 -11.6163 -11.6163
   -11.6160 -11.6160 -11.6160 -11.6160 -11.6160 -11.6160 -11.6160 -11.6160
   -11.6100 -11.6100 -11.6100 -11.6100 -11.6100 -11.6100 -11.6100 -11.6100
    -7.6796  -7.6796  -7.6796  -7.6796  -7.6796  -7.6796  -7.6796  -7.6796
    -6.2667  -6.2667  -6.2667  -6.2667  -6.2667  -6.2667  -6.2666  -6.2666
    -0.9559  -0.9559  -0.9559  -0.9559  -0.9559  -0.9559  -0.9559  -0.9559
     0.4592   0.4592   0.4592   0.4592   0.4593   0.4593   0.4593   0.4593
     1.6682   1.6682   1.6682   1.6682   1.6682   1.6682   1.6682   1.6682
     5.1034   5.1034   5.1034   5.1034   5.1034   5.1034   5.1034   5.1034
     6.6074   6.6074   6.6074   6.6074   6.6074   6.6074   6.6074   6.6074
     6.7426   6.7426   6.7426   6.7426   6.7426   6.7426   6.7426   6.7426
     7.0428   7.0428   7.0428   7.0428   7.0428   7.0428   7.0428   7.0428
     8.4985   8.4985   8.4985   8.4985   8.4985   8.4985   8.4985   8.4985
     9.0339   9.0339   9.0339   9.0339   9.0339   9.0339   9.0339   9.0339
     9.3415   9.3415   9.3415   9.3415   9.3415   9.3415   9.3415   9.3415
     9.8443   9.8443   9.8443   9.8443   9.8443   9.8443   9.8443   9.8443
    10.7107  10.7107  10.7107  10.7107  10.7107  10.7107  10.7107  10.7107

     occupation numbers 
     1.0000   1.0000   1.0000   1.0000   1.0000   1.0000   1.0000   1.0000
     1.0000   1.0000   1.0000   1.0000   1.0000   1.0000   1.0000   1.0000
     1.0000   1.0000   1.0000   1.0000   1.0000   1.0000   1.0000   1.0000
     1.0000   1.0000   1.0000   1.0000   1.0000   1.0000   1.0000   1.0000
     1.0000   1.0000   1.0000   1.0000   1.0000   1.0000   1.0000   1.0000
     1.0000   1.0000   1.0000   1.0000   1.0000   1.0000   1.0000   1.0000
     1.0000   1.0000   1.0000   1.0000   1.0000   1.0000   1.0000   1.0000
     1.0000   1.0000   1.0000   1.0000   1.0000   1.0000   1.0000   1.0000
     1.0000   1.0000   1.0000   1.0000   1.0000   1.0000   1.0000   1.0000
     1.0000   1.0000   1.0000   1.0000   1.0000   1.0000   1.0000   1.0000
     1.0000   1.0000   1.0000   1.0000   1.0000   1.0000   1.0000   1.0000
     1.0000   1.0000   1.0000   1.0000   1.0000   1.0000   1.0000   1.0000
     1.0000   1.0000   1.0000   1.0000   1.0000   1.0000   1.0000   1.0000
     1.0000   1.0000   1.0000   1.0000   1.0000   1.0000   1.0000   1.0000
     1.0000   1.0000   1.0000   1.0000   1.0000   1.0000   1.0000   1.0000
     1.0000   1.0000   1.0000   1.0000   1.0000   1.0000   1.0000   1.0000
     1.0000   1.0000   1.0000   1.0000   1.0000   1.0000   1.0000   1.0000
     1.0000   1.0000   1.0000   1.0000   1.0000   1.0000   1.0000   1.0000
     1.0000   1.0000   1.0000   1.0000   1.0000   1.0000   1.0000   1.0000
     1.0000   1.0000   1.0000   1.0000   1.0000   1.0000   1.0000   1.0000
     1.0000   1.0000   1.0000   1.0000   1.0000   1.0000   1.0000   1.0000
     1.0000   1.0000   1.0000   1.0000   1.0000   1.0000   1.0000   1.0000
     1.0000   1.0000   1.0000   1.0000   1.0000   1.0000   1.0000   1.0000
     1.0000   1.0000   1.0000   1.0000   1.0000   1.0000   1.0000   1.0000
     1.0000   1.0000   1.0000   1.0000   1.0000   1.0000   1.0000   1.0000
     1.0000   1.0000   1.0000   1.0000   1.0000   1.0000   1.0000   1.0000
     1.0000   1.0000   1.0000   1.0000   1.0000   1.0000   1.0000   1.0000
     1.0000   1.0000   1.0000   1.0000   1.0000   1.0000   1.0000   1.0000
     1.0000   1.0000   1.0000   1.0000   1.0000   1.0000   1.0000   1.0000

     highest occupied level (ev):    10.9978

!    total energy              =  -18167.90900377 Ry
     total all-electron energy =   -730063.174279 Ry
     estimated scf accuracy    <          6.2E-09 Ry

     The total energy is the sum of the following terms:
     one-electron contribution =   -2204.40703195 Ry
     hartree contribution      =    1416.76573679 Ry
     xc contribution           =    -859.33643038 Ry
     ewald contribution        =   -3342.57262766 Ry
     one-center paw contrib.   =  -13178.35865057 Ry
      -> PAW hartree energy AE =     108.64496078 Ry
      -> PAW hartree energy PS =    -108.35026001 Ry
      -> PAW xc energy AE      =    -777.02573346 Ry
      -> PAW xc energy PS      =      31.22409023 Ry
      -> total E_H with PAW    =    1417.06043756 Ry
      -> total E_XC with PAW   =   -1605.13807361 Ry

     convergence has been achieved in  34 iterations

     Forces acting on atoms (cartesian axes, Ry/au):

     atom    1 type  1   force =     0.00000000    0.00000000    0.00012147
     atom    2 type  1   force =     0.00000000    0.00000000   -0.00012147
     atom    3 type  1   force =     0.00000401    0.00000401    0.00012173
     atom    4 type  1   force =     0.00000401    0.00000401   -0.00012173
     atom    5 type  1   force =     0.00000000    0.00000000    0.00011893
     atom    6 type  1   force =     0.00000000    0.00000000   -0.00011893
     atom    7 type  1   force =     0.00000000    0.00000000    0.00011893
     atom    8 type  1   force =     0.00000000    0.00000000   -0.00011893
     atom    9 type  1   force =     0.00000401   -0.00000401    0.00012173
     atom   10 type  1   force =     0.00000401   -0.00000401   -0.00012173
     atom   11 type  1   force =    -0.00000401    0.00000401    0.00012173
     atom   12 type  1   force =    -0.00000401    0.00000401   -0.00012173
     atom   13 type  1   force =     0.00000000    0.00000000    0.00011508
     atom   14 type  1   force =     0.00000000    0.00000000   -0.00011508
     atom   15 type  1   force =    -0.00000401   -0.00000401    0.00012173
     atom   16 type  1   force =    -0.00000401   -0.00000401   -0.00012173
     atom   17 type  3   force =     0.00000000    0.00000000    0.00000000
     atom   18 type  3   force =    -0.00000857   -0.00000857    0.00000000
     atom   19 type  3   force =     0.00000000    0.00000000    0.00000000
     atom   20 type  3   force =     0.00000000    0.00000000    0.00000000
     atom   21 type  3   force =    -0.00000857    0.00000857    0.00000000
     atom   22 type  3   force =     0.00000857   -0.00000857    0.00000000
     atom   23 type  3   force =     0.00000000    0.00000000    0.00000000
     atom   24 type  3   force =     0.00000857    0.00000857    0.00000000
     atom   25 type  2   force =     0.00000000    0.00000120   -0.00000159
     atom   26 type  2   force =     0.00000000   -0.00000120    0.00000159
     atom   27 type  2   force =     0.00000000   -0.00000120   -0.00000159
     atom   28 type  2   force =     0.00000000    0.00000120    0.00000159
     atom   29 type  2   force =    -0.00000120    0.00000000   -0.00000159
     atom   30 type  2   force =     0.00000120    0.00000000    0.00000159
     atom   31 type  2   force =     0.00000120    0.00000000   -0.00000159
     atom   32 type  2   force =    -0.00000120    0.00000000    0.00000159
     atom   33 type  2   force =     0.00000094    0.00000000    0.00000019
     atom   34 type  2   force =     0.00000094    0.00000000   -0.00000019
     atom   35 type  2   force =     0.00000000    0.00000094   -0.00000019
     atom   36 type  2   force =     0.00000000    0.00000094    0.00000019
     atom   37 type  2   force =     0.00000000   -0.00000094   -0.00000019
     atom   38 type  2   force =     0.00000000   -0.00000094    0.00000019
     atom   39 type  2   force =    -0.00000094    0.00000000    0.00000019
     atom   40 type  2   force =    -0.00000094    0.00000000   -0.00000019
     The non-local contrib.  to forces
     atom    1 type  1   force =     0.00000000    0.00000000   -0.33913267
     atom    2 type  1   force =     0.00000000    0.00000000    0.33913267
     atom    3 type  1   force =     0.00000145    0.00000145   -0.33913102
     atom    4 type  1   force =     0.00000145    0.00000145    0.33913102
     atom    5 type  1   force =     0.00000000    0.00000000   -0.33913179
     atom    6 type  1   force =     0.00000000    0.00000000    0.33913179
     atom    7 type  1   force =     0.00000000    0.00000000   -0.33913179
     atom    8 type  1   force =     0.00000000    0.00000000    0.33913179
     atom    9 type  1   force =     0.00000145   -0.00000145   -0.33913102
     atom   10 type  1   force =     0.00000145   -0.00000145    0.33913102
     atom   11 type  1   force =    -0.00000145    0.00000145   -0.33913102
     atom   12 type  1   force =    -0.00000145    0.00000145    0.33913102
     atom   13 type  1   force =     0.00000000    0.00000000   -0.33913304
     atom   14 type  1   force =     0.00000000    0.00000000    0.33913304
     atom   15 type  1   force =    -0.00000145   -0.00000145   -0.33913102
     atom   16 type  1   force =    -0.00000145   -0.00000145    0.33913102
     atom   17 type  3   force =     0.00000000    0.00000000    0.00000000
     atom   18 type  3   force =    -0.00000886   -0.00000886    0.00000000
     atom   19 type  3   force =     0.00000000    0.00000000    0.00000000
     atom   20 type  3   force =     0.00000000    0.00000000    0.00000000
     atom   21 type  3   force =    -0.00000886    0.00000886    0.00000000
     atom   22 type  3   force =     0.00000886   -0.00000886    0.00000000
     atom   23 type  3   force =     0.00000000    0.00000000    0.00000000
     atom   24 type  3   force =     0.00000886    0.00000886    0.00000000
     atom   25 type  2   force =     0.00000000    0.00000415   -0.00000348
     atom   26 type  2   force =     0.00000000   -0.00000415    0.00000348
     atom   27 type  2   force =     0.00000000   -0.00000415   -0.00000348
     atom   28 type  2   force =     0.00000000    0.00000415    0.00000348
     atom   29 type  2   force =    -0.00000415    0.00000000   -0.00000348
     atom   30 type  2   force =     0.00000415    0.00000000    0.00000348
     atom   31 type  2   force =     0.00000415    0.00000000   -0.00000348
     atom   32 type  2   force =    -0.00000415    0.00000000    0.00000348
     atom   33 type  2   force =     0.00000438    0.00000000    0.00000071
     atom   34 type  2   force =     0.00000438    0.00000000   -0.00000071
     atom   35 type  2   force =     0.00000000    0.00000438   -0.00000071
     atom   36 type  2   force =     0.00000000    0.00000438    0.00000071
     atom   37 type  2   force =     0.00000000   -0.00000438   -0.00000071
     atom   38 type  2   force =     0.00000000   -0.00000438    0.00000071
     atom   39 type  2   force =    -0.00000438    0.00000000    0.00000071
     atom   40 type  2   force =    -0.00000438    0.00000000   -0.00000071
     The ionic contribution  to forces
     atom    1 type  1   force =    -0.00000000   -0.00000000    8.66266230
     atom    2 type  1   force =     0.00000000    0.00000000   -8.66266230
     atom    3 type  1   force =    -0.00000934   -0.00000934    8.66269526
     atom    4 type  1   force =    -0.00000934   -0.00000934   -8.66269526
     atom    5 type  1   force =    -0.00000000   -0.00000000    8.66265523
     atom    6 type  1   force =    -0.00000000    0.00000000   -8.66265523
     atom    7 type  1   force =    -0.00000000    0.00000000    8.66265523
     atom    8 type  1   force =     0.00000000   -0.00000000   -8.66265523
     atom    9 type  1   force =    -0.00000934    0.00000934    8.66269526
     atom   10 type  1   force =    -0.00000934    0.00000934   -8.66269526
     atom   11 type  1   force =     0.00000934   -0.00000934    8.66269526
     atom   12 type  1   force =     0.00000934   -0.00000934   -8.66269526
     atom   13 type  1   force =     0.00000000   -0.00000000    8.66264707
     atom   14 type  1   force =    -0.00000000    0.00000000   -8.66264707
     atom   15 type  1   force =     0.00000934    0.00000934    8.66269526
     atom   16 type  1   force =     0.00000934    0.00000934   -8.66269526
     atom   17 type  3   force =    -0.00000000   -0.00000000   -0.00000000
     atom   18 type  3   force =    -0.00001812   -0.00001812    0.00000000
     atom   19 type  3   force =    -0.00000000    0.00000000   -0.00000000
     atom   20 type  3   force =     0.00000000   -0.00000000   -0.00000000
     atom   21 type  3   force =    -0.00001812    0.00001812    0.00000000
     atom   22 type  3   force =     0.00001812   -0.00001812    0.00000000
     atom   23 type  3   force =     0.00000000    0.00000000   -0.00000000
     atom   24 type  3   force =     0.00001812    0.00001812    0.00000000
     atom   25 type  2   force =    -0.00000000   -0.00000447   -0.00000733
     atom   26 type  2   force =     0.00000000    0.00000447    0.00000733
     atom   27 type  2   force =    -0.00000000    0.00000447   -0.00000733
     atom   28 type  2   force =     0.00000000   -0.00000447    0.00000733
     atom   29 type  2   force =     0.00000447   -0.00000000   -0.00000733
     atom   30 type  2   force =    -0.00000447   -0.00000000    0.00000733
     atom   31 type  2   force =    -0.00000447   -0.00000000   -0.00000733
     atom   32 type  2   force =     0.00000447    0.00000000    0.00000733
     atom   33 type  2   force =    -0.00000413    0.00000000    0.00000574
     atom   34 type  2   force =    -0.00000413    0.00000000   -0.00000574
     atom   35 type  2   force =     0.00000000   -0.00000413   -0.00000574
     atom   36 type  2   force =     0.00000000   -0.00000413    0.00000574
     atom   37 type  2   force =    -0.00000000    0.00000413   -0.00000574
     atom   38 type  2   force =     0.00000000    0.00000413    0.00000574
     atom   39 type  2   force =     0.00000413    0.00000000    0.00000574
     atom   40 type  2   force =     0.00000413   -0.00000000   -0.00000574
     The local contribution  to forces
     atom    1 type  1   force =     0.00000000   -0.00000000   -8.33561163
     atom    2 type  1   force =    -0.00000000    0.00000000    8.33561163
     atom    3 type  1   force =     0.00005679    0.00005679   -8.33565406
     atom    4 type  1   force =     0.00005679    0.00005679    8.33565406
     atom    5 type  1   force =    -0.00000000   -0.00000000   -8.33564097
     atom    6 type  1   force =     0.00000000    0.00000000    8.33564097
     atom    7 type  1   force =     0.00000000    0.00000000   -8.33564097
     atom    8 type  1   force =    -0.00000000   -0.00000000    8.33564097
     atom    9 type  1   force =     0.00005679   -0.00005679   -8.33565406
     atom   10 type  1   force =     0.00005679   -0.00005679    8.33565406
     atom   11 type  1   force =    -0.00005679    0.00005679   -8.33565406
     atom   12 type  1   force =    -0.00005679    0.00005679    8.33565406
     atom   13 type  1   force =    -0.00000000    0.00000000   -8.33567205
     atom   14 type  1   force =     0.00000000    0.00000000    8.33567205
     atom   15 type  1   force =    -0.00005679   -0.00005679   -8.33565406
     atom   16 type  1   force =    -0.00005679   -0.00005679    8.33565406
     atom   17 type  3   force =    -0.00000000    0.00000000    0.00000000
     atom   18 type  3   force =     0.00003994    0.00003994    0.00000000
     atom   19 type  3   force =    -0.00000000    0.00000000    0.00000000
     atom   20 type  3   force =     0.00000000    0.00000000    0.00000000
     atom   21 type  3   force =     0.00003994   -0.00003994    0.00000000
     atom   22 type  3   force =    -0.00003994    0.00003994    0.00000000
     atom   23 type  3   force =     0.00000000    0.00000000    0.00000000
     atom   24 type  3   force =    -0.00003994   -0.00003994    0.00000000
     atom   25 type  2   force =    -0.00000000    0.00001723    0.00000322
     atom   26 type  2   force =     0.00000000   -0.00001723   -0.00000322
     atom   27 type  2   force =     0.00000000   -0.00001723    0.00000322
     atom   28 type  2   force =    -0.00000000    0.00001723   -0.00000322
     atom   29 type  2   force =    -0.00001723   -0.00000000    0.00000322
     atom   30 type  2   force =     0.00001723    0.00000000   -0.00000322
     atom   31 type  2   force =     0.00001723   -0.00000000    0.00000322
     atom   32 type  2   force =    -0.00001723    0.00000000   -0.00000322
     atom   33 type  2   force =     0.00001451    0.00000000    0.00000226
     atom   34 type  2   force =     0.00001451    0.00000000   -0.00000226
     atom   35 type  2   force =    -0.00000000    0.00001451   -0.00000226
     atom   36 type  2   force =    -0.00000000    0.00001451    0.00000226
     atom   37 type  2   force =     0.00000000   -0.00001451   -0.00000226
     atom   38 type  2   force =     0.00000000   -0.00001451    0.00000226
     atom   39 type  2   force =    -0.00001451    0.00000000    0.00000226
     atom   40 type  2   force =    -0.00001451    0.00000000   -0.00000226
     The core correction contribution to forces
     atom    1 type  1   force =    -0.00000000   -0.00000000    0.01228677
     atom    2 type  1   force =     0.00000000    0.00000000   -0.01228677
     atom    3 type  1   force =     0.00000022    0.00000022    0.01228672
     atom    4 type  1   force =     0.00000022    0.00000022   -0.01228672
     atom    5 type  1   force =     0.00000000   -0.00000000    0.01228660
     atom    6 type  1   force =    -0.00000000    0.00000000   -0.01228660
     atom    7 type  1   force =    -0.00000000    0.00000000    0.01228660
     atom    8 type  1   force =     0.00000000   -0.00000000   -0.01228660
     atom    9 type  1   force =     0.00000022   -0.00000022    0.01228672
     atom   10 type  1   force =     0.00000022   -0.00000022   -0.01228672
     atom   11 type  1   force =    -0.00000022    0.00000022    0.01228672
     atom   12 type  1   force =    -0.00000022    0.00000022   -0.01228672
     atom   13 type  1   force =    -0.00000000   -0.00000000    0.01228628
     atom   14 type  1   force =     0.00000000    0.00000000   -0.01228628
     atom   15 type  1   force =    -0.00000022   -0.00000022    0.01228672
     atom   16 type  1   force =    -0.00000022   -0.00000022   -0.01228672
     atom   17 type  3   force =     0.00000000    0.00000000    0.00000000
     atom   18 type  3   force =    -0.00000000   -0.00000000    0.00000000
     atom   19 type  3   force =    -0.00000000    0.00000000    0.00000000
     atom   20 type  3   force =     0.00000000    0.00000000    0.00000000
     atom   21 type  3   force =    -0.00000000    0.00000000    0.00000000
     atom   22 type  3   force =     0.00000000   -0.00000000    0.00000000
     atom   23 type  3   force =     0.00000000    0.00000000    0.00000000
     atom   24 type  3   force =     0.00000000    0.00000000    0.00000000
     atom   25 type  2   force =    -0.00000000   -0.00000006    0.00000004
     atom   26 type  2   force =     0.00000000    0.00000006   -0.00000004
     atom   27 type  2   force =    -0.00000000    0.00000006    0.00000004
     atom   28 type  2   force =     0.00000000   -0.00000006   -0.00000004
     atom   29 type  2   force =     0.00000006   -0.00000000    0.00000004
     atom   30 type  2   force =    -0.00000006    0.00000000   -0.00000004
     atom   31 type  2   force =    -0.00000006   -0.00000000    0.00000004
     atom   32 type  2   force =     0.00000006    0.00000000   -0.00000004
     atom   33 type  2   force =    -0.00000006   -0.00000000   -0.00000000
     atom   34 type  2   force =    -0.00000006   -0.00000000    0.00000000
     atom   35 type  2   force =     0.00000000   -0.00000006    0.00000000
     atom   36 type  2   force =    -0.00000000   -0.00000006   -0.00000000
     atom   37 type  2   force =     0.00000000    0.00000006    0.00000000
     atom   38 type  2   force =    -0.00000000    0.00000006   -0.00000000
     atom   39 type  2   force =     0.00000006   -0.00000000   -0.00000000
     atom   40 type  2   force =     0.00000006    0.00000000    0.00000000
     The Hubbard contrib.    to forces
     atom    1 type  1   force =     0.00000000    0.00000000    0.00000000
     atom    2 type  1   force =     0.00000000    0.00000000    0.00000000
     atom    3 type  1   force =     0.00000000    0.00000000    0.00000000
     atom    4 type  1   force =     0.00000000    0.00000000    0.00000000
     atom    5 type  1   force =     0.00000000    0.00000000    0.00000000
     atom    6 type  1   force =     0.00000000    0.00000000    0.00000000
     atom    7 type  1   force =     0.00000000    0.00000000    0.00000000
     atom    8 type  1   force =     0.00000000    0.00000000    0.00000000
     atom    9 type  1   force =     0.00000000    0.00000000    0.00000000
     atom   10 type  1   force =     0.00000000    0.00000000    0.00000000
     atom   11 type  1   force =     0.00000000    0.00000000    0.00000000
     atom   12 type  1   force =     0.00000000    0.00000000    0.00000000
     atom   13 type  1   force =     0.00000000    0.00000000    0.00000000
     atom   14 type  1   force =     0.00000000    0.00000000    0.00000000
     atom   15 type  1   force =     0.00000000    0.00000000    0.00000000
     atom   16 type  1   force =     0.00000000    0.00000000    0.00000000
     atom   17 type  3   force =     0.00000000    0.00000000    0.00000000
     atom   18 type  3   force =     0.00000000    0.00000000    0.00000000
     atom   19 type  3   force =     0.00000000    0.00000000    0.00000000
     atom   20 type  3   force =     0.00000000    0.00000000    0.00000000
     atom   21 type  3   force =     0.00000000    0.00000000    0.00000000
     atom   22 type  3   force =     0.00000000    0.00000000    0.00000000
     atom   23 type  3   force =     0.00000000    0.00000000    0.00000000
     atom   24 type  3   force =     0.00000000    0.00000000    0.00000000
     atom   25 type  2   force =     0.00000000    0.00000000    0.00000000
     atom   26 type  2   force =     0.00000000    0.00000000    0.00000000
     atom   27 type  2   force =     0.00000000    0.00000000    0.00000000
     atom   28 type  2   force =     0.00000000    0.00000000    0.00000000
     atom   29 type  2   force =     0.00000000    0.00000000    0.00000000
     atom   30 type  2   force =     0.00000000    0.00000000    0.00000000
     atom   31 type  2   force =     0.00000000    0.00000000    0.00000000
     atom   32 type  2   force =     0.00000000    0.00000000    0.00000000
     atom   33 type  2   force =     0.00000000    0.00000000    0.00000000
     atom   34 type  2   force =     0.00000000    0.00000000    0.00000000
     atom   35 type  2   force =     0.00000000    0.00000000    0.00000000
     atom   36 type  2   force =     0.00000000    0.00000000    0.00000000
     atom   37 type  2   force =     0.00000000    0.00000000    0.00000000
     atom   38 type  2   force =     0.00000000    0.00000000    0.00000000
     atom   39 type  2   force =     0.00000000    0.00000000    0.00000000
     atom   40 type  2   force =     0.00000000    0.00000000    0.00000000
     The SCF correction term to forces
     atom    1 type  1   force =     0.00000000    0.00000000   -0.00008329
     atom    2 type  1   force =     0.00000000   -0.00000000    0.00008329
     atom    3 type  1   force =    -0.00004512   -0.00004512   -0.00007518
     atom    4 type  1   force =    -0.00004512   -0.00004512    0.00007518
     atom    5 type  1   force =     0.00000000    0.00000000   -0.00005014
     atom    6 type  1   force =     0.00000000   -0.00000000    0.00005014
     atom    7 type  1   force =    -0.00000000    0.00000000   -0.00005014
     atom    8 type  1   force =     0.00000000    0.00000000    0.00005014
     atom    9 type  1   force =    -0.00004512    0.00004512   -0.00007518
     atom   10 type  1   force =    -0.00004512    0.00004512    0.00007518
     atom   11 type  1   force =     0.00004512   -0.00004512   -0.00007518
     atom   12 type  1   force =     0.00004512   -0.00004512    0.00007518
     atom   13 type  1   force =    -0.00000000    0.00000000   -0.00001318
     atom   14 type  1   force =     0.00000000   -0.00000000    0.00001318
     atom   15 type  1   force =     0.00004512    0.00004512   -0.00007518
     atom   16 type  1   force =     0.00004512    0.00004512    0.00007518
     atom   17 type  3   force =     0.00000000   -0.00000000    0.00000000
     atom   18 type  3   force =    -0.00002154   -0.00002154    0.00000000
     atom   19 type  3   force =    -0.00000000   -0.00000000    0.00000000
     atom   20 type  3   force =     0.00000000    0.00000000    0.00000000
     atom   21 type  3   force =    -0.00002154    0.00002154    0.00000000
     atom   22 type  3   force =     0.00002154   -0.00002154    0.00000000
     atom   23 type  3   force =     0.00000000   -0.00000000    0.00000000
     atom   24 type  3   force =     0.00002154    0.00002154    0.00000000
     atom   25 type  2   force =     0.00000000   -0.00001564    0.00000597
     atom   26 type  2   force =     0.00000000    0.00001564   -0.00000597
     atom   27 type  2   force =     0.00000000    0.00001564    0.00000597
     atom   28 type  2   force =    -0.00000000   -0.00001564   -0.00000597
     atom   29 type  2   force =     0.00001564    0.00000000    0.00000597
     atom   30 type  2   force =    -0.00001564   -0.00000000   -0.00000597
     atom   31 type  2   force =    -0.00001564    0.00000000    0.00000597
     atom   32 type  2   force =     0.00001564   -0.00000000   -0.00000597
     atom   33 type  2   force =    -0.00001375   -0.00000000   -0.00000852
     atom   34 type  2   force =    -0.00001375   -0.00000000    0.00000852
     atom   35 type  2   force =     0.00000000   -0.00001375    0.00000852
     atom   36 type  2   force =    -0.00000000   -0.00001375   -0.00000852
     atom   37 type  2   force =     0.00000000    0.00001375    0.00000852
     atom   38 type  2   force =    -0.00000000    0.00001375   -0.00000852
     atom   39 type  2   force =     0.00001375   -0.00000000   -0.00000852
     atom   40 type  2   force =     0.00001375   -0.00000000    0.00000852

     Total force =     0.000482     Total SCF correction =     0.000332
     SCF correction compared to forces is large: reduce conv_thr to get better values


     Computing stress (Cartesian axis) and pressure

          total   stress  (Ry/bohr**3)                   (kbar)     P=        0.07
   0.00000212   0.00000000   0.00000000            0.31        0.00        0.00
   0.00000000   0.00000212   0.00000000            0.00        0.31        0.00
   0.00000000   0.00000000  -0.00000273            0.00        0.00       -0.40

     kinetic stress (kbar)  31079.80      0.00      0.00
                                0.00  31079.80      0.00
                                0.00      0.00  31059.25

     local   stress (kbar)     49.72     -0.00      0.00
                               -0.00     49.72      0.00
                                0.00      0.00   5540.04

     nonloc. stress (kbar)  -6891.34      0.00      0.00
                                0.00  -6891.34      0.00
                                0.00      0.00  -6891.61

     hartree stress (kbar)  14964.10     -0.00      0.00
                               -0.00  14964.10      0.00
                                0.00      0.00  12717.47

     exc-cor stress (kbar)    905.95     -0.00      0.00
                               -0.00    905.95     -0.00
                                0.00     -0.00    904.83

     corecor stress (kbar)  -7644.32      0.00     -0.00
                                0.00  -7644.32     -0.00
                               -0.00     -0.00  -7643.72

     ewald   stress (kbar) -32463.60     -0.00     -0.00
                               -0.00 -32463.60     -0.00
                               -0.00     -0.00 -35686.67

     hubbard stress (kbar)      0.00      0.00      0.00
                                0.00      0.00      0.00
                                0.00      0.00      0.00

     DFT-D   stress (kbar)      0.00      0.00      0.00
                                0.00      0.00      0.00
                                0.00      0.00      0.00

     XDM     stress (kbar)      0.00      0.00      0.00
                                0.00      0.00      0.00
                                0.00      0.00      0.00

     dft-nl  stress (kbar)      0.00      0.00      0.00
                                0.00      0.00      0.00
                                0.00      0.00      0.00

     TS-vdW  stress (kbar)      0.00      0.00      0.00
                                0.00      0.00      0.00
                                0.00      0.00      0.00

     MDB     stress (kbar)      0.00      0.00      0.00
                                0.00      0.00      0.00
                                0.00      0.00      0.00

     3D-RISM stress (kbar)      0.00      0.00      0.00
                                0.00      0.00      0.00
                                0.00      0.00      0.00


     Writing all to output data dir ./out/v.save/ :
     XML data file, charge density, pseudopotentials, collected wavefunctions
 
     init_run     :     21.10s CPU     21.47s WALL (       2 calls)
     electrons    :   1915.57s CPU   1941.60s WALL (       2 calls)
     forces       :      7.58s CPU      7.70s WALL (       2 calls)
     stress       :    285.01s CPU    285.86s WALL (       2 calls)

     Called by init_run:
     wfcinit      :     13.59s CPU     13.82s WALL (       2 calls)
     wfcinit:atom :      0.16s CPU      0.18s WALL (      20 calls)
     wfcinit:wfcr :     12.63s CPU     12.76s WALL (      20 calls)
     potinit      :      0.61s CPU      0.62s WALL (       2 calls)
     hinit0       :      0.23s CPU      0.24s WALL (       2 calls)

     Called by electrons:
     c_bands      :   1699.90s CPU   1720.87s WALL (      62 calls)
     sum_band     :    193.77s CPU    197.03s WALL (      62 calls)
     v_of_rho     :      4.87s CPU      4.99s WALL (      64 calls)
     v_h          :      0.36s CPU      0.37s WALL (      64 calls)
     v_xc         :      4.79s CPU      4.91s WALL (      68 calls)
     newd         :      5.20s CPU      6.23s WALL (      64 calls)
     PAW_pot      :     10.09s CPU     10.35s WALL (      64 calls)
     mix_rho      :      1.09s CPU      1.15s WALL (      62 calls)

     Called by c_bands:
     init_us_2    :     23.79s CPU     23.97s WALL (    1300 calls)
     cegterg      :   1405.65s CPU   1418.27s WALL (     620 calls)

     Called by sum_band:
     sum_band:wei :      0.03s CPU      0.04s WALL (      62 calls)
     sum_band:loo :    137.03s CPU    138.33s WALL (      62 calls)
     sum_band:buf :      2.98s CPU      3.09s WALL (     620 calls)
     sum_band:ini :     11.47s CPU     11.53s WALL (     620 calls)
     sum_band:cal :     39.83s CPU     39.97s WALL (     620 calls)
     sum_band:bec :      0.92s CPU      0.93s WALL (     620 calls)
     addusdens    :      9.31s CPU     11.10s WALL (      62 calls)
                                        0.00s GPU  (      62 calls)
     addusd:skk   :      0.14s CPU      0.15s WALL (     186 calls)
                                        0.00s GPU  (     186 calls)

     Called by *egterg:
     cdiaghg      :    225.72s CPU    227.11s WALL (    3918 calls)
     cegterg:over :    120.85s CPU    121.58s WALL (    3298 calls)
     cegterg:upda :     85.59s CPU     87.02s WALL (    3298 calls)
     cegterg:last :    178.80s CPU    179.43s WALL (    1554 calls)
     cdiaghg:chol :     12.56s CPU     12.68s WALL (    3918 calls)
     cdiaghg:inve :      5.56s CPU      5.58s WALL (    3918 calls)
     cdiaghg:para :     48.25s CPU     48.61s WALL (    7836 calls)
     h_psi        :    638.87s CPU    645.76s WALL (    3938 calls)
     s_psi        :    120.68s CPU    121.12s WALL (    3938 calls)
     g_psi        :      4.85s CPU      4.88s WALL (    3298 calls)

     Called by h_psi:
     h_psi:calbec :    119.34s CPU    119.83s WALL (    3938 calls)
     vloc_psi     :    389.88s CPU    395.24s WALL (    3938 calls)
     add_vuspsi   :    121.34s CPU    121.86s WALL (    3938 calls)

     General routines
     calbec       :    166.73s CPU    167.40s WALL (    4658 calls)
     fft          :      2.81s CPU      2.88s WALL (     878 calls)
     ffts         :      0.15s CPU      0.16s WALL (     126 calls)
     fftw         :    345.95s CPU    350.64s WALL (  965538 calls)
     interpolate  :      0.33s CPU      0.33s WALL (      64 calls)
 
     Parallel routines

     PAW routines
     PAW_pot      :     10.09s CPU     10.35s WALL (      64 calls)
     PAW_symme    :      0.08s CPU      0.08s WALL (     126 calls)
 
     PWSCF        :  37m11.53s CPU  37m40.67s WALL

 
   This run was terminated on:  23:29:41  13Aug2026            

=------------------------------------------------------------------------------=
   JOB DONE.
=------------------------------------------------------------------------------=
